 "X",  "Y",  "Z",  "U",  "V",  "W",  "exx",  "eyy",  "exy",  "e1",  "e2",  "gamma",  "e_vonmises",  "dU_dt",  "dV_dt",  "dW_dt",  "dExx_dt",  "dEyy_dt",  "dExy_dt",  "sigma",  "x",  "y",  "u",  "v",  "q",  "r",  "q_ref",  "r_ref",  "SIGMA_X",  "SIGMA_Y",  "SIGMA_Z"
0,0,0,0,0,0,0,0,0,0,0,0,0,0,0,0,0,0,0,-1,62,289,0,0,0,0,0,0,0,0,0
0,0,0,0,0,0,0,0,0,0,0,0,0,0,0,0,0,0,0,-1,69,289,0,0,0,0,0,0,0,0,0
0,0,0,0,0,0,0,0,0,0,0,0,0,0,0,0,0,0,0,-1,76,289,0,0,0,0,0,0,0,0,0
0,0,0,0,0,0,0,0,0,0,0,0,0,0,0,0,0,0,0,-1,83,289,0,0,0,0,0,0,0,0,0
0,0,0,0,0,0,0,0,0,0,0,0,0,0,0,0,0,0,0,-1,90,289,0,0,0,0,0,0,0,0,0
0,0,0,0,0,0,0,0,0,0,0,0,0,0,0,0,0,0,0,-1,97,289,0,0,0,0,0,0,0,0,0
0,0,0,0,0,0,0,0,0,0,0,0,0,0,0,0,0,0,0,-1,104,289,0,0,0,0,0,0,0,0,0
0,0,0,0,0,0,0,0,0,0,0,0,0,0,0,0,0,0,0,-1,111,289,0,0,0,0,0,0,0,0,0
0,0,0,0,0,0,0,0,0,0,0,0,0,0,0,0,0,0,0,-1,118,289,0,0,0,0,0,0,0,0,0
0,0,0,0,0,0,0,0,0,0,0,0,0,0,0,0,0,0,0,-1,125,289,0,0,0,0,0,0,0,0,0
0,0,0,0,0,0,0,0,0,0,0,0,0,0,0,0,0,0,0,-1,132,289,0,0,0,0,0,0,0,0,0
0,0,0,0,0,0,0,0,0,0,0,0,0,0,0,0,0,0,0,-1,139,289,0,0,0,0,0,0,0,0,0
0,0,0,0,0,0,0,0,0,0,0,0,0,0,0,0,0,0,0,-1,146,289,0,0,0,0,0,0,0,0,0
0,0,0,0,0,0,0,0,0,0,0,0,0,0,0,0,0,0,0,-1,153,289,0,0,0,0,0,0,0,0,0
0,0,0,0,0,0,0,0,0,0,0,0,0,0,0,0,0,0,0,-1,160,289,0,0,0,0,0,0,0,0,0
0,0,0,0,0,0,0,0,0,0,0,0,0,0,0,0,0,0,0,-1,167,289,0,0,0,0,0,0,0,0,0
0,0,0,0,0,0,0,0,0,0,0,0,0,0,0,0,0,0,0,-1,174,289,0,0,0,0,0,0,0,0,0
0,0,0,0,0,0,0,0,0,0,0,0,0,0,0,0,0,0,0,-1,181,289,0,0,0,0,0,0,0,0,0
0,0,0,0,0,0,0,0,0,0,0,0,0,0,0,0,0,0,0,-1,188,289,0,0,0,0,0,0,0,0,0
0,0,0,0,0,0,0,0,0,0,0,0,0,0,0,0,0,0,0,-1,195,289,0,0,0,0,0,0,0,0,0
0,0,0,0,0,0,0,0,0,0,0,0,0,0,0,0,0,0,0,-1,202,289,0,0,0,0,0,0,0,0,0
0,0,0,0,0,0,0,0,0,0,0,0,0,0,0,0,0,0,0,-1,209,289,0,0,0,0,0,0,0,0,0
0,0,0,0,0,0,0,0,0,0,0,0,0,0,0,0,0,0,0,-1,216,289,0,0,0,0,0,0,0,0,0
0,0,0,0,0,0,0,0,0,0,0,0,0,0,0,0,0,0,0,-1,223,289,0,0,0,0,0,0,0,0,0
0,0,0,0,0,0,0,0,0,0,0,0,0,0,0,0,0,0,0,-1,230,289,0,0,0,0,0,0,0,0,0
0,0,0,0,0,0,0,0,0,0,0,0,0,0,0,0,0,0,0,-1,237,289,0,0,0,0,0,0,0,0,0
0,0,0,0,0,0,0,0,0,0,0,0,0,0,0,0,0,0,0,-1,244,289,0,0,0,0,0,0,0,0,0
0,0,0,0,0,0,0,0,0,0,0,0,0,0,0,0,0,0,0,-1,251,289,0,0,0,0,0,0,0,0,0
0,0,0,0,0,0,0,0,0,0,0,0,0,0,0,0,0,0,0,-1,258,289,0,0,0,0,0,0,0,0,0
0,0,0,0,0,0,0,0,0,0,0,0,0,0,0,0,0,0,0,-1,265,289,0,0,0,0,0,0,0,0,0
0,0,0,0,0,0,0,0,0,0,0,0,0,0,0,0,0,0,0,-1,272,289,0,0,0,0,0,0,0,0,0
0,0,0,0,0,0,0,0,0,0,0,0,0,0,0,0,0,0,0,-1,279,289,0,0,0,0,0,0,0,0,0
0,0,0,0,0,0,0,0,0,0,0,0,0,0,0,0,0,0,0,-1,286,289,0,0,0,0,0,0,0,0,0
0,0,0,0,0,0,0,0,0,0,0,0,0,0,0,0,0,0,0,-1,293,289,0,0,0,0,0,0,0,0,0
0,0,0,0,0,0,0,0,0,0,0,0,0,0,0,0,0,0,0,-1,300,289,0,0,0,0,0,0,0,0,0
0,0,0,0,0,0,0,0,0,0,0,0,0,0,0,0,0,0,0,-1,307,289,0,0,0,0,0,0,0,0,0
0,0,0,0,0,0,0,0,0,0,0,0,0,0,0,0,0,0,0,-1,314,289,0,0,0,0,0,0,0,0,0
0,0,0,0,0,0,0,0,0,0,0,0,0,0,0,0,0,0,0,-1,321,289,0,0,0,0,0,0,0,0,0
0,0,0,0,0,0,0,0,0,0,0,0,0,0,0,0,0,0,0,-1,328,289,0,0,0,0,0,0,0,0,0
0,0,0,0,0,0,0,0,0,0,0,0,0,0,0,0,0,0,0,-1,335,289,0,0,0,0,0,0,0,0,0
0,0,0,0,0,0,0,0,0,0,0,0,0,0,0,0,0,0,0,-1,342,289,0,0,0,0,0,0,0,0,0
0,0,0,0,0,0,0,0,0,0,0,0,0,0,0,0,0,0,0,-1,349,289,0,0,0,0,0,0,0,0,0
0,0,0,0,0,0,0,0,0,0,0,0,0,0,0,0,0,0,0,-1,356,289,0,0,0,0,0,0,0,0,0
0,0,0,0,0,0,0,0,0,0,0,0,0,0,0,0,0,0,0,-1,363,289,0,0,0,0,0,0,0,0,0
0,0,0,0,0,0,0,0,0,0,0,0,0,0,0,0,0,0,0,-1,370,289,0,0,0,0,0,0,0,0,0
0,0,0,0,0,0,0,0,0,0,0,0,0,0,0,0,0,0,0,-1,377,289,0,0,0,0,0,0,0,0,0
0,0,0,0,0,0,0,0,0,0,0,0,0,0,0,0,0,0,0,-1,384,289,0,0,0,0,0,0,0,0,0
0,0,0,0,0,0,0,0,0,0,0,0,0,0,0,0,0,0,0,-1,391,289,0,0,0,0,0,0,0,0,0
0,0,0,0,0,0,0,0,0,0,0,0,0,0,0,0,0,0,0,-1,398,289,0,0,0,0,0,0,0,0,0
0,0,0,0,0,0,0,0,0,0,0,0,0,0,0,0,0,0,0,-1,405,289,0,0,0,0,0,0,0,0,0
0,0,0,0,0,0,0,0,0,0,0,0,0,0,0,0,0,0,0,-1,412,289,0,0,0,0,0,0,0,0,0
0,0,0,0,0,0,0,0,0,0,0,0,0,0,0,0,0,0,0,-1,419,289,0,0,0,0,0,0,0,0,0
0,0,0,0,0,0,0,0,0,0,0,0,0,0,0,0,0,0,0,-1,426,289,0,0,0,0,0,0,0,0,0
0,0,0,0,0,0,0,0,0,0,0,0,0,0,0,0,0,0,0,-1,433,289,0,0,0,0,0,0,0,0,0
0,0,0,0,0,0,0,0,0,0,0,0,0,0,0,0,0,0,0,-1,440,289,0,0,0,0,0,0,0,0,0
0,0,0,0,0,0,0,0,0,0,0,0,0,0,0,0,0,0,0,-1,447,289,0,0,0,0,0,0,0,0,0
0,0,0,0,0,0,0,0,0,0,0,0,0,0,0,0,0,0,0,-1,454,289,0,0,0,0,0,0,0,0,0
0,0,0,0,0,0,0,0,0,0,0,0,0,0,0,0,0,0,0,-1,461,289,0,0,0,0,0,0,0,0,0
0,0,0,0,0,0,0,0,0,0,0,0,0,0,0,0,0,0,0,-1,468,289,0,0,0,0,0,0,0,0,0
0,0,0,0,0,0,0,0,0,0,0,0,0,0,0,0,0,0,0,-1,475,289,0,0,0,0,0,0,0,0,0
0,0,0,0,0,0,0,0,0,0,0,0,0,0,0,0,0,0,0,-1,482,289,0,0,0,0,0,0,0,0,0
0,0,0,0,0,0,0,0,0,0,0,0,0,0,0,0,0,0,0,-1,489,289,0,0,0,0,0,0,0,0,0
0,0,0,0,0,0,0,0,0,0,0,0,0,0,0,0,0,0,0,-1,496,289,0,0,0,0,0,0,0,0,0
0,0,0,0,0,0,0,0,0,0,0,0,0,0,0,0,0,0,0,-1,503,289,0,0,0,0,0,0,0,0,0
0,0,0,0,0,0,0,0,0,0,0,0,0,0,0,0,0,0,0,-1,510,289,0,0,0,0,0,0,0,0,0
0,0,0,0,0,0,0,0,0,0,0,0,0,0,0,0,0,0,0,-1,517,289,0,0,0,0,0,0,0,0,0
0,0,0,0,0,0,0,0,0,0,0,0,0,0,0,0,0,0,0,-1,524,289,0,0,0,0,0,0,0,0,0
0,0,0,0,0,0,0,0,0,0,0,0,0,0,0,0,0,0,0,-1,531,289,0,0,0,0,0,0,0,0,0
0,0,0,0,0,0,0,0,0,0,0,0,0,0,0,0,0,0,0,-1,538,289,0,0,0,0,0,0,0,0,0
0,0,0,0,0,0,0,0,0,0,0,0,0,0,0,0,0,0,0,-1,545,289,0,0,0,0,0,0,0,0,0
0,0,0,0,0,0,0,0,0,0,0,0,0,0,0,0,0,0,0,-1,552,289,0,0,0,0,0,0,0,0,0
0,0,0,0,0,0,0,0,0,0,0,0,0,0,0,0,0,0,0,-1,559,289,0,0,0,0,0,0,0,0,0
0,0,0,0,0,0,0,0,0,0,0,0,0,0,0,0,0,0,0,-1,566,289,0,0,0,0,0,0,0,0,0
0,0,0,0,0,0,0,0,0,0,0,0,0,0,0,0,0,0,0,-1,573,289,0,0,0,0,0,0,0,0,0
0,0,0,0,0,0,0,0,0,0,0,0,0,0,0,0,0,0,0,-1,580,289,0,0,0,0,0,0,0,0,0
0,0,0,0,0,0,0,0,0,0,0,0,0,0,0,0,0,0,0,-1,587,289,0,0,0,0,0,0,0,0,0
0,0,0,0,0,0,0,0,0,0,0,0,0,0,0,0,0,0,0,-1,594,289,0,0,0,0,0,0,0,0,0
0,0,0,0,0,0,0,0,0,0,0,0,0,0,0,0,0,0,0,-1,601,289,0,0,0,0,0,0,0,0,0
0,0,0,0,0,0,0,0,0,0,0,0,0,0,0,0,0,0,0,-1,62,296,0,0,0,0,0,0,0,0,0
0,0,0,0,0,0,0,0,0,0,0,0,0,0,0,0,0,0,0,-1,69,296,0,0,0,0,0,0,0,0,0
0,0,0,0,0,0,0,0,0,0,0,0,0,0,0,0,0,0,0,-1,76,296,0,0,0,0,0,0,0,0,0
0,0,0,0,0,0,0,0,0,0,0,0,0,0,0,0,0,0,0,-1,83,296,0,0,0,0,0,0,0,0,0
0,0,0,0,0,0,0,0,0,0,0,0,0,0,0,0,0,0,0,-1,90,296,0,0,0,0,0,0,0,0,0
0,0,0,0,0,0,0,0,0,0,0,0,0,0,0,0,0,0,0,-1,97,296,0,0,0,0,0,0,0,0,0
0,0,0,0,0,0,0,0,0,0,0,0,0,0,0,0,0,0,0,-1,104,296,0,0,0,0,0,0,0,0,0
0,0,0,0,0,0,0,0,0,0,0,0,0,0,0,0,0,0,0,-1,111,296,0,0,0,0,0,0,0,0,0
0,0,0,0,0,0,0,0,0,0,0,0,0,0,0,0,0,0,0,-1,118,296,0,0,0,0,0,0,0,0,0
0,0,0,0,0,0,0,0,0,0,0,0,0,0,0,0,0,0,0,-1,125,296,0,0,0,0,0,0,0,0,0
0,0,0,0,0,0,0,0,0,0,0,0,0,0,0,0,0,0,0,-1,132,296,0,0,0,0,0,0,0,0,0
0,0,0,0,0,0,0,0,0,0,0,0,0,0,0,0,0,0,0,-1,139,296,0,0,0,0,0,0,0,0,0
0,0,0,0,0,0,0,0,0,0,0,0,0,0,0,0,0,0,0,-1,146,296,0,0,0,0,0,0,0,0,0
0,0,0,0,0,0,0,0,0,0,0,0,0,0,0,0,0,0,0,-1,153,296,0,0,0,0,0,0,0,0,0
0,0,0,0,0,0,0,0,0,0,0,0,0,0,0,0,0,0,0,-1,160,296,0,0,0,0,0,0,0,0,0
0,0,0,0,0,0,0,0,0,0,0,0,0,0,0,0,0,0,0,-1,167,296,0,0,0,0,0,0,0,0,0
0,0,0,0,0,0,0,0,0,0,0,0,0,0,0,0,0,0,0,-1,174,296,0,0,0,0,0,0,0,0,0
0,0,0,0,0,0,0,0,0,0,0,0,0,0,0,0,0,0,0,-1,181,296,0,0,0,0,0,0,0,0,0
0,0,0,0,0,0,0,0,0,0,0,0,0,0,0,0,0,0,0,-1,188,296,0,0,0,0,0,0,0,0,0
0,0,0,0,0,0,0,0,0,0,0,0,0,0,0,0,0,0,0,-1,195,296,0,0,0,0,0,0,0,0,0
0,0,0,0,0,0,0,0,0,0,0,0,0,0,0,0,0,0,0,-1,202,296,0,0,0,0,0,0,0,0,0
0,0,0,0,0,0,0,0,0,0,0,0,0,0,0,0,0,0,0,-1,209,296,0,0,0,0,0,0,0,0,0
0,0,0,0,0,0,0,0,0,0,0,0,0,0,0,0,0,0,0,-1,216,296,0,0,0,0,0,0,0,0,0
0,0,0,0,0,0,0,0,0,0,0,0,0,0,0,0,0,0,0,-1,223,296,0,0,0,0,0,0,0,0,0
0,0,0,0,0,0,0,0,0,0,0,0,0,0,0,0,0,0,0,-1,230,296,0,0,0,0,0,0,0,0,0
0,0,0,0,0,0,0,0,0,0,0,0,0,0,0,0,0,0,0,-1,237,296,0,0,0,0,0,0,0,0,0
0,0,0,0,0,0,0,0,0,0,0,0,0,0,0,0,0,0,0,-1,244,296,0,0,0,0,0,0,0,0,0
0,0,0,0,0,0,0,0,0,0,0,0,0,0,0,0,0,0,0,-1,251,296,0,0,0,0,0,0,0,0,0
0,0,0,0,0,0,0,0,0,0,0,0,0,0,0,0,0,0,0,-1,258,296,0,0,0,0,0,0,0,0,0
0,0,0,0,0,0,0,0,0,0,0,0,0,0,0,0,0,0,0,-1,265,296,0,0,0,0,0,0,0,0,0
0,0,0,0,0,0,0,0,0,0,0,0,0,0,0,0,0,0,0,-1,272,296,0,0,0,0,0,0,0,0,0
0,0,0,0,0,0,0,0,0,0,0,0,0,0,0,0,0,0,0,-1,279,296,0,0,0,0,0,0,0,0,0
0,0,0,0,0,0,0,0,0,0,0,0,0,0,0,0,0,0,0,-1,286,296,0,0,0,0,0,0,0,0,0
0,0,0,0,0,0,0,0,0,0,0,0,0,0,0,0,0,0,0,-1,293,296,0,0,0,0,0,0,0,0,0
0,0,0,0,0,0,0,0,0,0,0,0,0,0,0,0,0,0,0,-1,300,296,0,0,0,0,0,0,0,0,0
0,0,0,0,0,0,0,0,0,0,0,0,0,0,0,0,0,0,0,-1,307,296,0,0,0,0,0,0,0,0,0
0,0,0,0,0,0,0,0,0,0,0,0,0,0,0,0,0,0,0,-1,314,296,0,0,0,0,0,0,0,0,0
0,0,0,0,0,0,0,0,0,0,0,0,0,0,0,0,0,0,0,-1,321,296,0,0,0,0,0,0,0,0,0
0,0,0,0,0,0,0,0,0,0,0,0,0,0,0,0,0,0,0,-1,328,296,0,0,0,0,0,0,0,0,0
0,0,0,0,0,0,0,0,0,0,0,0,0,0,0,0,0,0,0,-1,335,296,0,0,0,0,0,0,0,0,0
0,0,0,0,0,0,0,0,0,0,0,0,0,0,0,0,0,0,0,-1,342,296,0,0,0,0,0,0,0,0,0
0,0,0,0,0,0,0,0,0,0,0,0,0,0,0,0,0,0,0,-1,349,296,0,0,0,0,0,0,0,0,0
0,0,0,0,0,0,0,0,0,0,0,0,0,0,0,0,0,0,0,-1,356,296,0,0,0,0,0,0,0,0,0
0,0,0,0,0,0,0,0,0,0,0,0,0,0,0,0,0,0,0,-1,363,296,0,0,0,0,0,0,0,0,0
0,0,0,0,0,0,0,0,0,0,0,0,0,0,0,0,0,0,0,-1,370,296,0,0,0,0,0,0,0,0,0
0,0,0,0,0,0,0,0,0,0,0,0,0,0,0,0,0,0,0,-1,377,296,0,0,0,0,0,0,0,0,0
0,0,0,0,0,0,0,0,0,0,0,0,0,0,0,0,0,0,0,-1,384,296,0,0,0,0,0,0,0,0,0
0,0,0,0,0,0,0,0,0,0,0,0,0,0,0,0,0,0,0,-1,391,296,0,0,0,0,0,0,0,0,0
0,0,0,0,0,0,0,0,0,0,0,0,0,0,0,0,0,0,0,-1,398,296,0,0,0,0,0,0,0,0,0
0,0,0,0,0,0,0,0,0,0,0,0,0,0,0,0,0,0,0,-1,405,296,0,0,0,0,0,0,0,0,0
0,0,0,0,0,0,0,0,0,0,0,0,0,0,0,0,0,0,0,-1,412,296,0,0,0,0,0,0,0,0,0
0,0,0,0,0,0,0,0,0,0,0,0,0,0,0,0,0,0,0,-1,419,296,0,0,0,0,0,0,0,0,0
0,0,0,0,0,0,0,0,0,0,0,0,0,0,0,0,0,0,0,-1,426,296,0,0,0,0,0,0,0,0,0
0,0,0,0,0,0,0,0,0,0,0,0,0,0,0,0,0,0,0,-1,433,296,0,0,0,0,0,0,0,0,0
0,0,0,0,0,0,0,0,0,0,0,0,0,0,0,0,0,0,0,-1,440,296,0,0,0,0,0,0,0,0,0
0,0,0,0,0,0,0,0,0,0,0,0,0,0,0,0,0,0,0,-1,447,296,0,0,0,0,0,0,0,0,0
0,0,0,0,0,0,0,0,0,0,0,0,0,0,0,0,0,0,0,-1,454,296,0,0,0,0,0,0,0,0,0
0,0,0,0,0,0,0,0,0,0,0,0,0,0,0,0,0,0,0,-1,461,296,0,0,0,0,0,0,0,0,0
0,0,0,0,0,0,0,0,0,0,0,0,0,0,0,0,0,0,0,-1,468,296,0,0,0,0,0,0,0,0,0
0,0,0,0,0,0,0,0,0,0,0,0,0,0,0,0,0,0,0,-1,475,296,0,0,0,0,0,0,0,0,0
0,0,0,0,0,0,0,0,0,0,0,0,0,0,0,0,0,0,0,-1,482,296,0,0,0,0,0,0,0,0,0
0,0,0,0,0,0,0,0,0,0,0,0,0,0,0,0,0,0,0,-1,489,296,0,0,0,0,0,0,0,0,0
0,0,0,0,0,0,0,0,0,0,0,0,0,0,0,0,0,0,0,-1,496,296,0,0,0,0,0,0,0,0,0
0,0,0,0,0,0,0,0,0,0,0,0,0,0,0,0,0,0,0,-1,503,296,0,0,0,0,0,0,0,0,0
0,0,0,0,0,0,0,0,0,0,0,0,0,0,0,0,0,0,0,-1,510,296,0,0,0,0,0,0,0,0,0
0,0,0,0,0,0,0,0,0,0,0,0,0,0,0,0,0,0,0,-1,517,296,0,0,0,0,0,0,0,0,0
0,0,0,0,0,0,0,0,0,0,0,0,0,0,0,0,0,0,0,-1,524,296,0,0,0,0,0,0,0,0,0
0,0,0,0,0,0,0,0,0,0,0,0,0,0,0,0,0,0,0,-1,531,296,0,0,0,0,0,0,0,0,0
0,0,0,0,0,0,0,0,0,0,0,0,0,0,0,0,0,0,0,-1,538,296,0,0,0,0,0,0,0,0,0
0,0,0,0,0,0,0,0,0,0,0,0,0,0,0,0,0,0,0,-1,545,296,0,0,0,0,0,0,0,0,0
0,0,0,0,0,0,0,0,0,0,0,0,0,0,0,0,0,0,0,-1,552,296,0,0,0,0,0,0,0,0,0
0,0,0,0,0,0,0,0,0,0,0,0,0,0,0,0,0,0,0,-1,559,296,0,0,0,0,0,0,0,0,0
0,0,0,0,0,0,0,0,0,0,0,0,0,0,0,0,0,0,0,-1,566,296,0,0,0,0,0,0,0,0,0
0,0,0,0,0,0,0,0,0,0,0,0,0,0,0,0,0,0,0,-1,573,296,0,0,0,0,0,0,0,0,0
0,0,0,0,0,0,0,0,0,0,0,0,0,0,0,0,0,0,0,-1,580,296,0,0,0,0,0,0,0,0,0
0,0,0,0,0,0,0,0,0,0,0,0,0,0,0,0,0,0,0,-1,587,296,0,0,0,0,0,0,0,0,0
0,0,0,0,0,0,0,0,0,0,0,0,0,0,0,0,0,0,0,-1,594,296,0,0,0,0,0,0,0,0,0
0,0,0,0,0,0,0,0,0,0,0,0,0,0,0,0,0,0,0,-1,601,296,0,0,0,0,0,0,0,0,0
0,0,0,0,0,0,0,0,0,0,0,0,0,0,0,0,0,0,0,-1,62,303,0,0,0,0,0,0,0,0,0
0,0,0,0,0,0,0,0,0,0,0,0,0,0,0,0,0,0,0,-1,69,303,0,0,0,0,0,0,0,0,0
0,0,0,0,0,0,0,0,0,0,0,0,0,0,0,0,0,0,0,-1,76,303,0,0,0,0,0,0,0,0,0
0,0,0,0,0,0,0,0,0,0,0,0,0,0,0,0,0,0,0,-1,83,303,0,0,0,0,0,0,0,0,0
0,0,0,0,0,0,0,0,0,0,0,0,0,0,0,0,0,0,0,-1,90,303,0,0,0,0,0,0,0,0,0
0,0,0,0,0,0,0,0,0,0,0,0,0,0,0,0,0,0,0,-1,97,303,0,0,0,0,0,0,0,0,0
0,0,0,0,0,0,0,0,0,0,0,0,0,0,0,0,0,0,0,-1,104,303,0,0,0,0,0,0,0,0,0
0,0,0,0,0,0,0,0,0,0,0,0,0,0,0,0,0,0,0,-1,111,303,0,0,0,0,0,0,0,0,0
0,0,0,0,0,0,0,0,0,0,0,0,0,0,0,0,0,0,0,-1,118,303,0,0,0,0,0,0,0,0,0
0,0,0,0,0,0,0,0,0,0,0,0,0,0,0,0,0,0,0,-1,125,303,0,0,0,0,0,0,0,0,0
0,0,0,0,0,0,0,0,0,0,0,0,0,0,0,0,0,0,0,-1,132,303,0,0,0,0,0,0,0,0,0
0,0,0,0,0,0,0,0,0,0,0,0,0,0,0,0,0,0,0,-1,139,303,0,0,0,0,0,0,0,0,0
0,0,0,0,0,0,0,0,0,0,0,0,0,0,0,0,0,0,0,-1,146,303,0,0,0,0,0,0,0,0,0
0,0,0,0,0,0,0,0,0,0,0,0,0,0,0,0,0,0,0,-1,153,303,0,0,0,0,0,0,0,0,0
0,0,0,0,0,0,0,0,0,0,0,0,0,0,0,0,0,0,0,-1,160,303,0,0,0,0,0,0,0,0,0
0,0,0,0,0,0,0,0,0,0,0,0,0,0,0,0,0,0,0,-1,167,303,0,0,0,0,0,0,0,0,0
0,0,0,0,0,0,0,0,0,0,0,0,0,0,0,0,0,0,0,-1,174,303,0,0,0,0,0,0,0,0,0
0,0,0,0,0,0,0,0,0,0,0,0,0,0,0,0,0,0,0,-1,181,303,0,0,0,0,0,0,0,0,0
0,0,0,0,0,0,0,0,0,0,0,0,0,0,0,0,0,0,0,-1,188,303,0,0,0,0,0,0,0,0,0
0,0,0,0,0,0,0,0,0,0,0,0,0,0,0,0,0,0,0,-1,195,303,0,0,0,0,0,0,0,0,0
0,0,0,0,0,0,0,0,0,0,0,0,0,0,0,0,0,0,0,-1,202,303,0,0,0,0,0,0,0,0,0
0,0,0,0,0,0,0,0,0,0,0,0,0,0,0,0,0,0,0,-1,209,303,0,0,0,0,0,0,0,0,0
0,0,0,0,0,0,0,0,0,0,0,0,0,0,0,0,0,0,0,-1,216,303,0,0,0,0,0,0,0,0,0
0,0,0,0,0,0,0,0,0,0,0,0,0,0,0,0,0,0,0,-1,223,303,0,0,0,0,0,0,0,0,0
0,0,0,0,0,0,0,0,0,0,0,0,0,0,0,0,0,0,0,-1,230,303,0,0,0,0,0,0,0,0,0
0,0,0,0,0,0,0,0,0,0,0,0,0,0,0,0,0,0,0,-1,237,303,0,0,0,0,0,0,0,0,0
0,0,0,0,0,0,0,0,0,0,0,0,0,0,0,0,0,0,0,-1,244,303,0,0,0,0,0,0,0,0,0
0,0,0,0,0,0,0,0,0,0,0,0,0,0,0,0,0,0,0,-1,251,303,0,0,0,0,0,0,0,0,0
0,0,0,0,0,0,0,0,0,0,0,0,0,0,0,0,0,0,0,-1,258,303,0,0,0,0,0,0,0,0,0
0,0,0,0,0,0,0,0,0,0,0,0,0,0,0,0,0,0,0,-1,265,303,0,0,0,0,0,0,0,0,0
0,0,0,0,0,0,0,0,0,0,0,0,0,0,0,0,0,0,0,-1,272,303,0,0,0,0,0,0,0,0,0
0,0,0,0,0,0,0,0,0,0,0,0,0,0,0,0,0,0,0,-1,279,303,0,0,0,0,0,0,0,0,0
0,0,0,0,0,0,0,0,0,0,0,0,0,0,0,0,0,0,0,-1,286,303,0,0,0,0,0,0,0,0,0
0,0,0,0,0,0,0,0,0,0,0,0,0,0,0,0,0,0,0,-1,293,303,0,0,0,0,0,0,0,0,0
0,0,0,0,0,0,0,0,0,0,0,0,0,0,0,0,0,0,0,-1,300,303,0,0,0,0,0,0,0,0,0
0,0,0,0,0,0,0,0,0,0,0,0,0,0,0,0,0,0,0,-1,307,303,0,0,0,0,0,0,0,0,0
0,0,0,0,0,0,0,0,0,0,0,0,0,0,0,0,0,0,0,-1,314,303,0,0,0,0,0,0,0,0,0
0,0,0,0,0,0,0,0,0,0,0,0,0,0,0,0,0,0,0,-1,321,303,0,0,0,0,0,0,0,0,0
0,0,0,0,0,0,0,0,0,0,0,0,0,0,0,0,0,0,0,-1,328,303,0,0,0,0,0,0,0,0,0
0,0,0,0,0,0,0,0,0,0,0,0,0,0,0,0,0,0,0,-1,335,303,0,0,0,0,0,0,0,0,0
0,0,0,0,0,0,0,0,0,0,0,0,0,0,0,0,0,0,0,-1,342,303,0,0,0,0,0,0,0,0,0
0,0,0,0,0,0,0,0,0,0,0,0,0,0,0,0,0,0,0,-1,349,303,0,0,0,0,0,0,0,0,0
0,0,0,0,0,0,0,0,0,0,0,0,0,0,0,0,0,0,0,-1,356,303,0,0,0,0,0,0,0,0,0
0,0,0,0,0,0,0,0,0,0,0,0,0,0,0,0,0,0,0,-1,363,303,0,0,0,0,0,0,0,0,0
0,0,0,0,0,0,0,0,0,0,0,0,0,0,0,0,0,0,0,-1,370,303,0,0,0,0,0,0,0,0,0
0,0,0,0,0,0,0,0,0,0,0,0,0,0,0,0,0,0,0,-1,377,303,0,0,0,0,0,0,0,0,0
0,0,0,0,0,0,0,0,0,0,0,0,0,0,0,0,0,0,0,-1,384,303,0,0,0,0,0,0,0,0,0
0,0,0,0,0,0,0,0,0,0,0,0,0,0,0,0,0,0,0,-1,391,303,0,0,0,0,0,0,0,0,0
0,0,0,0,0,0,0,0,0,0,0,0,0,0,0,0,0,0,0,-1,398,303,0,0,0,0,0,0,0,0,0
0,0,0,0,0,0,0,0,0,0,0,0,0,0,0,0,0,0,0,-1,405,303,0,0,0,0,0,0,0,0,0
0,0,0,0,0,0,0,0,0,0,0,0,0,0,0,0,0,0,0,-1,412,303,0,0,0,0,0,0,0,0,0
0,0,0,0,0,0,0,0,0,0,0,0,0,0,0,0,0,0,0,-1,419,303,0,0,0,0,0,0,0,0,0
0,0,0,0,0,0,0,0,0,0,0,0,0,0,0,0,0,0,0,-1,426,303,0,0,0,0,0,0,0,0,0
0,0,0,0,0,0,0,0,0,0,0,0,0,0,0,0,0,0,0,-1,433,303,0,0,0,0,0,0,0,0,0
0,0,0,0,0,0,0,0,0,0,0,0,0,0,0,0,0,0,0,-1,440,303,0,0,0,0,0,0,0,0,0
0,0,0,0,0,0,0,0,0,0,0,0,0,0,0,0,0,0,0,-1,447,303,0,0,0,0,0,0,0,0,0
0,0,0,0,0,0,0,0,0,0,0,0,0,0,0,0,0,0,0,-1,454,303,0,0,0,0,0,0,0,0,0
0,0,0,0,0,0,0,0,0,0,0,0,0,0,0,0,0,0,0,-1,461,303,0,0,0,0,0,0,0,0,0
0,0,0,0,0,0,0,0,0,0,0,0,0,0,0,0,0,0,0,-1,468,303,0,0,0,0,0,0,0,0,0
0,0,0,0,0,0,0,0,0,0,0,0,0,0,0,0,0,0,0,-1,475,303,0,0,0,0,0,0,0,0,0
0,0,0,0,0,0,0,0,0,0,0,0,0,0,0,0,0,0,0,-1,482,303,0,0,0,0,0,0,0,0,0
0,0,0,0,0,0,0,0,0,0,0,0,0,0,0,0,0,0,0,-1,489,303,0,0,0,0,0,0,0,0,0
0,0,0,0,0,0,0,0,0,0,0,0,0,0,0,0,0,0,0,-1,496,303,0,0,0,0,0,0,0,0,0
0,0,0,0,0,0,0,0,0,0,0,0,0,0,0,0,0,0,0,-1,503,303,0,0,0,0,0,0,0,0,0
0,0,0,0,0,0,0,0,0,0,0,0,0,0,0,0,0,0,0,-1,510,303,0,0,0,0,0,0,0,0,0
0,0,0,0,0,0,0,0,0,0,0,0,0,0,0,0,0,0,0,-1,517,303,0,0,0,0,0,0,0,0,0
0,0,0,0,0,0,0,0,0,0,0,0,0,0,0,0,0,0,0,-1,524,303,0,0,0,0,0,0,0,0,0
0,0,0,0,0,0,0,0,0,0,0,0,0,0,0,0,0,0,0,-1,531,303,0,0,0,0,0,0,0,0,0
0,0,0,0,0,0,0,0,0,0,0,0,0,0,0,0,0,0,0,-1,538,303,0,0,0,0,0,0,0,0,0
0,0,0,0,0,0,0,0,0,0,0,0,0,0,0,0,0,0,0,-1,545,303,0,0,0,0,0,0,0,0,0
0,0,0,0,0,0,0,0,0,0,0,0,0,0,0,0,0,0,0,-1,552,303,0,0,0,0,0,0,0,0,0
0,0,0,0,0,0,0,0,0,0,0,0,0,0,0,0,0,0,0,-1,559,303,0,0,0,0,0,0,0,0,0
0,0,0,0,0,0,0,0,0,0,0,0,0,0,0,0,0,0,0,-1,566,303,0,0,0,0,0,0,0,0,0
0,0,0,0,0,0,0,0,0,0,0,0,0,0,0,0,0,0,0,-1,573,303,0,0,0,0,0,0,0,0,0
0,0,0,0,0,0,0,0,0,0,0,0,0,0,0,0,0,0,0,-1,580,303,0,0,0,0,0,0,0,0,0
0,0,0,0,0,0,0,0,0,0,0,0,0,0,0,0,0,0,0,-1,587,303,0,0,0,0,0,0,0,0,0
0,0,0,0,0,0,0,0,0,0,0,0,0,0,0,0,0,0,0,-1,594,303,0,0,0,0,0,0,0,0,0
0,0,0,0,0,0,0,0,0,0,0,0,0,0,0,0,0,0,0,-1,601,303,0,0,0,0,0,0,0,0,0
0,0,0,0,0,0,0,0,0,0,0,0,0,0,0,0,0,0,0,-1,62,310,0,0,0,0,0,0,0,0,0
0,0,0,0,0,0,0,0,0,0,0,0,0,0,0,0,0,0,0,-1,69,310,0,0,0,0,0,0,0,0,0
0,0,0,0,0,0,0,0,0,0,0,0,0,0,0,0,0,0,0,-1,76,310,0,0,0,0,0,0,0,0,0
-18.237,16.3129,-297.156,4.08423,-1.23199,-0.789125,-0.00975884,0.00126763,0.00206707,0.00164239,-0.0101336,1.39144,0.0110468,644.555,-80.8425,-80.2692,-0.377921,-0.342772,0.225626,0.00520297,83,310,108.091,27.1557,192.375,112.237,83.7654,70.8364,0.000131998,0.0001342,0.000465562
-17.9691,16.3009,-297.206,4.08093,-1.23234,-0.789795,-0.00972725,0.00117632,0.00205123,0.00154944,-0.0101004,1.39086,0.0109576,644.751,-81.0193,-78.3625,-0.399091,-0.333568,0.135622,0.0054439,90,310,108.017,27.1692,192.441,112.949,84.0303,71.5687,0.000139018,0.000139751,0.000495242
-17.6984,16.2888,-297.248,4.07798,-1.23267,-0.78998,-0.00970717,0.00109389,0.00205424,0.00147139,-0.0100847,1.38906,0.0108951,644.884,-81.223,-76.4481,-0.37798,-0.321618,0.0694342,0.00551568,97,310,107.951,27.1805,192.65,113.666,84.423,72.3037,0.000142897,0.000138605,0.000512816
-17.4253,16.2764,-297.282,4.0753,-1.23297,-0.789928,-0.00969108,0.00102713,0.00206234,0.00141026,-0.0100742,1.38712,0.0108483,644.938,-81.5395,-74.645,-0.325716,-0.309301,0.0197084,0.00541662,104,310,107.892,27.1896,192.982,114.388,84.9282,73.0423,0.000140759,0.000134137,0.000504417
-17.1508,16.264,-297.313,4.0727,-1.23314,-0.789503,-0.00969075,0.000974002,0.00206752,0.00136079,-0.0100775,1.38585,0.0108223,644.937,-81.8728,-73.0571,-0.248827,-0.299381,-0.0181939,0.00512743,111,310,107.834,27.1963,193.387,115.112,85.4993,73.7866,0.000134043,0.00012741,0.000476853
-16.8748,16.2512,-297.339,4.07006,-1.23308,-0.788764,-0.00972145,0.000937366,0.00206653,0.001324,-0.0101081,1.38584,0.0108309,645.018,-82.122,-71.6036,-0.160486,-0.294357,-0.045075,0.00477218,118,310,107.774,27.1986,193.857,115.841,86.1325,74.5433,0.000125086,0.000122404,0.000440963
-16.598,16.2383,-297.361,4.06741,-1.23274,-0.787856,-0.00978567,0.000918444,0.0020494,0.0012974,-0.0101646,1.38795,0.0108715,645.199,-82.303,-69.7728,-0.0706548,-0.292369,-0.0655937,0.0045863,125,310,107.713,27.1922,194.371,116.563,86.8068,75.2988,0.000117981,0.000118409,0.000413431
-16.3205,16.2256,-297.382,4.06475,-1.23225,-0.786827,-0.00987979,0.000919325,0.00200384,0.00127916,-0.0102396,1.39312,0.0109355,645.4,-82.477,-67.8033,0.019093,-0.295947,-0.0811343,0.00462129,132,310,107.652,27.1824,194.91,117.278,87.5055,76.051,0.000119089,0.000119334,0.000418519
-16.0415,16.2126,-297.398,4.06202,-1.2315,-0.785957,-0.00997458,0.000942405,0.00191829,0.00126967,-0.0103018,1.40182,0.0109918,645.521,-82.6834,-65.7385,0.108548,-0.305819,-0.0994081,0.00459394,139,310,107.592,27.167,195.523,117.988,88.2781,76.8063,0.000121789,0.000118456,0.000428028
-15.7614,16.1998,-297.411,4.05937,-1.23065,-0.784634,-0.0100484,0.000978724,0.0018268,0.00127348,-0.0103432,1.41082,0.0110352,645.605,-82.8738,-63.8592,0.190295,-0.324598,-0.112609,0.00464525,146,310,107.532,27.1477,196.19,118.691,89.0987,77.5558,0.000123449,0.000114576,0.000435192
-15.4805,16.1869,-297.421,4.05673,-1.22976,-0.78265,-0.0101032,0.00104003,0.0017333,0.00130342,-0.0103666,1.41999,0.011076,645.735,-83.0505,-62.1943,0.262212,-0.348459,-0.120696,0.00454361,153,310,107.468,27.1285,196.899,119.395,89.9544,78.3077,0.000120005,0.000112429,0.000423489
-15.1996,16.1738,-297.43,4.05404,-1.229,-0.780145,-0.0101494,0.00113166,0.00163759,0.00136457,-0.0103823,1.42952,0.0111275,645.915,-83.2672,-60.5505,0.31398,-0.364107,-0.126087,0.00443781,160,310,107.4,27.1107,197.61,120.109,90.8102,79.0645,0.000115267,0.000110995,0.000405848
-14.9187,16.1606,-297.44,4.0511,-1.22813,-0.777218,-0.0101849,0.00124484,0.00154462,0.0014499,-0.01039,1.43881,0.0111856,646.179,-83.5286,-58.7848,0.334005,-0.367418,-0.13055,0.00436514,167,310,107.322,27.0908,198.311,120.825,91.6577,79.8264,0.000112522,0.000110214,0.000393382
-14.6361,16.1472,-297.444,4.04778,-1.22702,-0.774587,-0.0102103,0.00137547,0.00145805,0.00155615,-0.010391,1.44751,0.0112501,646.318,-83.8011,-56.9738,0.330934,-0.363963,-0.138056,0.00431045,174,310,107.239,27.0678,199.083,121.543,92.5877,80.5999,0.000111614,0.000107912,0.00038726
-14.3505,16.1332,-297.438,4.04417,-1.22551,-0.77241,-0.010215,0.00149908,0.00139114,0.00166202,-0.010378,1.4542,0.011301,646.361,-84.1029,-55.1058,0.320409,-0.355866,-0.149264,0.00421916,181,310,107.156,27.0374,199.996,122.268,93.666,81.3919,0.000110279,0.000105666,0.000380524
-14.0624,16.119,-297.424,4.04061,-1.22363,-0.77017,-0.010186,0.00161343,0.00135692,0.00176746,-0.01034,1.45776,0.0113276,646.343,-84.3211,-53.5887,0.307908,-0.348481,-0.158073,0.00415232,188,310,107.076,26.9987,201.036,122.994,94.8675,82.195,0.000109029,0.000104814,0.000375124
-13.7735,16.1049,-297.407,4.03759,-1.22159,-0.767394,-0.0101341,0.00171271,0.00136134,0.00186713,-0.0102885,1.45785,0.011338,646.322,-84.4225,-52.2577,0.296309,-0.335778,-0.163585,0.00421405,195,310,107.007,26.9562,202.134,123.705,96.1065,82.9871,0.00010927,0.000107531,0.000375789
-13.487,16.0913,-297.398,4.03531,-1.21968,-0.763767,-0.0100776,0.00179604,0.0014026,0.00195947,-0.0102411,1.4548,0.0113484,646.353,-84.4928,-50.7224,0.286442,-0.326905,-0.16403,0.00436942,202,310,106.948,26.9155,203.139,124.4,97.2253,83.7597,0.00011176,0.0001124,0.000384164
-13.2048,16.0779,-297.401,4.03308,-1.21805,-0.760313,-0.0100196,0.00186532,0.00147686,0.00204609,-0.0102003,1.449,0.0113624,646.461,-84.6207,-48.6441,0.279891,-0.317173,-0.160102,0.00452741,209,310,106.887,26.8793,203.922,125.099,98.1255,84.5281,0.000116769,0.000117116,0.000401315
-12.9263,16.0644,-297.416,4.03076,-1.21676,-0.75699,-0.00995743,0.00192629,0.00156984,0.00213017,-0.0101613,1.44165,0.011377,646.505,-84.7748,-46.5539,0.285215,-0.301384,-0.161169,0.00465406,216,310,106.822,26.8495,204.507,125.816,98.8322,85.3048,0.000122216,0.000121189,0.00042082
-12.6496,16.0515,-297.436,4.02808,-1.21556,-0.754171,-0.00988344,0.00197647,0.00166127,0.00220478,-0.0101118,1.43422,0.0113755,646.558,-85.0813,-43.895,0.312869,-0.282456,-0.165993,0.00492284,223,310,106.75,26.8193,204.983,126.506,99.4452,86.0502,0.000131903,0.000128221,0.000455734
-12.3665,16.0373,-297.435,4.02504,-1.21401,-0.750994,-0.0097891,0.00201462,0.00174566,0.00226737,-0.0100419,1.42701,0.0113467,646.504,-85.3422,-42.1719,0.364319,-0.268987,-0.167463,0.00562757,230,310,106.674,26.7802,205.781,127.25,100.382,86.8555,0.000143359,0.000146411,0.000496448
-12.0814,16.0233,-297.428,4.02209,-1.212,-0.747325,-0.00967512,0.00204581,0.00181681,0.00232097,-0.00995028,1.42049,0.0112911,646.607,-85.6935,-40.2062,0.427119,-0.255957,-0.162388,0.00590627,237,310,106.598,26.732,206.687,127.963,101.418,87.6437,0.000145132,0.000152071,0.000505194
-11.7962,16.0094,-297.421,4.01937,-1.2099,-0.74295,-0.00955649,0.00207335,0.00187104,0.00236695,-0.0098501,1.41514,0.0112224,646.7,-85.8685,-38.6193,0.48652,-0.240737,-0.144875,0.0061582,244,310,106.524,26.6831,207.606,128.662,102.454,88.4228,0.000147899,0.000158501,0.000515729
-11.5107,15.9955,-297.412,4.01651,-1.20768,-0.738069,-0.0094333,0.00210218,0.00190167,0.00240759,-0.00973871,1.41155,0.0111394,646.907,-86.2055,-36.7528,0.53975,-0.220525,-0.122215,0.00606388,251,310,106.443,26.6309,208.547,129.363,103.512,89.2065,0.000147281,0.000155723,0.00051434
-11.2258,15.982,-297.404,4.01358,-1.20544,-0.733327,-0.00926975,0.00213584,0.00191002,0.0024472,-0.00958111,1.4092,0.0110106,647.002,-86.3344,-35.2568,0.585098,-0.199162,-0.0961827,0.00556557,258,310,106.36,26.5813,209.446,130.035,104.529,89.9659,0.000145271,0.000143083,0.000506632
-10.9399,15.9683,-297.393,4.01056,-1.20306,-0.728996,-0.00905628,0.00217595,0.00191081,0.00249211,-0.00937245,1.40682,0.0108356,646.997,-86.4522,-34.0295,0.620005,-0.182369,-0.0710782,0.00546723,265,310,106.281,26.5246,210.398,130.72,105.604,90.7369,0.000146523,0.000135926,0.000510082
-10.6521,15.9545,-297.376,4.00733,-1.20049,-0.724822,-0.00882018,0.00222586,0.00191536,0.00254855,-0.00914288,1.40389,0.0106484,647.046,-86.5946,-32.3755,0.645014,-0.166941,-0.0510782,0.00544366,272,310,106.199,26.4644,211.44,131.397,106.773,91.506,0.000145963,0.000132879,0.000507014
-10.3616,15.9402,-297.349,4.00422,-1.19774,-0.720186,-0.00859107,0.00227478,0.00193524,0.00260916,-0.00892545,1.3997,0.0104766,647.179,-86.697,-30.3444,0.651657,-0.146776,-0.0352563,0.00543889,279,310,106.12,26.4003,212.629,132.094,108.079,92.2993,0.000146023,0.00013113,0.000505457
-10.0697,15.9257,-297.317,4.00122,-1.19486,-0.715518,-0.0084007,0.00232907,0.00196806,0.00267866,-0.00875029,1.395,0.0103529,647.271,-86.7745,-28.3325,0.630358,-0.121742,-0.0199645,0.00533731,286,310,106.046,26.3341,213.901,132.79,109.465,93.0943,0.000143907,0.000130893,0.000496622
-9.7777,15.9111,-297.284,3.99844,-1.19197,-0.710586,-0.00825222,0.00237768,0.00201003,0.00274507,-0.0086196,1.39002,0.010271,647.333,-86.7096,-26.5739,0.592705,-0.0922119,-0.0116946,0.00517301,293,310,105.976,26.2686,215.185,133.492,110.851,93.8975,0.000139907,0.000131695,0.000482106
-9.48636,15.8966,-297.253,3.99578,-1.1891,-0.705996,-0.00815426,0.00242569,0.00206079,0.00281292,-0.00854149,1.38506,0.0102419,647.178,-86.6246,-25.3027,0.560803,-0.0715863,-0.0164132,0.00503884,300,310,105.912,26.2025,216.437,134.192,112.206,94.6964,0.000135338,0.00013197,0.000466685
-9.19715,15.8823,-297.228,3.99349,-1.18634,-0.701151,-0.00812061,0.00246795,0.00213162,0.00288097,-0.00853363,1.37941,0.0102814,647.129,-86.607,-23.5558,0.539706,-0.0446108,-0.0416322,0.00511359,307,310,105.853,26.1377,217.59,134.885,113.45,95.4858,0.00013432,0.000136182,0.000464102
-8.91202,15.8684,-297.217,3.99143,-1.18381,-0.695824,-0.00812847,0.002483,0.00222106,0.00292913,-0.0085746,1.37257,0.0103547,647.094,-86.7513,-21.529,0.528579,-0.0280766,-0.0825254,0.00543136,314,310,105.792,26.076,218.538,135.57,114.481,96.2588,0.000144551,0.000142132,0.00050036
-8.62924,15.8551,-297.212,3.98928,-1.18141,-0.690613,-0.00815142,0.00246371,0.00232052,0.00294882,-0.00863653,1.36471,0.0104285,647.078,-86.9993,-19.5258,0.516346,-0.0278954,-0.126639,0.00588291,321,310,105.728,26.0179,219.358,136.231,115.388,97.006,0.000156777,0.000145261,0.000543682
-8.34556,15.8414,-297.204,3.98677,-1.17903,-0.685626,-0.00818041,0.00243554,0.00241623,0.00295961,-0.00870448,1.35721,0.0105019,647.096,-87.2958,-17.6193,0.498145,-0.0455095,-0.174426,0.00601316,328,310,105.659,25.9621,220.214,136.91,116.341,97.7721,0.00015987,0.000143903,0.00055491
-8.06159,15.8277,-297.195,3.98403,-1.17658,-0.680926,-0.00822203,0.00242025,0.00249073,0.00297434,-0.00877611,1.3519,0.0105816,647.177,-87.5765,-15.5692,0.478078,-0.0711868,-0.224999,0.00613985,335,310,105.586,25.9063,221.076,137.582,117.309,98.5339,0.000163088,0.00014328,0.000566186
-7.77575,15.8137,-297.179,3.9812,-1.17385,-0.676025,-0.00827996,0.00241602,0.00254438,0.00299044,-0.00885438,1.34876,0.0106687,647.077,-87.8464,-14.2103,0.461656,-0.10802,-0.273605,0.0060023,342,310,105.512,25.8463,222.04,138.258,118.376,99.3101,0.000157103,0.000140095,0.000546058
-7.48673,15.7992,-297.151,3.97842,-1.17082,-0.670907,-0.00834113,0.00241498,0.00257044,0.00299769,-0.00892383,1.34787,0.0107411,647.043,-88.0685,-12.7185,0.457062,-0.150071,-0.321198,0.00583673,349,310,105.442,25.7775,223.179,138.944,119.612,100.101,0.000150228,0.000142052,0.000522475
-7.19563,15.7843,-297.117,3.97535,-1.16748,-0.666033,-0.0083941,0.00241901,0.002566,0.00299703,-0.00897213,1.34923,0.0107875,647.021,-88.3107,-11.0175,0.46065,-0.19112,-0.357303,0.00597029,356,310,105.368,25.6993,224.422,139.648,120.959,100.916,0.000150416,0.000149524,0.000523347
-6.90414,15.7693,-297.08,3.97223,-1.16422,-0.66103,-0.00843111,0.00242804,0.00252091,0.00298472,-0.0089878,1.35346,0.0107942,647.013,-88.5791,-9.44853,0.468623,-0.230662,-0.383042,0.00613716,363,310,105.294,25.6205,225.688,140.358,122.33,101.731,0.000151388,0.000156436,0.000526693
-6.61615,15.7546,-297.055,3.96947,-1.16142,-0.655755,-0.0084304,0.00243863,0.00244452,0.00296311,-0.00895488,1.35945,0.0107473,647.028,-88.8858,-7.72351,0.484283,-0.263022,-0.399336,0.00607105,370,310,105.223,25.5522,226.779,141.065,123.515,102.533,0.000150469,0.000157941,0.000522639
-6.33468,15.7407,-297.051,3.96711,-1.15903,-0.650087,-0.00837845,0.00245639,0.0023383,0.00293948,-0.00886155,1.36706,0.0106403,647.038,-89.166,-6.24686,0.505893,-0.291069,-0.405532,0.00583767,377,310,105.154,25.4945,227.53,141.756,124.35,103.309,0.000147171,0.000152811,0.000510716
-6.05785,15.728,-297.062,3.9651,-1.157,-0.643929,-0.00829053,0.0024735,0.00220457,0.00290752,-0.00872455,1.37641,0.0104851,647.134,-89.4283,-4.84669,0.52618,-0.311581,-0.404257,0.00561211,384,310,105.085,25.4422,228.044,142.396,124.936,104.023,0.000145475,0.000146238,0.000504587
-5.78187,15.7153,-297.076,3.96312,-1.15511,-0.638068,-0.00819922,0.00249366,0.00205669,0.00287561,-0.00858117,1.38718,0.0103238,647.241,-89.5938,-3.52401,0.548068,-0.327721,-0.399425,0.00555794,391,310,105.019,25.3948,228.507,143.042,125.475,104.741,0.000144794,0.000141475,0.000502219
-5.50219,15.702,-297.077,3.96062,-1.15286,-0.632381,-0.00812782,0.00250256,0.00190634,0.00283408,-0.00845935,1.39861,0.0101768,647.292,-89.702,-2.10047,0.573825,-0.339551,-0.392602,0.00550997,398,310,104.945,25.3411,229.157,143.701,126.212,105.482,0.000144807,0.000140694,0.000503079
-5.21731,15.688,-297.06,3.95761,-1.14989,-0.627056,-0.00806014,0.00248994,0.00175827,0.00277526,-0.00834546,1.40993,0.0100254,647.338,-89.8774,-0.846624,0.597912,-0.35194,-0.380233,0.00551496,405,310,104.867,25.2733,230.078,144.369,127.23,106.254,0.000144372,0.000141049,0.000502603
-4.92818,15.6729,-297.027,3.9543,-1.14639,-0.621279,-0.00796997,0.0024627,0.0016064,0.00270445,-0.00821172,1.42143,0.00984655,647.37,-90.0507,0.875294,0.623891,-0.376262,-0.358477,0.00550687,412,310,104.783,25.193,231.23,145.067,128.481,107.07,0.000142951,0.000140168,0.00049923
-4.63645,15.6582,-296.986,3.95102,-1.14272,-0.615045,-0.00787153,0.0024339,0.0014558,0.0026356,-0.00807323,1.43312,0.00966444,647.366,-90.1699,2.7439,0.650345,-0.404262,-0.330112,0.00545378,419,310,104.7,25.1074,232.535,145.744,129.876,107.867,0.000141571,0.000138396,0.000496175
-4.34476,15.6433,-296.943,3.94788,-1.13889,-0.608702,-0.00778175,0.00241657,0.00132108,0.00258492,-0.0079501,1.44404,0.00950981,647.376,-90.2642,4.91822,0.678343,-0.435678,-0.301424,0.00533731,426,310,104.62,25.0181,233.847,146.42,131.273,108.668,0.000140471,0.000133611,0.000493389
-4.05407,15.6286,-296.904,3.94503,-1.13532,-0.601576,-0.00770057,0.00237995,0.00122312,0.00252624,-0.00784686,1.45176,0.00936899,647.397,-90.4151,6.66791,0.702037,-0.45608,-0.279034,0.00541387,433,310,104.542,24.9312,235.122,147.102,132.619,109.464,0.000142926,0.000134524,0.00050229
-3.76368,15.6138,-296.865,3.94213,-1.1317,-0.59454,-0.00761533,0.00233042,0.00115758,0.00246338,-0.00774828,1.45644,0.0092299,647.369,-90.5948,8.13347,0.707462,-0.484846,-0.255735,0.00547211,440,310,104.463,24.8448,236.382,147.782,133.951,110.261,0.000144531,0.000134793,0.000507531
-3.47291,15.5989,-296.823,3.93899,-1.12799,-0.58738,-0.00752407,0.00228585,0.00110627,0.00240906,-0.00764727,1.45988,0.00909434,647.197,-90.8347,9.56804,0.69157,-0.520222,-0.227019,0.00555242,447,310,104.378,24.7568,237.662,148.466,135.307,111.065,0.000146724,0.000135078,0.000514815
-3.18092,15.5839,-296.777,3.93558,-1.12413,-0.58058,-0.0074336,0.00226128,0.00105648,0.00237508,-0.00754739,1.4635,0.00897383,647.099,-91.0796,11.0258,0.658681,-0.557575,-0.189064,0.00568514,454,310,104.291,24.6663,239.006,149.145,136.735,111.868,0.000150762,0.000135793,0.000529129
-2.88767,15.5688,-296.726,3.93192,-1.12,-0.573965,-0.00735613,0.0022479,0.00100612,0.00235217,-0.0074604,1.46753,0.00887346,647.027,-91.3085,12.8445,0.61947,-0.591539,-0.150282,0.00581398,461,310,104.2,24.567,240.418,149.822,138.237,112.675,0.000153446,0.000137769,0.000539097
-2.59353,15.5539,-296.671,3.92831,-1.1158,-0.567192,-0.00730469,0.00222726,0.000968848,0.00232473,-0.00740217,1.47052,0.00879799,646.918,-91.3609,14.4943,0.576067,-0.612509,-0.110005,0.00572874,468,310,104.111,24.4643,241.889,150.488,139.795,113.471,0.000150389,0.000139675,0.000528893
-2.29879,15.5387,-296.613,3.92477,-1.11141,-0.560388,-0.00727453,0.00220459,0.000933098,0.00229556,-0.00736551,1.4736,0.00874233,646.815,-91.4247,15.9529,0.520838,-0.621981,-0.0654641,0.0056315,475,310,104.025,24.3549,243.402,151.16,141.39,114.276,0.000147635,0.000141138,0.000520123
-2.00435,15.5234,-296.555,3.92137,-1.1069,-0.553279,-0.00725903,0.00219487,0.000892009,0.0022783,-0.00734246,1.47754,0.00870808,646.666,-91.4319,17.1553,0.461334,-0.616712,-0.0250428,0.0055775,482,310,103.941,24.2457,244.912,151.838,142.974,115.093,0.000145652,0.000138972,0.000513539
-1.71109,15.5078,-296.501,3.91807,-1.10235,-0.546467,-0.00725494,0.00219684,0.000843178,0.00227147,-0.00732957,1.48252,0.00869085,646.551,-91.4799,18.8597,0.417299,-0.597228,0.00110478,0.00563512,489,310,103.86,24.1373,246.361,152.522,144.497,115.92,0.000148218,0.000136666,0.000523683
-1.41877,15.4926,-296.449,3.91479,-1.09795,-0.539444,-0.00725489,0.00218432,0.000791738,0.00225026,-0.00732083,1.48769,0.00866788,646.361,-91.5513,20.51,0.394712,-0.562379,0.0110327,0.00577072,496,310,103.778,24.0302,247.764,153.197,145.972,116.732,0.000152193,0.000133773,0.000538019
-1.12649,15.4777,-296.396,3.9113,-1.09363,-0.532454,-0.00724717,0.00216372,0.000736733,0.00222105,-0.0073045,1.49314,0.00863205,646.133,-91.5844,22.0385,0.386878,-0.525564,0.0121597,0.00592741,503,310,103.692,23.9247,249.166,153.858,147.451,117.526,0.000155815,0.00013138,0.000550873
-0.833473,15.4626,-296.34,3.90782,-1.08932,-0.524798,-0.00722183,0.00214398,0.000679478,0.00219301,-0.00727086,1.49875,0.0085802,645.878,-91.7248,23.3246,0.384708,-0.485529,0.00866019,0.00587621,510,310,103.603,23.8198,250.623,154.527,148.977,118.328,0.000154165,0.000132847,0.00054456
-0.538996,15.4473,-296.278,3.90414,-1.08491,-0.516734,-0.00718888,0.00214138,0.000620344,0.00218245,-0.00722994,1.5047,0.00853312,645.672,-91.8936,25.0308,0.392807,-0.442761,-0.0029605,0.00586917,517,310,103.508,23.7125,252.17,155.203,150.592,119.139,0.000153542,0.000136598,0.000542198
-0.242794,15.4317,-296.209,3.90024,-1.0801,-0.508858,-0.00715758,0.00217016,0.00055906,0.00220354,-0.00719097,1.51115,0.00850948,645.448,-92.0326,26.3574,0.420839,-0.405078,-0.0222171,0.00580168,524,310,103.411,23.5994,253.818,155.871,152.313,119.958,0.000151671,0.000138101,0.000537009
0.0537248,15.416,-296.138,3.89622,-1.07509,-0.501221,-0.00712033,0.00218104,0.000491398,0.00220693,-0.00714622,1.51816,0.00846819,645.066,-92.1146,27.503,0.460676,-0.373,-0.0481901,0.00578117,531,310,103.314,23.4822,255.487,156.546,154.059,120.788,0.000150525,0.000140708,0.000534161
0.35097,15.4001,-296.064,3.89214,-1.07008,-0.49367,-0.00706197,0.00220906,0.000411336,0.00222728,-0.00708018,1.52654,0.00841779,644.715,-92.252,28.5378,0.516024,-0.354114,-0.0691956,0.0057783,538,310,103.217,23.3593,257.205,157.228,155.854,121.621,0.000150207,0.000141553,0.000534398
0.649595,15.3843,-295.983,3.88799,-1.06497,-0.486215,-0.00698367,0.00225155,0.000324866,0.00226296,-0.00699508,1.53568,0.00835953,644.382,-92.5024,29.9432,0.582525,-0.333166,-0.0865329,0.0057951,545,310,103.121,23.2328,259.011,157.903,157.738,122.447,0.000150429,0.000141812,0.000536641
0.949668,15.3684,-295.896,3.88365,-1.05966,-0.478957,-0.00688797,0.00231174,0.00023401,0.00231769,-0.00689392,1.54538,0.00829914,644.147,-92.8193,31.5425,0.649922,-0.313875,-0.0934131,0.00588762,552,310,103.024,23.1008,260.906,158.577,159.716,123.277,0.000152633,0.000143399,0.000545
1.25106,15.3521,-295.804,3.87922,-1.05407,-0.471693,-0.00679779,0.0023939,0.000137273,0.00239595,-0.00679984,1.55587,0.0082626,643.955,-93.0189,33.2275,0.711772,-0.302539,-0.0775609,0.00599487,559,310,102.927,22.9689,262.888,159.251,161.779,124.121,0.00015467,0.000144151,0.0005519
1.55301,15.3358,-295.708,3.87485,-1.0483,-0.464448,-0.00673759,0.00249401,3.59682e-05,0.00249415,-0.00673773,1.5669,0.0082718,643.735,-93.101,34.479,0.772296,-0.298702,-0.0270526,0.00597395,566,310,102.833,22.8352,264.917,159.922,163.886,124.968,0.000154473,0.000144068,0.000549892
1.85257,15.3198,-295.62,3.87076,-1.04274,-0.457354,-0.00668885,0.00258946,-7.58169e-05,0.00259008,-0.00668946,-1.56263,0.00829359,643.575,-93.0921,35.8129,0.837561,-0.30786,0.074053,0.00594581,573,310,102.745,22.7075,266.822,160.583,165.863,125.802,0.000153282,0.000145481,0.000545111
0,0,0,0,0,0,0,0,0,0,0,0,0,0,0,0,0,0,0,-1,580,310,0,0,0,0,0,0,0,0,0
0,0,0,0,0,0,0,0,0,0,0,0,0,0,0,0,0,0,0,-1,587,310,0,0,0,0,0,0,0,0,0
0,0,0,0,0,0,0,0,0,0,0,0,0,0,0,0,0,0,0,-1,594,310,0,0,0,0,0,0,0,0,0
0,0,0,0,0,0,0,0,0,0,0,0,0,0,0,0,0,0,0,-1,601,310,0,0,0,0,0,0,0,0,0
0,0,0,0,0,0,0,0,0,0,0,0,0,0,0,0,0,0,0,-1,62,317,0,0,0,0,0,0,0,0,0
0,0,0,0,0,0,0,0,0,0,0,0,0,0,0,0,0,0,0,-1,69,317,0,0,0,0,0,0,0,0,0
0,0,0,0,0,0,0,0,0,0,0,0,0,0,0,0,0,0,0,-1,76,317,0,0,0,0,0,0,0,0,0
-18.257,16.0425,-297.178,4.08322,-1.23261,-0.784005,-0.00947294,0.00114445,0.0020348,0.00152105,-0.00984955,1.38778,0.0106915,644.387,-80.6923,-79.713,-0.209474,-0.390291,0.271444,0.00488806,83,317,108.014,27.1715,191.339,113.075,82.7225,71.7154,0.000128128,0.000126533,0.00044606
-17.9881,16.0305,-297.225,4.08029,-1.23304,-0.785229,-0.00943518,0.00105698,0.00203468,0.00143773,-0.00981593,1.3858,0.0106081,644.63,-80.933,-77.6464,-0.242827,-0.378683,0.173591,0.00501168,90,317,107.955,27.1856,191.456,113.786,83.0314,72.4418,0.000129313,0.000129302,0.000451703
-17.7169,16.0183,-297.266,4.0776,-1.23337,-0.785587,-0.00940967,0.000979149,0.00204516,0.00136726,-0.00979778,1.38325,0.0105481,644.842,-81.196,-75.5564,-0.236439,-0.362557,0.0991791,0.00509647,97,317,107.897,27.1972,191.7,114.5,83.4535,73.1739,0.000131463,0.000128965,0.000461223
-17.4434,16.006,-297.299,4.07505,-1.23361,-0.785403,-0.00938978,0.000917673,0.00205641,0.00131279,-0.0097849,1.38097,0.010503,644.905,-81.499,-73.6695,-0.202172,-0.344947,0.0414596,0.00508734,104,317,107.841,27.2061,192.054,115.216,83.9744,73.9088,0.000131213,0.000127425,0.000461669
-17.1687,15.9936,-297.329,4.07253,-1.23375,-0.784625,-0.00938415,0.000870735,0.00206219,0.00126989,-0.00978331,1.3796,0.0104761,644.977,-81.833,-71.8817,-0.147228,-0.328808,-0.00332424,0.00495608,111,317,107.782,27.2137,192.475,115.93,84.5568,74.6447,0.000129462,0.000123721,0.000456298
-16.8925,15.981,-297.354,4.0699,-1.23361,-0.783636,-0.00940268,0.000838182,0.00205932,0.00123677,-0.00980128,1.37961,0.0104746,644.99,-82.0737,-70.5054,-0.0821101,-0.316141,-0.036834,0.0047934,118,317,107.72,27.2157,192.958,116.646,85.2003,75.392,0.000127176,0.000122445,0.000447728
-16.6154,15.9683,-297.376,4.06727,-1.23327,-0.782516,-0.009446,0.000820528,0.00204009,0.00121107,-0.00983654,1.38165,0.0104946,645.094,-82.2554,-68.7404,-0.0135358,-0.306204,-0.0633422,0.00479321,125,317,107.659,27.207,193.486,117.363,85.8872,76.1394,0.000126007,0.000121973,0.000442615
-16.3375,15.9555,-297.396,4.06469,-1.23274,-0.781358,-0.0095152,0.000819664,0.00199657,0.00119197,-0.0098875,1.38644,0.0105342,645.185,-82.382,-66.7763,0.0587245,-0.301236,-0.0837857,0.00498203,132,317,107.599,27.1942,194.05,118.071,86.6068,76.885,0.000131589,0.000124996,0.000463015
-16.0575,15.9427,-297.409,4.06197,-1.23191,-0.780424,-0.00959344,0.000835405,0.00192381,0.00117897,-0.00993701,1.39407,0.0105759,645.302,-82.6114,-64.7948,0.132137,-0.302061,-0.105427,0.00517131,139,317,107.54,27.1755,194.711,118.775,87.4264,77.6343,0.000138029,0.000128108,0.000484574
-15.7766,15.9297,-297.419,4.05941,-1.23101,-0.778915,-0.0096616,0.00086248,0.00184552,0.00117673,-0.00997584,1.40214,0.0106132,645.444,-82.8221,-62.931,0.200891,-0.309859,-0.120608,0.00516057,146,317,107.482,27.1549,195.425,119.483,88.2892,78.3888,0.000137902,0.000125927,0.000486309
-15.4947,15.9166,-297.426,4.05685,-1.23008,-0.776955,-0.0097202,0.000908314,0.00176573,0.00119398,-0.0100059,1.4104,0.0106532,645.594,-82.9908,-61.2742,0.26208,-0.321867,-0.130549,0.00493074,153,317,107.421,27.1349,196.185,120.19,89.1927,79.1447,0.000131984,0.000122021,0.00046527
-15.2124,15.9034,-297.431,4.05422,-1.22922,-0.774561,-0.00977646,0.000976927,0.00168583,0.00123503,-0.0100346,1.41888,0.0107056,645.781,-83.1774,-59.6912,0.30679,-0.329206,-0.136003,0.0045941,160,317,107.357,27.1174,196.968,120.906,90.1183,79.908,0.000121789,0.000116856,0.000427984
-14.93,15.89,-297.436,4.05141,-1.22833,-0.771669,-0.00982644,0.00106228,0.00160973,0.00129526,-0.0100594,1.42706,0.0107657,645.98,-83.4113,-58.0278,0.32595,-0.32983,-0.138841,0.00435142,167,317,107.284,27.0983,197.747,121.63,91.0402,80.6786,0.000113684,0.000111627,0.00039685
-14.6468,15.8764,-297.438,4.04841,-1.22726,-0.768821,-0.00986911,0.00116111,0.00154076,0.00137229,-0.0100803,1.43458,0.0108318,646.096,-83.6676,-56.2292,0.326931,-0.327999,-0.143431,0.00422414,174,317,107.209,27.076,198.562,122.354,92.0011,81.4549,0.000110359,0.00010734,0.000382335
-14.3618,15.8626,-297.434,4.04522,-1.22585,-0.766179,-0.009897,0.00125561,0.00148855,0.00145087,-0.0100923,1.44037,0.0108904,646.141,-83.9729,-54.4068,0.321366,-0.325258,-0.150549,0.00416008,181,317,107.132,27.0467,199.458,123.076,93.0485,82.2399,0.000109633,0.000104456,0.000377871
-14.0749,15.8487,-297.424,4.0419,-1.22415,-0.763829,-0.00990011,0.0013449,0.0014621,0.0015319,-0.0100871,1.44359,0.0109338,646.178,-84.1662,-52.6853,0.312734,-0.325069,-0.156091,0.00411736,188,317,107.057,27.0103,200.446,123.794,94.191,83.0276,0.000108906,0.000103385,0.000374081
-13.7873,15.8348,-297.412,4.03889,-1.22225,-0.761063,-0.00988463,0.00142495,0.00146385,0.00161135,-0.010071,1.44414,0.0109659,646.185,-84.2569,-51.1643,0.304046,-0.322123,-0.160143,0.00422992,195,317,106.986,26.9694,201.478,124.5,95.3647,83.8099,0.000110007,0.000107457,0.00037744
-13.501,15.8213,-297.403,4.03633,-1.22039,-0.75767,-0.00986367,0.0014961,0.0014927,0.00168898,-0.0100565,1.4423,0.0109987,646.204,-84.3126,-49.5394,0.297507,-0.322639,-0.16212,0.00439503,202,317,106.922,26.9297,202.462,125.19,96.4729,84.5762,0.000110819,0.000113056,0.000380618
-13.2178,15.8079,-297.403,4.03389,-1.2187,-0.754247,-0.00983638,0.00155887,0.00154644,0.00176501,-0.0100425,1.43828,0.0110314,646.239,-84.4927,-47.519,0.295858,-0.322488,-0.162885,0.00451018,209,317,106.857,26.8933,203.291,125.885,97.4231,85.3422,0.00011425,0.000116922,0.000392907
-12.9376,15.7943,-297.412,4.03134,-1.21729,-0.751053,-0.00979831,0.00161791,0.0016151,0.00184201,-0.0100224,1.43293,0.0110591,646.214,-84.7538,-45.4901,0.305695,-0.316942,-0.168803,0.00467855,216,317,106.789,26.8617,203.955,126.597,98.2158,86.1162,0.000121061,0.00012227,0.000417275
-12.6588,15.7813,-297.426,4.02857,-1.21595,-0.748133,-0.00974617,0.00167118,0.00168513,0.00191471,-0.0099897,1.42728,0.0110719,646.166,-85.0681,-43.2484,0.333296,-0.308463,-0.177342,0.00501707,223,317,106.717,26.8313,204.54,127.285,98.9375,86.865,0.000132802,0.00012953,0.000458696
-12.3747,15.7676,-297.423,4.02548,-1.21414,-0.745018,-0.00967365,0.00171586,0.0017523,0.00197936,-0.00993715,1.42154,0.0110605,646.17,-85.273,-41.4515,0.379194,-0.302736,-0.182962,0.00574438,230,317,106.641,26.7903,205.385,127.988,99.9221,87.6404,0.000142329,0.000148444,0.000492312
-12.0891,15.7539,-297.414,4.02254,-1.21203,-0.741299,-0.00957986,0.00175424,0.00181198,0.00203687,-0.00986249,1.41606,0.011023,646.291,-85.5082,-39.5124,0.432773,-0.295762,-0.183261,0.00600247,237,317,106.566,26.7385,206.318,128.684,100.984,88.4134,0.000143353,0.000154179,0.000497748
-11.8033,15.74,-297.404,4.01974,-1.20986,-0.737167,-0.00947468,0.00178869,0.00186198,0.00208852,-0.00977451,1.41114,0.0109689,646.421,-85.7641,-37.9225,0.483487,-0.285075,-0.172788,0.00618607,244,317,106.492,26.6872,207.273,129.384,102.059,89.1942,0.000144183,0.000158857,0.000501222
-11.5167,15.7259,-297.392,4.01691,-1.20754,-0.732235,-0.00935815,0.00182355,0.00189665,0.0021365,-0.0096711,1.40727,0.0108976,646.556,-86.0368,-36.3916,0.530424,-0.267418,-0.156202,0.00606359,251,317,106.412,26.6327,208.269,130.09,103.169,89.9857,0.00013976,0.000155693,0.000486673
-11.23,15.712,-297.379,4.01392,-1.20526,-0.72751,-0.00920611,0.00186072,0.00191695,0.00218336,-0.00952875,1.40405,0.0107874,646.639,-86.1986,-34.9906,0.571244,-0.245685,-0.133801,0.00554893,258,317,106.331,26.5792,209.262,130.786,104.281,90.7644,0.000137938,0.000143035,0.000479671
-10.9429,15.6979,-297.364,4.01089,-1.20291,-0.723239,-0.00901355,0.00190073,0.00193412,0.00223335,-0.00934616,1.40049,0.0106401,646.735,-86.3644,-33.3744,0.603648,-0.224559,-0.11033,0.00524044,265,317,106.253,26.5227,210.275,131.488,105.416,91.5505,0.000139301,0.000134167,0.00048421
-10.6547,15.6841,-297.345,4.00785,-1.20045,-0.718851,-0.00880204,0.00194645,0.00195612,0.00229138,-0.00914697,1.39626,0.0104822,646.775,-86.5498,-31.6935,0.62548,-0.202456,-0.0896921,0.0053087,272,317,106.175,26.4651,211.346,132.17,106.608,92.3207,0.000142622,0.000130891,0.000494592
-10.3649,15.6699,-297.32,4.00485,-1.19778,-0.71442,-0.00859165,0.00199098,0.00198983,0.00235275,-0.00895342,1.39095,0.0103327,646.867,-86.6511,-29.95,0.628201,-0.17586,-0.0715912,0.00539514,279,317,106.1,26.4031,212.5,132.861,107.879,93.1052,0.000145349,0.000131634,0.000502604
-10.0741,15.6556,-297.292,4.00197,-1.19493,-0.709713,-0.0084055,0.00203945,0.00203114,0.00242052,-0.00878657,1.38534,0.0102142,646.945,-86.7208,-27.9316,0.605944,-0.145308,-0.0541481,0.00537177,286,317,106.028,26.3383,213.716,133.553,109.204,93.8967,0.000145149,0.00013281,0.000500737
-9.78321,15.6412,-297.263,3.99922,-1.19208,-0.70472,-0.00824759,0.00208437,0.00207444,0.00248532,-0.00864854,1.37987,0.0101227,646.959,-86.6247,-26.2926,0.57041,-0.110968,-0.0426086,0.00523093,293,317,105.957,26.2743,214.947,134.248,110.537,94.6925,0.000141422,0.000133329,0.000487333
-9.49234,15.6268,-297.233,3.99655,-1.1892,-0.699947,-0.008132,0.00212934,0.00212021,0.00255016,-0.00855283,1.37486,0.010073,646.898,-86.5279,-24.5641,0.543453,-0.0833943,-0.0423172,0.00511311,300,317,105.89,26.2089,216.177,134.942,111.869,95.4864,0.000137424,0.000132241,0.000473967
-9.20269,15.6124,-297.207,3.99406,-1.18643,-0.695106,-0.00807931,0.00217154,0.00217552,0.00261414,-0.0085219,1.37009,0.0100863,646.792,-86.4512,-22.7677,0.530344,-0.0537876,-0.058691,0.0050613,307,317,105.827,26.1451,217.348,135.638,113.136,96.279,0.000135535,0.000133361,0.000468152
-8.91624,15.5983,-297.191,3.99187,-1.18384,-0.689638,-0.00807248,0.00219721,0.0022372,0.00266341,-0.00853868,1.36535,0.0101363,646.692,-86.5542,-20.8079,0.525405,-0.0344808,-0.0875634,0.00529148,314,317,105.764,26.0834,218.365,136.329,114.237,97.0611,0.000142734,0.000136811,0.000493604
-8.63171,15.5846,-297.18,3.98955,-1.18136,-0.684556,-0.00808356,0.00219986,0.0022968,0.00268954,-0.00857324,1.36074,0.0101878,646.671,-86.8361,-18.627,0.517895,-0.0304938,-0.119445,0.00565179,321,317,105.699,26.0235,219.273,137.008,115.236,97.8269,0.000151797,0.000139354,0.000525872
-8.34731,15.5709,-297.17,3.98694,-1.17887,-0.679652,-0.00809366,0.00219657,0.00234395,0.00270533,-0.00860242,1.35706,0.0102271,646.651,-87.1378,-16.7359,0.505741,-0.041574,-0.155051,0.00579784,328,317,105.628,25.9652,220.165,137.68,116.229,98.5883,0.000155143,0.00013839,0.000538067
-8.06236,15.5571,-297.157,3.98425,-1.17623,-0.674661,-0.00810668,0.00220175,0.00237022,0.00272062,-0.00862554,1.35528,0.01026,646.712,-87.4916,-14.7243,0.492677,-0.0618272,-0.193319,0.00590681,335,317,105.556,25.9065,221.086,138.352,117.25,99.3564,0.000157841,0.000139151,0.0005476
-7.77562,15.5431,-297.138,3.98137,-1.17343,-0.669897,-0.00812974,0.0022135,0.00237853,0.00273424,-0.00865049,1.35526,0.0102937,646.669,-87.7166,-13.2233,0.482097,-0.0920878,-0.230679,0.00578521,342,317,105.483,25.8451,222.097,139.025,118.366,100.13,0.000153498,0.000138086,0.000532939
-7.4868,15.529,-297.111,3.97863,-1.17046,-0.664494,-0.00815855,0.0022264,0.00236453,0.00273943,-0.00867158,1.35714,0.0103178,646.677,-87.9077,-11.745,0.479814,-0.128268,-0.267718,0.00579213,349,317,105.411,25.7767,223.231,139.699,119.594,100.906,0.000151001,0.000143505,0.000524661
-7.19514,15.5142,-297.075,3.97534,-1.16709,-0.659375,-0.00818936,0.00224278,0.00232774,0.0027386,-0.00868519,1.36093,0.0103304,646.749,-88.2118,-9.84389,0.482539,-0.16545,-0.296635,0.00591032,356,317,105.331,25.6969,224.503,140.391,120.974,101.709,0.000151449,0.0001502,0.00052637
-6.90108,15.4992,-297.03,3.97171,-1.16344,-0.654558,-0.00821112,0.00226305,0.00226127,0.00273038,-0.00867846,1.367,0.0103182,646.726,-88.4321,-8.56358,0.487235,-0.201826,-0.317136,0.00595303,363,317,105.248,25.6116,225.896,141.086,122.484,102.523,0.000151229,0.000153833,0.000525421
-6.6092,15.4847,-296.991,3.96841,-1.16014,-0.649372,-0.00820333,0.00228435,0.00217283,0.00271669,-0.00863567,1.37438,0.0102672,646.741,-88.6457,-6.962,0.496874,-0.232444,-0.330221,0.00587613,370,317,105.168,25.5337,227.187,141.767,123.881,103.312,0.000149187,0.000153712,0.000517865
-6.32245,15.47,-296.969,3.96579,-1.15734,-0.643149,-0.00815571,0.00231146,0.00206527,0.00270422,-0.00854846,1.38287,0.0101738,646.636,-88.8256,-5.74535,0.510018,-0.258544,-0.334895,0.00557646,377,317,105.094,25.4671,228.227,142.48,125.002,104.121,0.000144476,0.000146247,0.000501264
-6.04315,15.4567,-296.972,3.9639,-1.15513,-0.636471,-0.00808594,0.00233863,0.00194138,0.00268844,-0.00843575,1.39252,0.0100533,646.632,-89.0628,-4.33725,0.522176,-0.278497,-0.332759,0.00532992,384,317,105.027,25.4095,228.885,143.145,125.725,104.862,0.000141144,0.000138317,0.000489871
-5.76603,15.4437,-296.982,3.96208,-1.15322,-0.630334,-0.00802171,0.0023675,0.00181327,0.00267488,-0.00832909,1.40287,0.00994022,646.625,-89.1923,-3.08895,0.537178,-0.294264,-0.328267,0.00529991,391,317,104.965,25.3608,229.421,143.807,126.328,105.594,0.000140784,0.000133912,0.000489004
-5.48557,15.4307,-296.98,3.95968,-1.15086,-0.624679,-0.00797846,0.00238683,0.00169052,0.00265558,-0.00824721,1.41314,0.00984731,646.671,-89.3316,-1.52469,0.555999,-0.306094,-0.322368,0.00528006,398,317,104.895,25.3038,230.121,144.448,127.112,106.32,0.000140164,0.000132859,0.000487517
-5.19986,15.417,-296.959,3.95669,-1.1477,-0.619252,-0.00793717,0.00238887,0.00157421,0.00262352,-0.00817182,1.42282,0.00975195,646.715,-89.5703,-0.028193,0.572436,-0.316967,-0.312104,0.00527749,405,317,104.818,25.2313,231.095,145.089,128.181,107.07,0.000139488,0.000133209,0.000486006
-4.90973,15.4019,-296.923,3.95332,-1.14405,-0.613384,-0.00787063,0.0023772,0.0014583,0.00258068,-0.00807411,1.43216,0.00962746,646.747,-89.7391,1.72573,0.591707,-0.334947,-0.294492,0.00530118,412,317,104.733,25.1465,232.306,145.789,129.49,107.889,0.000138413,0.000134646,0.000483463
-4.61716,15.387,-296.879,3.94988,-1.14024,-0.607266,-0.00779336,0.00235937,0.00134688,0.00253501,-0.007969,1.44112,0.00949382,646.758,-89.8851,3.68708,0.618008,-0.355187,-0.271608,0.00526465,419,317,104.648,25.0589,233.658,146.466,130.936,108.691,0.000137048,0.000133583,0.000479783
-4.32478,15.3719,-296.834,3.94666,-1.13634,-0.600963,-0.0077246,0.00234472,0.00125194,0.00249804,-0.00787792,1.44894,0.00937983,646.742,-89.9943,5.58388,0.652022,-0.3775,-0.249514,0.00518167,426,317,104.567,24.9682,235.011,147.155,132.376,109.507,0.00013576,0.000132199,0.000475882
-4.03392,15.357,-296.793,3.94384,-1.13267,-0.593964,-0.00766607,0.00231243,0.00118771,0.00245185,-0.00780549,1.45394,0.00927767,646.761,-90.115,7.29793,0.680748,-0.392529,-0.231585,0.0051986,433,317,104.49,24.8805,236.3,147.841,133.735,110.31,0.000136086,0.000133879,0.000477262
-3.74342,15.3423,-296.753,3.94098,-1.12902,-0.586748,-0.0075991,0.00226954,0.0011455,0.00240076,-0.00773032,1.45674,0.00916952,646.639,-90.2408,8.57693,0.688548,-0.413152,-0.212176,0.00529772,440,317,104.411,24.7925,237.575,148.518,135.078,111.105,0.000138971,0.000133396,0.000487743
-3.45186,15.3274,-296.709,3.93771,-1.12517,-0.579779,-0.00751272,0.00223018,0.00110996,0.00235503,-0.00763758,1.45878,0.00904796,646.45,-90.4113,10.0684,0.675886,-0.438951,-0.189178,0.00558002,447,317,104.326,24.7016,238.9,149.198,136.483,111.908,0.000146088,0.000136328,0.000514191
-3.15911,15.3127,-296.66,3.93425,-1.12126,-0.573018,-0.00741405,0.00220795,0.0010722,0.00232598,-0.00753208,1.46116,0.00892535,646.344,-90.575,11.6974,0.648331,-0.465862,-0.160996,0.00586687,454,317,104.238,24.6091,240.291,149.866,137.959,112.701,0.000154671,0.000138585,0.000546297
-2.86558,15.2977,-296.607,3.93054,-1.11718,-0.566441,-0.00732234,0.00219585,0.00103347,0.00230677,-0.00743326,1.46388,0.00881597,646.23,-90.752,13.5298,0.615485,-0.489041,-0.134638,0.00595278,461,317,104.148,24.5098,241.723,150.54,139.483,113.501,0.000158253,0.000140015,0.000559939
-2.57205,15.2828,-296.554,3.92711,-1.11308,-0.559564,-0.00725488,0.00218135,0.001003,0.00228678,-0.00736031,1.46606,0.00873127,646.111,-90.7936,15.211,0.578787,-0.502234,-0.109385,0.00572127,468,317,104.062,24.4094,243.171,151.21,141.012,114.297,0.000151455,0.000139626,0.000535511
-2.27916,15.2679,-296.502,3.92393,-1.10899,-0.552368,-0.00720626,0.00216957,0.000968302,0.00226852,-0.00730521,1.46895,0.00866513,646.038,-90.8774,16.8015,0.53116,-0.504786,-0.082836,0.00548722,475,317,103.981,24.3057,244.599,151.886,142.509,115.096,0.000144149,0.000138918,0.000509061
-1.98729,15.2528,-296.453,3.92082,-1.10458,-0.545372,-0.0071703,0.00217136,0.000924019,0.00226188,-0.00726082,1.47314,0.00861735,646.007,-91.0194,18.3735,0.480554,-0.494519,-0.0615689,0.00542469,482,317,103.902,24.2011,245.974,152.556,143.954,115.906,0.000142076,0.00013554,0.000500551
-1.69568,15.2378,-296.404,3.91773,-1.10018,-0.538665,-0.00714532,0.00218645,0.000871354,0.00226712,-0.00722599,1.47848,0.00858702,645.885,-91.0648,19.8808,0.442554,-0.472283,-0.0533815,0.00559936,489,317,103.825,24.0962,247.339,153.22,145.389,116.709,0.000147543,0.000134638,0.000519795
-1.40407,15.223,-296.355,3.91454,-1.09582,-0.53183,-0.00712323,0.00219427,0.000811106,0.00226435,-0.00719331,1.48461,0.00855331,645.603,-91.1694,21.1082,0.42026,-0.438759,-0.0568152,0.00585133,496,317,103.746,23.9903,248.708,153.879,146.829,117.502,0.000154088,0.00013324,0.00054272
-1.11174,15.2082,-296.302,3.911,-1.09148,-0.524991,-0.00709159,0.00219672,0.000740829,0.00225544,-0.0071503,1.4917,0.00850535,645.322,-91.3057,22.4176,0.409734,-0.40421,-0.0652308,0.00602966,503,317,103.66,23.8842,250.115,154.533,148.316,118.291,0.000158143,0.000131195,0.000556746
-0.818113,15.1931,-296.243,3.90733,-1.08707,-0.517526,-0.00703946,0.00219666,0.000661876,0.00224385,-0.00708665,1.49962,0.00843545,645.084,-91.5118,23.754,0.405428,-0.368546,-0.0739899,0.00600546,510,317,103.568,23.7762,251.605,155.205,149.881,119.097,0.000157106,0.000132095,0.000553078
-0.522792,15.1777,-296.178,3.90334,-1.08244,-0.509706,-0.00697781,0.0022042,0.000576571,0.00224027,-0.00701388,1.50833,0.00836219,644.872,-91.6575,25.4797,0.409271,-0.332386,-0.0848074,0.00590971,517,317,103.468,23.6655,253.196,155.877,151.549,119.912,0.000154264,0.00013502,0.000543577
-0.225156,15.1623,-296.104,3.89924,-1.07745,-0.501758,-0.00691805,0.0022294,0.000487455,0.00225531,-0.00694395,1.51771,0.00830455,644.628,-91.7882,26.6733,0.426817,-0.302809,-0.0971448,0.00575259,524,317,103.368,23.5502,254.928,156.532,153.358,120.723,0.000150382,0.000135429,0.000532416
0.0728392,15.1467,-296.027,3.89516,-1.07247,-0.493476,-0.00684694,0.00223908,0.000393795,0.00225612,-0.00686397,1.52756,0.0082274,644.199,-91.8176,27.6639,0.45386,-0.277648,-0.114493,0.00565821,531,317,103.266,23.4322,256.693,157.201,155.194,121.544,0.00014743,0.000137853,0.000523447
0.371187,15.1311,-295.948,3.8912,-1.06737,-0.485408,-0.00675855,0.00225586,0.000288334,0.00226508,-0.00676776,1.53885,0.00814019,643.847,-91.9892,28.8504,0.494967,-0.264516,-0.124405,0.00564922,538,317,103.171,23.3072,258.49,157.874,157.06,122.369,0.000146476,0.000139785,0.000520856
0.670126,15.1152,-295.866,3.88702,-1.0622,-0.478117,-0.00665925,0.00227801,0.00017736,0.00228153,-0.00666277,1.55096,0.00804979,643.588,-92.2502,30.7367,0.545791,-0.253114,-0.126902,0.00572225,545,317,103.076,23.1793,260.319,158.552,158.968,123.2,0.000148241,0.000142134,0.00052763
0.969713,15.0994,-295.781,3.88263,-1.05683,-0.471176,-0.0065571,0.00231006,6.2499e-05,0.00231051,-0.00655754,1.56375,0.00796813,643.371,-92.4659,32.5693,0.594367,-0.246692,-0.115384,0.0058624,552,317,102.979,23.0483,262.188,159.225,160.923,124.032,0.000151914,0.000144632,0.000540817
1.26987,15.0833,-295.692,3.87827,-1.0513,-0.464073,-0.00647522,0.00235652,-5.62715e-05,0.00235688,-0.00647558,-1.56443,0.0079215,643.153,-92.6803,34.1485,0.635968,-0.249249,-0.0801976,0.00593666,559,317,102.884,22.9188,264.104,159.895,162.92,124.871,0.000153673,0.000144811,0.000545914
1.56975,15.0675,-295.604,3.87416,-1.04576,-0.456667,-0.00643807,0.00241575,-0.000176615,0.00241927,-0.00644159,-1.55086,0.0079329,642.964,-92.7866,35.3674,0.676926,-0.259315,-0.0117407,0.0059109,566,317,102.793,22.7913,266.025,160.551,164.912,125.698,0.000152734,0.000143326,0.000540662
1.86707,15.0518,-295.523,3.87036,-1.04053,-0.448995,-0.00643325,0.00246843,-0.000301703,0.00247864,-0.00644346,-1.53696,0.00797703,642.893,-92.8062,36.7423,0.724691,-0.280453,0.104695,0.0058711,573,317,102.706,22.6698,267.815,161.213,166.764,126.522,0.000151295,0.000144979,0.000534991
0,0,0,0,0,0,0,0,0,0,0,0,0,0,0,0,0,0,0,-1,580,317,0,0,0,0,0,0,0,0,0
0,0,0,0,0,0,0,0,0,0,0,0,0,0,0,0,0,0,0,-1,587,317,0,0,0,0,0,0,0,0,0
0,0,0,0,0,0,0,0,0,0,0,0,0,0,0,0,0,0,0,-1,594,317,0,0,0,0,0,0,0,0,0
0,0,0,0,0,0,0,0,0,0,0,0,0,0,0,0,0,0,0,-1,601,317,0,0,0,0,0,0,0,0,0
0,0,0,0,0,0,0,0,0,0,0,0,0,0,0,0,0,0,0,-1,62,324,0,0,0,0,0,0,0,0,0
0,0,0,0,0,0,0,0,0,0,0,0,0,0,0,0,0,0,0,-1,69,324,0,0,0,0,0,0,0,0,0
0,0,0,0,0,0,0,0,0,0,0,0,0,0,0,0,0,0,0,-1,76,324,0,0,0,0,0,0,0,0,0
-18.2784,15.7722,-297.204,4.08237,-1.23332,-0.778547,-0.00924473,0.00105015,0.00194828,0.00140652,-0.0096011,1.38988,0.0103761,644.247,-80.5868,-79.3778,-0.0716252,-0.431214,0.30482,0.00500781,83,324,107.938,27.1893,190.239,113.904,81.6088,72.5828,0.000133157,0.000127779,0.000462988
-18.0088,15.7603,-297.25,4.07969,-1.2338,-0.779804,-0.00919109,0.000962604,0.00196276,0.00132881,-0.00955729,1.38634,0.0102863,644.526,-80.8511,-77.4572,-0.110076,-0.414817,0.201066,0.00501252,90,324,107.885,27.2035,190.399,114.614,81.9542,73.3046,0.000132063,0.000128573,0.000461671
-17.737,15.7481,-297.288,4.0771,-1.23405,-0.780244,-0.00915171,0.000886218,0.00198119,0.00126309,-0.00952858,1.38281,0.0102188,644.838,-81.1534,-75.2344,-0.113211,-0.393568,0.12054,0.00510288,97,324,107.831,27.2137,190.672,115.322,82.402,74.0328,0.000133806,0.000128838,0.000470245
-17.4631,15.7358,-297.321,4.07463,-1.23421,-0.78003,-0.00912049,0.000827209,0.00199697,0.00121312,-0.00950641,1.3799,0.0101674,645.003,-81.4261,-73.046,-0.0922875,-0.37048,0.0573824,0.00508169,104,324,107.777,27.2215,191.05,116.029,82.9442,74.7613,0.000133564,0.00012677,0.000471221
-17.1878,15.7235,-297.349,4.07221,-1.23424,-0.77907,-0.00910345,0.000783623,0.0020059,0.00117508,-0.00949491,1.37806,0.0101337,645.075,-81.7812,-71.2423,-0.0544786,-0.348143,0.00830565,0.00498062,111,324,107.72,27.228,191.499,116.732,83.5501,75.4908,0.000131833,0.000123989,0.000466377
-16.9112,15.7109,-297.373,4.06971,-1.23411,-0.777805,-0.00910698,0.000753188,0.00200544,0.00114546,-0.00949926,1.37763,0.0101207,645.053,-82.0618,-69.6818,-0.00778027,-0.328193,-0.0291313,0.00487484,118,324,107.66,27.2298,192.011,117.446,84.2163,76.2346,0.000130165,0.000123089,0.000460066
-16.6337,15.6981,-297.394,4.06712,-1.23374,-0.776585,-0.0091312,0.000735375,0.00198979,0.00112154,-0.00951737,1.3791,0.0101248,645.079,-82.2393,-68.001,0.0437507,-0.310986,-0.059047,0.00487988,125,324,107.599,27.2211,192.562,118.161,84.9239,76.982,0.000129722,0.000123915,0.000456943
-16.3554,15.6854,-297.413,4.06451,-1.23322,-0.775354,-0.00918054,0.000731519,0.00195453,0.001103,-0.00955203,1.38297,0.0101486,645.148,-82.3716,-66.0695,0.101218,-0.298652,-0.082277,0.00512103,132,324,107.539,27.2079,193.146,118.871,85.663,77.727,0.000137005,0.000128122,0.000482588
-16.0748,15.6724,-297.424,4.0619,-1.23247,-0.774042,-0.00924462,0.000739672,0.00189917,0.00108872,-0.00959367,1.38903,0.0101818,645.278,-82.5648,-64.29,0.160629,-0.291519,-0.105276,0.00538463,139,324,107.48,27.1903,193.842,119.583,86.5126,78.4807,0.000144301,0.000134773,0.000506273
-15.7936,15.6593,-297.433,4.05942,-1.23161,-0.772535,-0.00930868,0.000757472,0.0018395,0.00108309,-0.0096343,1.3956,0.010219,645.449,-82.7196,-62.5901,0.216893,-0.290821,-0.12095,0.00547667,146,324,107.424,27.1709,194.569,120.294,87.3853,79.2376,0.000145782,0.000138225,0.000512824
-15.5116,15.6461,-297.44,4.05698,-1.23066,-0.77077,-0.00937163,0.000789125,0.00177903,0.00109161,-0.00967412,1.40238,0.0102636,645.604,-82.925,-60.8689,0.266939,-0.294763,-0.131159,0.00534077,153,324,107.369,27.1503,195.336,121.004,88.2944,79.9963,0.000141402,0.00013663,0.000496771
-15.2287,15.6328,-297.443,4.05444,-1.22966,-0.76876,-0.00943682,0.000837055,0.00171905,0.00111706,-0.00971683,1.40933,0.0103208,645.772,-83.115,-59.2388,0.303855,-0.297676,-0.135647,0.00494088,160,324,107.31,27.1311,196.149,121.717,89.2486,80.7608,0.000128578,0.000127269,0.000450445
-14.9451,15.6193,-297.445,4.05169,-1.2287,-0.766153,-0.00949902,0.000897312,0.00166232,0.00115664,-0.00975835,1.41604,0.0103851,645.878,-83.3204,-57.5637,0.321128,-0.298681,-0.136514,0.00452487,167,324,107.242,27.1112,196.987,122.441,90.2292,81.5334,0.00011577,0.000117468,0.000403201
-14.6611,15.6058,-297.444,4.04892,-1.2276,-0.763219,-0.00955594,0.000967358,0.00161211,0.00120878,-0.00979737,1.42214,0.0104543,645.931,-83.5659,-55.8673,0.324433,-0.300907,-0.1385,0.00426403,174,324,107.173,27.089,197.851,123.16,91.2318,82.3054,0.000111011,0.000110668,0.000383601
-14.3764,15.5922,-297.441,4.04616,-1.2263,-0.760212,-0.00960131,0.0010347,0.00157539,0.00126314,-0.00982975,1.4268,0.0105184,645.979,-83.8457,-53.9865,0.32202,-0.304963,-0.142801,0.00420022,181,324,107.104,27.0611,198.747,123.874,92.2644,83.0779,0.000111013,0.000107182,0.000382006
-14.0907,15.5787,-297.435,4.04323,-1.22476,-0.757522,-0.00962699,0.00109961,0.00155803,0.00132133,-0.00984871,1.42944,0.0105715,646.107,-84.0273,-51.9413,0.315913,-0.312369,-0.14666,0.00418803,188,324,107.035,27.026,199.688,124.582,93.3473,83.8496,0.000111227,0.000105455,0.000381534
-13.8044,15.5651,-297.427,4.04032,-1.22303,-0.754737,-0.00963614,0.00115926,0.00155999,0.00138017,-0.00985705,1.43012,0.0106146,646.194,-84.1374,-50.0168,0.30955,-0.318113,-0.150553,0.00429617,195,324,106.965,26.9862,200.654,125.283,94.4531,84.6191,0.000112278,0.000107942,0.000384909
-13.5186,15.5517,-297.419,4.03756,-1.22126,-0.751693,-0.0096396,0.00121458,0.00158042,0.00144002,-0.00986503,1.42911,0.0106583,646.193,-84.2133,-48.2668,0.30616,-0.326499,-0.154517,0.00448515,202,324,106.898,26.9469,201.604,125.973,95.5358,85.3798,0.000112047,0.000114923,0.000385073
-13.2346,15.5383,-297.417,4.03487,-1.21955,-0.748542,-0.00963534,0.0012661,0.00161814,0.00150122,-0.00987046,1.42651,0.0107003,646.213,-84.4526,-46.2229,0.308723,-0.333782,-0.159658,0.00458732,209,324,106.831,26.9103,202.464,126.662,96.5266,86.1405,0.000113463,0.000118536,0.000391128
-12.9525,15.5248,-297.42,4.03215,-1.218,-0.745538,-0.00961786,0.00131814,0.00166639,0.00156642,-0.00986614,1.42289,0.0107354,646.131,-84.7487,-44.3612,0.322287,-0.335866,-0.169932,0.00480088,216,324,106.762,26.8768,203.223,127.363,97.4182,86.9082,0.000119125,0.000124978,0.000412112
-12.6713,15.5115,-297.427,4.02932,-1.21648,-0.742473,-0.00958646,0.0013695,0.00171756,0.00163245,-0.00984941,1.41888,0.0107589,646.026,-85.0157,-42.4432,0.350013,-0.334656,-0.181744,0.00503101,223,324,106.69,26.846,203.93,128.053,98.2603,87.6663,0.000129257,0.000131028,0.000448081
-12.3869,15.4981,-297.422,4.02626,-1.21457,-0.739091,-0.00953626,0.00141653,0.00176914,0.0016952,-0.00981493,1.41456,0.0107631,646.049,-85.1916,-40.6648,0.391442,-0.333515,-0.190819,0.00559206,230,324,106.613,26.8067,204.798,128.734,99.2641,88.4255,0.00014069,0.000143991,0.00048742
-12.1007,15.4845,-297.412,4.02328,-1.21235,-0.735298,-0.00946477,0.00145971,0.0018172,0.00175406,-0.00975912,1.41021,0.0107441,646.1,-85.4098,-38.9565,0.437636,-0.329531,-0.195447,0.00605854,237,324,106.537,26.7552,205.761,129.417,100.356,89.1914,0.000144652,0.000155451,0.000501585
-11.8138,15.4708,-297.399,4.02043,-1.21012,-0.731111,-0.00937681,0.00150041,0.00185973,0.00180959,-0.00968599,1.40605,0.0107061,646.248,-85.5569,-37.4118,0.481643,-0.32069,-0.191174,0.00623118,244,324,106.462,26.7018,206.769,130.108,101.485,89.9626,0.000143404,0.000160626,0.000497842
-11.526,15.4567,-297.382,4.0176,-1.20787,-0.726296,-0.00927158,0.00154191,0.00189229,0.00186348,-0.00959315,1.40246,0.0106479,646.373,-85.7407,-35.8938,0.523197,-0.303822,-0.180572,0.00588544,251,324,106.385,26.6457,207.825,130.817,102.654,90.7505,0.000137018,0.000151988,0.00047645
-11.238,15.4424,-297.365,4.01458,-1.2055,-0.721821,-0.00913415,0.00158463,0.00191589,0.00191679,-0.00946631,1.39913,0.010556,646.387,-85.9352,-34.6512,0.559279,-0.281164,-0.162257,0.00544883,258,324,106.306,26.5868,208.886,131.53,103.837,91.5454,0.000135101,0.000141207,0.000469466
-10.9494,15.4281,-297.345,4.01158,-1.20308,-0.717447,-0.00896255,0.00162857,0.00193907,0.00197242,-0.0093064,1.39529,0.0104334,646.47,-86.1686,-33.046,0.588025,-0.256839,-0.140761,0.00519451,265,324,106.23,26.5284,209.977,132.24,105.048,92.3402,0.000136768,0.000133621,0.000475235
-10.6608,15.4141,-297.325,4.00855,-1.20056,-0.713383,-0.00877235,0.00167564,0.00196672,0.00203359,-0.0091303,1.39076,0.0102988,646.557,-86.4277,-31.1642,0.605849,-0.230486,-0.119775,0.00526628,272,324,106.155,26.4712,211.068,132.93,106.261,93.1211,0.000141444,0.000130231,0.000490374
-10.372,15.3999,-297.304,4.00568,-1.19792,-0.708939,-0.00857659,0.00172133,0.00200234,0.00209697,-0.00895223,1.38535,0.0101643,646.623,-86.5527,-29.6045,0.60524,-0.20035,-0.10005,0.00539403,279,324,106.083,26.4116,212.176,133.622,107.482,93.9069,0.000145426,0.000132796,0.000502806
-10.0826,15.3858,-297.28,4.00296,-1.1952,-0.703944,-0.00839248,0.00176922,0.00204179,0.00216413,-0.00878738,1.37974,0.0100458,646.673,-86.6618,-27.6603,0.583209,-0.167447,-0.0812026,0.0054169,286,324,106.011,26.3488,213.328,134.311,108.737,94.6915,0.000146018,0.000135341,0.000503949
-9.79241,15.3714,-297.253,4.00018,-1.19235,-0.698937,-0.00822486,0.001814,0.00207922,0.0022276,-0.00863847,1.37444,0.00994125,646.682,-86.6336,-25.7999,0.550562,-0.131826,-0.0677235,0.0052718,293,324,105.939,26.2864,214.518,135.003,110.031,95.4845,0.000141649,0.000134725,0.000488498
-9.50173,15.3572,-297.224,3.99737,-1.18948,-0.694264,-0.00809086,0.001858,0.00211571,0.00228923,-0.00852209,1.36973,0.00986791,646.56,-86.5369,-24.0386,0.527704,-0.101691,-0.0639232,0.00518185,300,324,105.869,26.2216,215.733,135.688,111.352,96.2695,0.000138079,0.000132588,0.000476604
-9.21133,15.3429,-297.195,3.99475,-1.18671,-0.68913,-0.00801481,0.00190099,0.00215549,0.00234929,-0.0084631,1.36574,0.00985015,646.474,-86.4538,-21.8828,0.520153,-0.0724699,-0.0734907,0.00506839,307,324,105.802,26.1574,216.945,136.383,112.66,97.0603,0.00013586,0.000131291,0.000469293
-8.92343,15.3287,-297.174,3.99234,-1.18407,-0.683757,-0.00798646,0.00193477,0.00219454,0.00239851,-0.00845021,1.36254,0.0098705,646.369,-86.5344,-20.0144,0.519435,-0.0533158,-0.0927099,0.00520362,314,324,105.735,26.0949,218.032,137.074,113.837,97.8428,0.000140518,0.00013372,0.000485633
-8.63727,15.3149,-297.159,3.98996,-1.18155,-0.678472,-0.00798017,0.00195387,0.00222478,0.00242936,-0.00845566,1.36024,0.00989656,646.3,-86.7223,-18.0243,0.515564,-0.0483869,-0.114859,0.00543221,321,324,105.669,26.0339,219.027,137.754,114.923,98.6101,0.000146152,0.000135766,0.000505553
-8.35176,15.3012,-297.144,3.98743,-1.17895,-0.67312,-0.00797196,0.00196869,0.00223776,0.00244921,-0.00845248,1.35928,0.00990681,646.29,-87.0554,-16.0803,0.508277,-0.0563589,-0.141091,0.00556364,328,324,105.598,25.9728,219.986,138.423,115.976,99.3708,0.000149601,0.000135593,0.000518114
-8.0657,15.2873,-297.128,3.98468,-1.17621,-0.668352,-0.00796211,0.00198853,0.00223084,0.00246577,-0.00843936,1.36004,0.00990517,646.325,-87.3216,-14.1492,0.501384,-0.0735192,-0.169838,0.00557834,335,324,105.527,25.912,220.965,139.097,117.056,100.142,0.000149762,0.000135176,0.000519107
-7.77816,15.2733,-297.106,3.98179,-1.17328,-0.663751,-0.00795877,0.00201158,0.00220853,0.00247889,-0.00842608,1.36228,0.00990106,646.235,-87.5236,-12.5059,0.49628,-0.0992694,-0.198235,0.00557164,342,324,105.456,25.8489,222.019,139.765,118.216,100.915,0.000148613,0.000135824,0.000515639
-7.48926,15.2592,-297.079,3.97904,-1.17025,-0.658091,-0.00796553,0.00203442,0.00216926,0.00248471,-0.00841583,1.36612,0.009895,646.223,-87.7482,-11.0295,0.496388,-0.130827,-0.226353,0.00571293,349,324,105.383,25.7789,223.16,140.44,119.449,101.694,0.000150743,0.000142312,0.000523382
-7.19733,15.2443,-297.042,3.97558,-1.16683,-0.652566,-0.00798361,0.00205923,0.00211392,0.00248605,-0.00841042,1.37157,0.00989063,646.31,-88.0663,-9.12356,0.49903,-0.16441,-0.248627,0.00578233,356,324,105.296,25.6975,224.446,141.138,120.844,102.504,0.000152508,0.000147417,0.000529494
-6.90168,15.2293,-296.992,3.97154,-1.16291,-0.647591,-0.00799798,0.00208648,0.00203741,0.00248255,-0.00839405,1.37879,0.00987227,646.425,-88.256,-7.67255,0.501781,-0.197525,-0.264426,0.00571035,363,324,105.203,25.607,225.918,141.827,122.441,103.319,0.000150374,0.000147811,0.00052183
-6.60536,15.2141,-296.938,3.96777,-1.159,-0.64212,-0.00798914,0.00211355,0.00194573,0.00247534,-0.00835093,1.38696,0.0098253,646.422,-88.3934,-6.36852,0.507386,-0.225983,-0.274401,0.00562772,370,324,105.115,25.5193,227.442,142.519,124.077,104.139,0.000146608,0.000147181,0.000508565
-6.31468,15.1998,-296.903,3.96491,-1.15584,-0.635751,-0.00795005,0.00214483,0.0018419,0.0024704,-0.00827562,1.39585,0.00974848,646.278,-88.4918,-5.36448,0.514413,-0.250075,-0.277319,0.00539505,377,324,105.037,25.4441,228.695,143.195,125.414,104.919,0.000141803,0.00014085,0.000491949
-6.03017,15.1862,-296.888,3.96309,-1.15345,-0.628855,-0.00789963,0.00217617,0.00172958,0.0024648,-0.00818825,1.40544,0.00965946,646.185,-88.681,-4.03535,0.520702,-0.268877,-0.274196,0.00517947,384,324,104.977,25.3806,229.646,143.869,126.421,105.671,0.00013716,0.00013426,0.000476505
-5.75083,15.1729,-296.89,3.96144,-1.15133,-0.622676,-0.007861,0.00220789,0.00161966,0.00246201,-0.00811512,1.41517,0.00958625,646.124,-88.8338,-2.69842,0.530466,-0.283523,-0.269937,0.00519286,391,324,104.921,25.3256,230.312,144.539,127.148,106.414,0.000137589,0.000130512,0.000478789
-5.46997,15.1598,-296.886,3.95921,-1.1489,-0.617012,-0.00784304,0.00223146,0.00152018,0.00245585,-0.00806743,1.42425,0.00953557,646.107,-89.0248,-1.07211,0.544487,-0.294511,-0.265214,0.00514407,398,324,104.856,25.2641,231.044,145.183,127.957,107.141,0.000136431,0.000128227,0.000475477
-5.1844,15.1463,-296.866,3.95626,-1.14566,-0.611589,-0.00782533,0.00224145,0.0014298,0.00244059,-0.00802447,1.43241,0.0094833,646.131,-89.288,0.641823,0.556512,-0.303138,-0.257955,0.00512978,405,324,104.779,25.1892,232.015,145.816,129.023,107.885,0.000135984,0.000127341,0.000474728
-4.89474,15.1313,-296.831,3.95282,-1.14197,-0.60583,-0.00778077,0.00223926,0.00134256,0.00241602,-0.00795754,1.43988,0.00940134,646.129,-89.4511,2.4243,0.571825,-0.314952,-0.245554,0.00523617,412,324,104.693,25.1042,233.202,146.509,130.311,108.7,0.000137765,0.000129265,0.000481827
-4.6029,15.1164,-296.789,3.94935,-1.13821,-0.599812,-0.00772264,0.00222887,0.00126171,0.00238635,-0.00788011,1.44663,0.00930567,646.159,-89.6478,4.40836,0.598179,-0.327154,-0.229338,0.00530724,419,324,104.607,25.0184,234.516,147.193,131.721,109.507,0.000139881,0.000131226,0.000489545
-4.31107,15.1013,-296.745,3.94621,-1.13436,-0.593214,-0.00767043,0.00221712,0.00119658,0.00235987,-0.00781318,1.45206,0.00922241,646.177,-89.7772,6.21903,0.635117,-0.339719,-0.214234,0.00530266,426,324,104.526,24.9309,235.847,147.879,133.134,110.319,0.000140156,0.000132261,0.000490565
-4.02009,15.0868,-296.704,3.94331,-1.13074,-0.586508,-0.00762694,0.00219128,0.00115594,0.00232554,-0.00776119,1.45517,0.0091484,646.134,-89.882,7.76213,0.665811,-0.347065,-0.20108,0.00528541,433,324,104.45,24.8452,237.144,148.548,134.505,111.105,0.000139325,0.000133742,0.000487736
-3.72829,15.0723,-296.66,3.94021,-1.12703,-0.579487,-0.00757199,0.00215828,0.00112853,0.00228745,-0.00770116,1.45683,0.00906402,645.973,-89.956,9.09615,0.674709,-0.357692,-0.186041,0.00538757,440,324,104.368,24.7568,238.488,149.215,135.924,111.89,0.000141685,0.000133073,0.000496699
-3.43513,15.0574,-296.61,3.93675,-1.12309,-0.572552,-0.00748984,0.00212864,0.00110159,0.00225319,-0.00761439,1.45821,0.00895614,645.763,-90.032,10.7933,0.66481,-0.371899,-0.168541,0.0057692,447,324,104.28,24.663,239.903,149.892,137.423,112.692,0.000150876,0.000139893,0.000531657
-3.14126,15.0428,-296.557,3.93323,-1.11896,-0.565788,-0.00738704,0.00211345,0.0010699,0.00223245,-0.00750604,1.46003,0.00883636,645.575,-90.1141,12.3538,0.642431,-0.386355,-0.148639,0.00613584,454,324,104.192,24.5669,241.361,150.545,138.966,113.475,0.000160512,0.000142711,0.00056855
-2.84709,15.0277,-296.501,3.92965,-1.11473,-0.558748,-0.00728586,0.00210671,0.00103747,0.00221994,-0.00739909,1.46209,0.00872354,645.433,-90.2755,14.1835,0.615351,-0.397004,-0.131702,0.00613674,461,324,104.102,24.4639,242.841,151.225,140.53,114.287,0.000161926,0.000145257,0.000574229
-2.55427,15.0125,-296.45,3.92641,-1.1106,-0.551804,-0.00720501,0.00210052,0.00101008,0.0022089,-0.00731339,1.46391,0.00863246,645.345,-90.354,15.9292,0.584447,-0.400272,-0.116771,0.00584555,468,324,104.021,24.3631,244.26,151.912,142.023,115.101,0.000153919,0.000142687,0.000545115
-2.26325,14.9978,-296.405,3.92346,-1.10653,-0.544779,-0.00713906,0.0020996,0.000975366,0.00220145,-0.00724091,1.46675,0.00855673,645.333,-90.4442,17.5343,0.543339,-0.394752,-0.101932,0.00553473,475,324,103.944,24.2626,245.591,152.582,143.421,115.896,0.00014563,0.000137351,0.00051473
-1.97346,14.983,-296.363,3.92058,-1.10247,-0.53783,-0.00708221,0.00211129,0.000929542,0.00220434,-0.00717525,1.47103,0.0084947,645.348,-90.5937,19.1839,0.500449,-0.379631,-0.0923935,0.00541061,482,324,103.869,24.1626,246.858,153.254,144.753,116.694,0.000142313,0.000131995,0.000500934
-1.68305,14.9683,-296.318,3.9176,-1.09822,-0.531192,-0.00703301,0.0021363,0.000875499,0.00221914,-0.00711586,1.47645,0.00844696,645.218,-90.7199,20.6012,0.467551,-0.356023,-0.0943336,0.00562149,489,324,103.795,24.0599,248.161,153.909,146.125,117.482,0.000148355,0.000132799,0.000521678
-1.39193,14.9538,-296.27,3.91439,-1.09398,-0.524533,-0.00698382,0.00215926,0.000811456,0.00223072,-0.00705528,1.48296,0.00839591,644.898,-90.9317,21.636,0.445372,-0.325654,-0.104471,0.00592154,496,324,103.717,23.9553,249.505,154.557,147.542,118.26,0.000156072,0.000133457,0.000548235
-1.09946,14.9392,-296.216,3.91084,-1.08961,-0.517646,-0.00692382,0.00217817,0.000734808,0.00223711,-0.00698276,1.49076,0.00832975,644.611,-91.1618,22.7715,0.431559,-0.295594,-0.117095,0.00616322,503,324,103.63,23.8489,250.925,155.204,149.041,119.042,0.000161833,0.000132125,0.000568448
-0.805242,14.9242,-296.155,3.90704,-1.0851,-0.510263,-0.00684279,0.00219185,0.000646687,0.00223791,-0.00688884,1.4997,0.00823899,644.351,-91.3054,23.872,0.423348,-0.266604,-0.127205,0.00616637,510,324,103.536,23.7389,252.45,155.871,150.645,119.845,0.000161272,0.000132707,0.000566402
-0.509198,14.9088,-296.087,3.90283,-1.0803,-0.502807,-0.00675304,0.00220562,0.000550518,0.00223933,-0.00678674,1.50965,0.00814077,644.164,-91.478,25.5756,0.422254,-0.238936,-0.135553,0.00606145,517,324,103.434,23.6254,254.078,156.54,152.358,120.663,0.000157862,0.000133905,0.000555777
-0.211077,14.8934,-296.011,3.89869,-1.07529,-0.49467,-0.00666736,0.0022274,0.000449998,0.00225011,-0.00669006,1.52038,0.0080544,643.867,-91.5937,26.5859,0.430696,-0.218234,-0.142037,0.0058286,524,324,103.332,23.5089,255.844,157.199,154.199,121.476,0.000152205,0.000133678,0.000538931
0.0875041,14.8779,-295.932,3.89467,-1.0703,-0.485983,-0.00656614,0.00223635,0.00034575,0.00224991,-0.0065797,1.5316,0.00794722,643.523,-91.6961,27.9262,0.446443,-0.201236,-0.15224,0.00568196,531,324,103.23,23.3904,257.654,157.868,156.074,122.297,0.000148567,0.000135168,0.000528162
0.386498,14.8623,-295.85,3.89081,-1.06516,-0.47775,-0.00645458,0.0022454,0.000231048,0.00225153,-0.00646071,1.54426,0.00783305,643.218,-91.8131,29.4192,0.474257,-0.194692,-0.153716,0.00570206,538,324,103.137,23.2649,259.498,158.535,157.982,123.118,0.00014771,0.000138172,0.0005262
0.685858,14.8466,-295.767,3.88656,-1.05986,-0.470754,-0.00634304,0.00225351,0.000111902,0.00225497,-0.00634449,1.55778,0.00772296,642.909,-91.9893,31.4518,0.509643,-0.19191,-0.145164,0.00572159,545,324,103.043,23.1358,261.353,159.208,159.919,123.948,0.000148356,0.000139551,0.000527847
0.985321,14.8307,-295.681,3.88216,-1.05445,-0.463742,-0.00624378,0.00226545,-1.03281e-05,0.00226546,-0.00624379,-1.56958,0.00763297,642.67,-92.1449,33.1924,0.541042,-0.19557,-0.12066,0.0057569,552,324,102.946,23.0059,263.22,159.883,161.872,124.785,0.000149535,0.000141089,0.00053105
1.28466,14.8146,-295.595,3.87794,-1.04898,-0.456251,-0.00618008,0.00228554,-0.000135587,0.00228771,-0.00618225,-1.55479,0.00758927,642.508,-92.3213,34.9755,0.565762,-0.207915,-0.0729693,0.00574556,559,324,102.851,22.8764,265.1,160.562,163.826,125.63,0.000149828,0.000140839,0.000530251
1.58273,14.7989,-295.513,3.87414,-1.04365,-0.448234,-0.0061785,0.00231412,-0.000260351,0.00232209,-0.00618648,-1.54018,0.00761775,642.343,-92.4029,36.172,0.592252,-0.227037,0.00529611,0.00573386,566,324,102.762,22.7521,266.932,161.229,165.717,126.46,0.000148993,0.000139867,0.000525689
1.87723,14.7834,-295.443,3.87066,-1.03862,-0.440463,-0.00623209,0.00233381,-0.000385049,0.00235108,-0.00624936,-1.52597,0.00769902,642.247,-92.4653,37.2104,0.628636,-0.254827,0.127737,0.00577595,573,324,102.679,22.634,268.568,161.892,167.407,127.279,0.00014989,0.00014286,0.000528365
0,0,0,0,0,0,0,0,0,0,0,0,0,0,0,0,0,0,0,-1,580,324,0,0,0,0,0,0,0,0,0
0,0,0,0,0,0,0,0,0,0,0,0,0,0,0,0,0,0,0,-1,587,324,0,0,0,0,0,0,0,0,0
0,0,0,0,0,0,0,0,0,0,0,0,0,0,0,0,0,0,0,-1,594,324,0,0,0,0,0,0,0,0,0
0,0,0,0,0,0,0,0,0,0,0,0,0,0,0,0,0,0,0,-1,601,324,0,0,0,0,0,0,0,0,0
0,0,0,0,0,0,0,0,0,0,0,0,0,0,0,0,0,0,0,-1,62,331,0,0,0,0,0,0,0,0,0
0,0,0,0,0,0,0,0,0,0,0,0,0,0,0,0,0,0,0,-1,69,331,0,0,0,0,0,0,0,0,0
0,0,0,0,0,0,0,0,0,0,0,0,0,0,0,0,0,0,0,-1,76,331,0,0,0,0,0,0,0,0,0
-18.302,15.5023,-297.237,4.08166,-1.23419,-0.773065,-0.00906042,0.000980695,0.00182902,0.00130348,-0.00938321,1.39612,0.0100982,643.997,-80.5274,-79.1712,0.0393149,-0.445185,0.318106,0.00506918,83,331,107.862,27.2084,189.035,114.726,80.3893,73.4361,0.000135484,0.00012894,0.000470723
-18.0315,15.4903,-297.28,4.07914,-1.23462,-0.774137,-0.00898479,0.000892872,0.00185695,0.00123043,-0.00932236,1.39098,0.00999454,644.365,-80.7983,-77.1632,0.000918284,-0.424209,0.21211,0.00505131,90,331,107.813,27.2216,189.245,115.43,80.7777,74.154,0.000134853,0.000128641,0.000471215
-17.7588,15.4781,-297.316,4.07666,-1.23481,-0.77434,-0.00892666,0.000817243,0.00188334,0.00116859,-0.00927801,1.38636,0.0099141,644.775,-81.1011,-74.8186,-0.00778958,-0.399592,0.128935,0.0051625,97,331,107.761,27.2312,189.567,116.135,81.2689,74.8804,0.000137279,0.000129218,0.000482821
-17.4842,15.4658,-297.347,4.07427,-1.23481,-0.774128,-0.00888012,0.000759377,0.00190424,0.00112192,-0.00924266,1.38266,0.00985165,645.041,-81.3621,-72.4073,0.00306219,-0.373563,0.0634546,0.00517138,104,331,107.709,27.2376,189.982,116.834,81.8457,75.6069,0.000137578,0.000127499,0.000486372
-17.2081,15.4535,-297.372,4.0719,-1.23473,-0.773297,-0.00884888,0.000716924,0.00191787,0.00108712,-0.00921907,1.38012,0.00980792,645.139,-81.6979,-70.5701,0.0273837,-0.347956,0.0127724,0.00510128,111,331,107.655,27.2422,190.472,117.531,82.4905,76.3337,0.000135845,0.00012491,0.000482182
-16.9307,15.4408,-297.394,4.06951,-1.23454,-0.772061,-0.00883721,0.000686196,0.00192274,0.00105974,-0.00921075,1.37891,0.00978376,645.096,-81.9871,-69.0162,0.0595897,-0.324198,-0.0260727,0.00503277,118,331,107.599,27.2428,191.024,118.241,83.1943,77.0749,0.000134385,0.000124012,0.000476497
-16.6524,15.428,-297.413,4.06697,-1.23418,-0.770816,-0.00884538,0.000665802,0.00191459,0.00103674,-0.00921632,1.37942,0.00977601,645.102,-82.1912,-67.4005,0.0975318,-0.303428,-0.0569571,0.0050047,125,331,107.541,27.2348,191.614,118.954,83.9381,77.8201,0.000133627,0.000125883,0.000472111
-16.3733,15.4152,-297.429,4.06442,-1.2337,-0.769448,-0.00887937,0.000656605,0.00189144,0.00101807,-0.00924083,1.38197,0.00978964,645.162,-82.3417,-65.7457,0.142589,-0.287708,-0.0807125,0.00526053,132,331,107.481,27.2216,192.238,119.669,84.7145,78.5672,0.000140631,0.000133092,0.000496329
-16.0923,15.4021,-297.44,4.06197,-1.23301,-0.767748,-0.00893132,0.000655448,0.00185549,0.00100204,-0.00927792,1.38613,0.00981737,645.328,-82.534,-64.0946,0.190129,-0.276895,-0.10299,0.00550613,139,331,107.424,27.2045,192.962,120.385,85.5835,79.3217,0.000146933,0.000140567,0.000516164
-15.8109,15.389,-297.448,4.05948,-1.23218,-0.766351,-0.00899176,0.000662437,0.00181657,0.000992937,-0.00932226,1.39083,0.00985631,645.512,-82.6707,-62.4257,0.235019,-0.272527,-0.117545,0.00557671,146,331,107.37,27.1865,193.7,121.096,86.4687,80.0779,0.000147308,0.000142898,0.000518595
-15.5289,15.3758,-297.455,4.05709,-1.23127,-0.764777,-0.0090581,0.000679565,0.00177741,0.000993849,-0.00937239,1.39578,0.00990677,645.648,-82.8726,-60.7303,0.274448,-0.273409,-0.126601,0.0055607,153,331,107.317,27.1668,194.467,121.808,87.3779,80.8366,0.000144264,0.000142953,0.00050663
-15.2463,15.3625,-297.459,4.05464,-1.23024,-0.763112,-0.00912982,0.000707954,0.00173852,0.00100614,-0.00942801,1.40093,0.00996924,645.732,-83.0117,-59.1742,0.303873,-0.275994,-0.12926,0.00520015,160,331,107.263,27.1476,195.263,122.522,88.3159,81.6037,0.000131565,0.000133674,0.000460541
-14.9625,15.3489,-297.46,4.05201,-1.22918,-0.760739,-0.00920095,0.000745223,0.00170149,0.00102824,-0.00948397,1.40597,0.0100377,645.734,-83.1776,-57.4833,0.319155,-0.27983,-0.127778,0.00469844,167,331,107.2,27.1267,196.115,123.243,89.3069,82.3773,0.000117371,0.00012183,0.000408414
-14.6781,15.3355,-297.458,4.04948,-1.22808,-0.757716,-0.00926839,0.000789461,0.00166946,0.00105933,-0.00953825,1.41053,0.0101096,645.774,-83.4655,-55.7609,0.324139,-0.286962,-0.127185,0.00435727,174,331,107.137,27.1038,197.006,123.955,90.329,83.1414,0.000113064,0.00011424,0.000390073
-14.3936,15.3221,-297.456,4.04704,-1.22682,-0.754488,-0.00932607,0.000832504,0.0016473,0.00109295,-0.00958651,1.41399,0.0101771,645.828,-83.699,-53.8966,0.324029,-0.297281,-0.129282,0.00429005,181,331,107.074,27.0761,197.9,124.662,91.3497,83.9044,0.000114576,0.000110837,0.000393825
-14.1088,15.3087,-297.453,4.04437,-1.22538,-0.751607,-0.00936682,0.00087571,0.00163875,0.00113151,-0.00962262,1.41595,0.0102354,646.018,-83.8544,-51.7219,0.319757,-0.310842,-0.132429,0.00433269,188,331,107.008,27.0422,198.803,125.365,92.3863,84.6669,0.000115914,0.000108787,0.000397449
-13.8237,15.2954,-297.448,4.04154,-1.22375,-0.748828,-0.0093919,0.000917226,0.00164213,0.00117248,-0.00964715,1.41659,0.0102836,646.214,-84.0124,-49.3233,0.315331,-0.322789,-0.137109,0.00442102,195,331,106.94,27.0043,199.714,126.06,93.4356,85.4268,0.000115976,0.000109984,0.00039799
-13.5385,15.2821,-297.443,4.03858,-1.22202,-0.746159,-0.00941132,0.000958265,0.00165665,0.0012165,-0.00966955,1.41616,0.0103317,646.316,-84.1804,-47.0903,0.314645,-0.335926,-0.143476,0.00459295,202,331,106.871,26.9661,200.622,126.745,94.4852,86.182,0.000115108,0.000116451,0.000396315
-13.2537,15.2688,-297.438,4.03577,-1.22035,-0.74291,-0.00942348,0.000999728,0.00168163,0.00126432,-0.00968807,1.41473,0.0103781,646.302,-84.4567,-45.0999,0.320458,-0.346999,-0.152741,0.00467311,209,331,106.8,26.9291,201.516,127.43,95.512,86.9353,0.000114059,0.000120137,0.000394541
-12.9702,15.2554,-297.437,4.03298,-1.21873,-0.739988,-0.009423,0.00104552,0.00171266,0.00131859,-0.00969607,1.41269,0.0104181,646.169,-84.7844,-43.3921,0.33633,-0.352707,-0.166863,0.00487591,216,331,106.732,26.8939,202.345,128.122,96.4754,87.6944,0.000118323,0.000126306,0.000410774
-12.687,15.242,-297.437,4.03028,-1.21712,-0.736573,-0.00941072,0.001095,0.00174709,0.00137791,-0.00969364,1.41025,0.0104509,646.021,-84.9847,-41.8753,0.363365,-0.354541,-0.181594,0.00512193,223,331,106.663,26.8614,203.163,128.815,97.421,88.4564,0.000126723,0.000133132,0.000440404
-12.4023,15.2285,-297.432,4.02738,-1.21523,-0.732958,-0.00938203,0.00114396,0.00178434,0.00143821,-0.00967628,1.40736,0.0104697,646.044,-85.1549,-40.0125,0.400773,-0.354367,-0.193628,0.00538386,230,331,106.589,26.8227,204.051,129.499,98.4382,89.2187,0.000135755,0.000139263,0.000471758
-12.1159,15.2147,-297.421,4.02445,-1.21308,-0.728871,-0.00933266,0.00119144,0.00182051,0.00149746,-0.00963868,1.40426,0.0104681,646.124,-85.2529,-38.1407,0.441,-0.350271,-0.201868,0.00563069,237,331,106.512,26.7767,205.027,130.193,99.5386,89.9955,0.000139894,0.000145402,0.000485934
-11.8279,15.2008,-297.404,4.02149,-1.21077,-0.724795,-0.00926278,0.00123824,0.00185345,0.00155577,-0.00958032,1.40112,0.0104455,646.233,-85.3648,-36.5787,0.479733,-0.340855,-0.202863,0.00578982,244,331,106.437,26.7231,206.088,130.882,100.723,90.7688,0.000138108,0.000150059,0.000479698
-11.5387,15.1868,-297.384,4.01849,-1.20838,-0.720682,-0.00917063,0.00128597,0.00187994,0.00161368,-0.00949835,1.39821,0.0103995,646.276,-85.5384,-35.2182,0.516617,-0.323581,-0.197557,0.00560749,251,331,106.362,26.6633,207.209,131.584,101.967,91.5512,0.000133966,0.000145416,0.000465651
-11.249,15.1726,-297.361,4.01545,-1.20593,-0.716274,-0.00904858,0.00133403,0.00190107,0.00167117,-0.00938572,1.39528,0.0103233,646.268,-85.7695,-34.0455,0.547823,-0.300148,-0.183149,0.0053732,258,331,106.285,26.6019,208.353,132.291,103.232,92.3413,0.000134249,0.000139018,0.000466557
-10.9592,15.1583,-297.338,4.01247,-1.20344,-0.711698,-0.00889643,0.00138201,0.00192304,0.00173002,-0.00924444,1.39177,0.0102199,646.411,-86.0691,-32.5291,0.571982,-0.27419,-0.163714,0.00524841,265,331,106.209,26.5421,209.511,132.998,104.507,93.134,0.000137968,0.000134632,0.000479164
-10.6706,15.1444,-297.317,4.00953,-1.2009,-0.70752,-0.00872419,0.00143117,0.00194842,0.00179216,-0.00908519,1.3876,0.0101012,646.435,-86.324,-31.0841,0.585257,-0.246076,-0.142797,0.00532732,272,331,106.136,26.4847,210.607,133.685,105.722,93.9126,0.000143221,0.000131709,0.000496131
-10.3827,15.1305,-297.299,4.00672,-1.1983,-0.702931,-0.00854029,0.00147852,0.00197862,0.00185512,-0.00891689,1.38271,0.00997469,646.49,-86.4745,-29.5365,0.581783,-0.215214,-0.122154,0.00537246,279,331,106.063,26.4256,211.671,134.363,106.896,94.683,0.000144716,0.00013369,0.000500101
-10.0941,15.1169,-297.277,4.004,-1.19558,-0.698049,-0.00835816,0.00152649,0.00201029,0.00191969,-0.00875136,1.37764,0.00985248,646.496,-86.5728,-27.6278,0.560703,-0.182758,-0.102708,0.00534679,286,331,105.991,26.3631,212.782,135.027,108.112,95.4427,0.000144568,0.00013549,0.000498914
-9.80419,15.1026,-297.252,4.00112,-1.19277,-0.693231,-0.00818313,0.00157113,0.00203835,0.00197995,-0.00859195,1.37286,0.00973414,646.499,-86.6036,-25.5388,0.531516,-0.148926,-0.0882441,0.00523738,293,331,105.918,26.2997,213.952,135.719,109.391,96.2325,0.000141508,0.000134911,0.000488083
-9.5131,15.0884,-297.221,3.99826,-1.18995,-0.688237,-0.00803352,0.00161417,0.00206399,0.00203718,-0.00845653,1.36865,0.00963797,646.393,-86.5909,-23.3216,0.512327,-0.119993,-0.0822304,0.00517934,300,331,105.846,26.2348,215.191,136.407,110.733,97.0176,0.000138444,0.000133032,0.000477978
-9.22161,15.0739,-297.189,3.99539,-1.18696,-0.683205,-0.0079353,0.00165739,0.0020895,0.00209276,-0.00837068,1.36537,0.00958988,646.264,-86.5448,-20.9187,0.508573,-0.0939864,-0.0869324,0.00507107,307,331,105.773,26.169,216.453,137.098,112.098,97.8126,0.000136566,0.000129141,0.000471675
-8.93234,15.0596,-297.164,3.9928,-1.18427,-0.677748,-0.00788444,0.00169651,0.00211082,0.00214094,-0.00832887,1.36328,0.00958046,646.102,-86.5623,-19.1418,0.510481,-0.0773863,-0.0988964,0.00510667,314,331,105.704,26.1064,217.609,137.796,113.347,98.6031,0.000138123,0.000126318,0.000477155
-8.6447,15.0457,-297.143,3.99033,-1.18174,-0.672365,-0.00785913,0.00172742,0.00212064,0.00217558,-0.00830729,1.36253,0.00958214,646.061,-86.684,-17.0005,0.509424,-0.073481,-0.113768,0.00515991,321,331,105.636,26.0453,218.682,138.481,114.512,99.375,0.00013891,0.000126217,0.000480068
-8.35771,15.0318,-297.124,3.9877,-1.17908,-0.667115,-0.00783346,0.00175537,0.00211148,0.00219973,-0.00827782,1.36337,0.00956923,645.935,-86.9094,-15.2115,0.506273,-0.0803437,-0.133047,0.00521759,328,331,105.566,25.9831,219.717,139.158,115.642,100.144,0.000140227,0.000127705,0.000485227
-8.07001,15.0177,-297.102,3.98506,-1.17626,-0.662094,-0.0078046,0.00178574,0.00208377,0.00221894,-0.00823779,1.36583,0.00954275,645.881,-87.1479,-13.3471,0.504694,-0.0956899,-0.15476,0.00531676,335,331,105.497,25.9203,220.789,139.839,116.811,100.924,0.000142672,0.00013127,0.000494328
-7.78178,15.0037,-297.078,3.9823,-1.17325,-0.657339,-0.00778128,0.00181666,0.00204309,0.00223347,-0.00819809,1.36955,0.00951353,645.726,-87.3934,-11.6515,0.504566,-0.118155,-0.176078,0.00548004,342,331,105.429,25.8549,221.887,140.505,118.009,101.696,0.000146172,0.000135624,0.000507002
-7.49234,14.9895,-297.049,3.97955,-1.17017,-0.651494,-0.00777339,0.00184569,0.00199035,0.00224126,-0.00816896,1.37461,0.0094902,645.708,-87.6199,-10.2676,0.507055,-0.14575,-0.19672,0.00567656,349,331,105.355,25.7828,223.06,141.184,119.271,102.479,0.000150684,0.00014206,0.000522945
-7.20037,14.9745,-297.012,3.97602,-1.16658,-0.645734,-0.00778434,0.00187492,0.00192675,0.00224507,-0.00815449,1.381,0.00947857,645.875,-87.9269,-8.36158,0.510273,-0.175569,-0.213019,0.00575044,356,331,105.265,25.6992,224.35,141.882,120.669,103.294,0.000153289,0.000145263,0.00053192
-6.90393,14.9594,-296.959,3.97177,-1.1624,-0.640611,-0.0077953,0.00190483,0.00184825,0.00224506,-0.00813553,1.38875,0.00946001,646.111,-88.1221,-6.83206,0.512346,-0.204895,-0.22453,0.00565567,363,331,105.167,25.6042,225.861,142.567,122.309,104.115,0.000150916,0.000142448,0.000523476
-6.60623,14.9439,-296.901,3.96774,-1.15818,-0.634834,-0.00778789,0.00193299,0.00175916,0.00224155,-0.00809645,1.39716,0.00941943,646.073,-88.2343,-5.87904,0.515517,-0.230222,-0.231422,0.005563,370,331,105.071,25.5085,227.457,143.269,124.021,104.953,0.000147394,0.000142287,0.000511106
-6.31087,14.9291,-296.849,3.96458,-1.15479,-0.628337,-0.00775831,0.00196345,0.00166217,0.00223978,-0.00803465,1.40605,0.00935778,645.887,-88.2591,-5.01704,0.51836,-0.251422,-0.232364,0.00538486,377,331,104.991,25.4272,228.96,143.965,125.611,105.756,0.000141826,0.000138848,0.000491916
-6.02166,14.9157,-296.819,3.96287,-1.15217,-0.621152,-0.00772631,0.00199356,0.0015617,0.00223831,-0.00797107,1.41534,0.00929461,645.7,-88.4402,-3.82388,0.520749,-0.267912,-0.228118,0.00522347,384,331,104.936,25.3601,230.178,144.615,126.876,106.49,0.00013567,0.000134167,0.000471586
-5.73907,14.9025,-296.809,3.96127,-1.14983,-0.615285,-0.00771068,0.00202289,0.00146767,0.00223937,-0.00792717,1.42435,0.00925239,645.635,-88.6362,-2.2403,0.52708,-0.280375,-0.223735,0.00525632,391,331,104.887,25.2989,231.026,145.27,127.782,107.221,0.000135355,0.000130894,0.000471597
-5.45742,14.8893,-296.803,3.95921,-1.14721,-0.609819,-0.00771491,0.00204588,0.00138667,0.00223906,-0.00790808,1.43238,0.00923352,645.608,-88.8789,-0.448644,0.538168,-0.289398,-0.220138,0.005212,398,331,104.828,25.2343,231.808,145.912,128.638,107.952,0.000135063,0.000127831,0.000471186
-5.17235,14.8758,-296.784,3.95634,-1.14405,-0.604484,-0.007718,0.00205907,0.00131637,0.0022332,-0.00789214,1.43928,0.009214,645.631,-89.0669,1.52445,0.548337,-0.295491,-0.215848,0.00527422,405,331,104.754,25.159,232.756,146.553,129.68,108.698,0.000136794,0.000128555,0.000477866
-4.88388,14.8612,-296.753,3.95302,-1.14039,-0.598739,-0.00769358,0.00206266,0.00125113,0.00222055,-0.00785147,1.44526,0.00916575,645.618,-89.2322,3.52103,0.56219,-0.302297,-0.20863,0.00551838,412,331,104.67,25.0754,233.885,147.226,130.906,109.494,0.000142565,0.000131395,0.000498787
-4.59392,14.8467,-296.717,3.94965,-1.13673,-0.592641,-0.00765294,0.00205852,0.00119331,0.002203,-0.00779742,1.45031,0.00910113,645.577,-89.3632,5.19687,0.588949,-0.308118,-0.199108,0.00561985,419,331,104.584,24.9908,235.102,147.898,132.218,110.286,0.000147194,0.000131989,0.000514878
-4.30345,14.8321,-296.678,3.94646,-1.13304,-0.585986,-0.0076143,0.0020514,0.00114969,0.00218627,-0.00774917,1.45402,0.00904274,645.607,-89.5697,6.92976,0.626454,-0.312903,-0.190495,0.00551904,426,331,104.5,24.9046,236.36,148.57,133.56,111.077,0.000146274,0.000131739,0.000511341
-4.01264,14.8179,-296.638,3.94339,-1.12942,-0.579463,-0.00758109,0.00203471,0.00112485,0.00216454,-0.00771092,1.45588,0.00899078,645.537,-89.6646,8.40634,0.656571,-0.313876,-0.18185,0.00533414,433,331,104.421,24.8211,237.645,149.221,134.925,111.847,0.00014157,0.000132458,0.000494377
-3.72006,14.8035,-296.59,3.94001,-1.12562,-0.572776,-0.00753433,0.00201465,0.00110674,0.00214125,-0.00766092,1.45691,0.00892629,645.408,-89.73,10.0534,0.665334,-0.316303,-0.17104,0.00536793,440,331,104.336,24.7318,239.026,149.882,136.391,112.628,0.000142393,0.000133347,0.000497843
-3.42499,14.7882,-296.533,3.93642,-1.12154,-0.565722,-0.00745628,0.00199813,0.00108489,0.00212103,-0.00757918,1.458,0.0088328,645.178,-89.749,11.8013,0.657502,-0.320765,-0.15878,0.0058159,447,331,104.246,24.6352,240.549,150.575,137.998,113.449,0.000153684,0.000143864,0.000540951
-3.12955,14.7735,-296.474,3.9328,-1.11719,-0.558915,-0.00735245,0.00199306,0.00105689,0.00211109,-0.00747049,1.45958,0.00871985,644.914,-89.8055,13.3079,0.639661,-0.324533,-0.146066,0.00617298,454,331,104.157,24.5349,242.097,151.226,139.632,114.238,0.000161878,0.000147552,0.000572954
-2.83449,14.7581,-296.416,3.92928,-1.11271,-0.551723,-0.0072459,0.00199425,0.00102854,0.00210736,-0.007359,1.46127,0.00860836,644.687,-89.9373,14.8689,0.617167,-0.324505,-0.1365,0.0061524,461,331,104.068,24.428,243.635,151.914,141.249,115.065,0.000161691,0.000147291,0.000572704
-2.54195,14.7429,-296.366,3.92622,-1.10852,-0.544444,-0.00715489,0.00199704,0.00100294,0.00210566,-0.00726351,1.46291,0.00851392,644.65,-90.0334,16.5886,0.59055,-0.319077,-0.128861,0.00587395,468,331,103.989,24.3255,245.05,152.604,142.73,115.884,0.000154805,0.000140908,0.000547444
-2.25161,14.7283,-296.322,3.92338,-1.10456,-0.537413,-0.00707401,0.002006,0.000968464,0.00210814,-0.00717615,1.46571,0.00843029,644.702,-90.1234,18.2197,0.554552,-0.306794,-0.121789,0.00557237,475,331,103.915,24.227,246.349,153.272,144.094,116.673,0.00014694,0.000132289,0.000518308
-1.96254,14.7139,-296.283,3.9205,-1.10068,-0.530693,-0.00699741,0.00202553,0.000922876,0.00211896,-0.00709083,1.46991,0.00835434,644.785,-90.2637,19.9041,0.517897,-0.287878,-0.119457,0.00555789,482,331,103.841,24.1315,247.577,153.932,145.39,117.454,0.00014644,0.000130716,0.000514638
-1.67275,14.6995,-296.24,3.91747,-1.09667,-0.523922,-0.00692297,0.00205716,0.000869366,0.00214055,-0.00700636,1.47517,0.00828665,644.634,-90.4765,21.1143,0.489044,-0.26361,-0.126778,0.00580775,489,331,103.764,24.0324,248.849,154.587,146.731,118.232,0.000153348,0.00013429,0.000537922
-1.38169,14.685,-296.192,3.9142,-1.09251,-0.517317,-0.00684454,0.00209011,0.000805287,0.00216211,-0.00691654,1.48162,0.00821387,644.322,-90.7519,22.1145,0.466727,-0.236375,-0.13965,0.00610812,496,331,103.685,23.9305,250.191,155.236,148.148,119.008,0.000161035,0.000138542,0.000564203
-1.08884,14.6705,-296.136,3.91064,-1.08817,-0.510209,-0.00675472,0.00211982,0.000728564,0.00217924,-0.00681413,1.48943,0.00812595,644.004,-90.9733,22.9848,0.449656,-0.211044,-0.15311,0.00636447,503,331,103.597,23.8239,251.639,155.885,149.673,119.789,0.000167236,0.000140879,0.000586636
-0.79392,14.6555,-296.073,3.90676,-1.08347,-0.502848,-0.00664518,0.00214293,0.00064004,0.0021893,-0.00669154,1.49847,0.00801371,643.791,-91.1492,24.2698,0.437284,-0.188662,-0.16228,0.00631852,510,331,103.502,23.7122,253.207,156.542,151.32,120.591,0.000165426,0.000139748,0.000580407
-0.497366,14.6401,-296.003,3.90261,-1.0785,-0.495261,-0.00652957,0.00216135,0.000543495,0.00219521,-0.00656342,1.50858,0.00789339,643.539,-91.2607,25.6926,0.431824,-0.169048,-0.167406,0.00615429,517,331,103.401,23.5942,254.872,157.211,153.067,121.412,0.000160432,0.000137012,0.000565006
-0.199036,14.6247,-295.925,3.89843,-1.07337,-0.487185,-0.0064215,0.00218147,0.000442918,0.00220422,-0.00644424,1.51949,0.00778404,643.313,-91.3419,27.1344,0.433571,-0.156222,-0.169,0.00592914,524,331,103.299,23.4736,256.652,157.871,154.924,122.229,0.000154896,0.000134872,0.000549196
0.0995163,14.6092,-295.846,3.89444,-1.06835,-0.478243,-0.00629494,0.00219142,0.000339244,0.00220496,-0.00630848,1.53091,0.00765302,643.031,-91.4722,28.7699,0.440551,-0.146969,-0.17327,0.00581115,531,331,103.197,23.3535,258.469,158.54,156.801,123.049,0.000152039,0.000134195,0.000541299
0.398196,14.5938,-295.766,3.89065,-1.06316,-0.470084,-0.00616682,0.00219676,0.000227339,0.00220294,-0.006173,1.54364,0.00752047,642.792,-91.5446,30.5682,0.457309,-0.146591,-0.168276,0.00584573,538,331,103.105,23.2286,260.301,159.204,158.695,123.869,0.000151999,0.000138739,0.000541519
0.696857,14.5781,-295.684,3.88662,-1.05781,-0.463123,-0.00605072,0.00219681,0.000112503,0.00219834,-0.00605225,1.55716,0.0074005,642.561,-91.7187,32.5347,0.479233,-0.151055,-0.151636,0.00576949,545,331,103.016,23.101,262.125,159.873,160.596,124.699,0.00015027,0.000136521,0.000533
0.995284,14.5623,-295.602,3.88251,-1.05243,-0.456044,-0.00596195,0.00219598,-4.3926e-06,0.00219598,-0.00596195,-1.57026,0.00731161,642.281,-91.8982,33.9751,0.496659,-0.162473,-0.118364,0.00571537,552,331,102.925,22.9727,263.944,160.545,162.493,125.533,0.000148909,0.000136058,0.000526675
1.29364,14.5466,-295.52,3.87862,-1.04715,-0.448428,-0.00592452,0.0021981,-0.00012357,0.00219998,-0.0059264,-1.55559,0.00728012,642.005,-92.0738,35.5653,0.509095,-0.181862,-0.0634857,0.00569638,559,331,102.837,22.8449,265.78,161.221,164.394,126.367,0.000148643,0.000136865,0.000524784
1.59082,14.5311,-295.441,3.87503,-1.04201,-0.440062,-0.0059681,0.00220371,-0.000240158,0.00221077,-0.00597515,-1.54144,0.00733482,641.817,-92.1614,36.799,0.526709,-0.207118,0.0183581,0.00565236,566,331,102.75,22.7225,267.572,161.884,166.237,127.186,0.000147149,0.000136195,0.000517825
1.8855,14.5159,-295.37,3.87154,-1.03705,-0.432045,-0.00608915,0.00219836,-0.000353516,0.00221341,-0.0061042,-1.52824,0.00746134,641.653,-92.1734,37.6492,0.55816,-0.239117,0.139906,0.00575371,573,331,102.666,22.6049,269.225,162.543,167.942,127.996,0.000149948,0.000140704,0.000527072
0,0,0,0,0,0,0,0,0,0,0,0,0,0,0,0,0,0,0,-1,580,331,0,0,0,0,0,0,0,0,0
0,0,0,0,0,0,0,0,0,0,0,0,0,0,0,0,0,0,0,-1,587,331,0,0,0,0,0,0,0,0,0
0,0,0,0,0,0,0,0,0,0,0,0,0,0,0,0,0,0,0,-1,594,331,0,0,0,0,0,0,0,0,0
0,0,0,0,0,0,0,0,0,0,0,0,0,0,0,0,0,0,0,-1,601,331,0,0,0,0,0,0,0,0,0
0,0,0,0,0,0,0,0,0,0,0,0,0,0,0,0,0,0,0,-1,62,338,0,0,0,0,0,0,0,0,0
0,0,0,0,0,0,0,0,0,0,0,0,0,0,0,0,0,0,0,-1,69,338,0,0,0,0,0,0,0,0,0
0,0,0,0,0,0,0,0,0,0,0,0,0,0,0,0,0,0,0,-1,76,338,0,0,0,0,0,0,0,0,0
-18.3279,15.2327,-297.277,4.0811,-1.23527,-0.767591,-0.00891115,0.000939732,0.00169169,0.00122215,-0.00919357,1.40538,0.00986161,643.85,-80.5641,-78.9812,0.123015,-0.437464,0.309546,0.00505568,83,338,107.788,27.2367,187.722,115.527,79.0577,74.2659,0.000134364,0.000128413,0.000469225
-18.056,15.2205,-297.316,4.07872,-1.23559,-0.76826,-0.00881088,0.000851796,0.00173179,0.0011528,-0.00911188,1.3987,0.00973958,644.233,-80.8136,-76.996,0.0894936,-0.413018,0.206403,0.00507464,90,338,107.741,27.2479,188.006,116.236,79.513,74.9917,0.00013493,0.000127312,0.000473717
-17.7821,15.2081,-297.349,4.07621,-1.23568,-0.768536,-0.00873106,0.000776298,0.00176601,0.00109374,-0.0090485,1.39295,0.00964201,644.689,-81.0708,-74.6103,0.0788458,-0.386873,0.124881,0.00516189,97,338,107.69,27.2543,188.382,116.943,80.0586,75.7226,0.000137534,0.000126688,0.000485354
-17.5067,15.1958,-297.377,4.07385,-1.23558,-0.768223,-0.00866666,0.000717573,0.00179254,0.00104832,-0.00899741,1.38834,0.00956475,644.988,-81.3154,-72.1291,0.082761,-0.360038,0.0606937,0.00519047,104,338,107.639,27.2569,188.843,117.642,80.6783,76.4503,0.000138397,0.000124603,0.000490207
-17.2295,15.1834,-297.399,4.07154,-1.2354,-0.767351,-0.00861987,0.000673005,0.001812,0.00101382,-0.00896069,1.38488,0.00950823,645.112,-81.5923,-70.2735,0.0970187,-0.333753,0.0112869,0.00513764,111,338,107.587,27.2577,189.386,118.339,81.3741,77.1778,0.000136979,0.000122441,0.000486607
-16.9511,15.1706,-297.418,4.06923,-1.23515,-0.766142,-0.00859372,0.000638377,0.00182406,0.000985706,-0.00894105,1.38263,0.00947245,645.09,-81.8665,-68.6139,0.118271,-0.309292,-0.0264301,0.00508553,118,338,107.534,27.2554,189.991,119.049,82.1278,77.9183,0.000135559,0.000123006,0.000481363
-16.6716,15.1578,-297.434,4.06682,-1.23471,-0.76477,-0.0085887,0.000611997,0.00182556,0.000960981,-0.00893769,1.38191,0.00945488,645.095,-82.1036,-66.9274,0.145712,-0.288171,-0.0560464,0.00506425,125,338,107.479,27.248,190.642,119.759,82.9269,78.6631,0.000135286,0.000127859,0.000479179
-16.3913,15.1449,-297.446,4.06434,-1.23424,-0.763485,-0.00861081,0.000594437,0.00181621,0.00093982,-0.00895619,1.38287,0.00946118,645.165,-82.3065,-65.3071,0.180646,-0.272317,-0.0783613,0.00541865,132,338,107.424,27.237,191.33,120.473,83.7647,79.411,0.000143602,0.000137761,0.000507447
-16.1099,15.1319,-297.455,4.06197,-1.23363,-0.761623,-0.00865227,0.00058193,0.00179959,0.000920245,-0.00899059,1.38497,0.00948425,645.382,-82.4558,-63.8096,0.218501,-0.261076,-0.0981566,0.00584175,139,338,107.368,27.2226,192.077,121.189,84.6533,80.1634,0.000152113,0.000150792,0.00053277
-15.8286,15.1187,-297.464,4.05964,-1.23281,-0.76007,-0.00870894,0.000576551,0.0017813,0.000906543,-0.00903894,1.38762,0.00952462,645.528,-82.5803,-62.4003,0.253554,-0.25647,-0.110382,0.00583862,146,338,107.316,27.2055,192.815,121.901,85.5331,80.9199,0.000148748,0.000149608,0.000521757
-15.5467,15.1056,-297.471,4.05731,-1.23193,-0.758731,-0.00877704,0.0005788,0.00176316,0.000900045,-0.00909829,1.39057,0.00958007,645.687,-82.8012,-60.7901,0.283448,-0.257558,-0.117452,0.00573452,153,338,107.267,27.1871,193.574,122.611,86.4338,81.6761,0.000142514,0.000146879,0.000498988
-15.2647,15.0923,-297.478,4.05492,-1.23089,-0.757352,-0.00885261,0.000589065,0.00174451,0.000901083,-0.00916463,1.39381,0.00964678,645.722,-82.9325,-59.2107,0.306087,-0.262114,-0.118109,0.005288,160,338,107.216,27.1683,194.339,123.319,87.3414,82.438,0.000129048,0.0001351,0.00045057
-14.9816,15.0788,-297.481,4.05248,-1.22975,-0.755131,-0.00892931,0.000606266,0.00172596,0.000909053,-0.0092321,1.39713,0.00971857,645.655,-83.0879,-57.3707,0.319437,-0.269579,-0.114539,0.00478039,167,338,107.159,27.1445,195.159,124.034,88.2972,83.2065,0.000117426,0.000123583,0.000407437
-14.6974,15.0655,-297.48,4.05012,-1.22857,-0.752317,-0.00900363,0.000629095,0.00171037,0.000923771,-0.00929831,1.40018,0.00979293,645.641,-83.3801,-55.7042,0.325685,-0.281053,-0.111795,0.00447062,174,338,107.1,27.1193,196.041,124.738,89.3065,83.9643,0.000114583,0.000117363,0.000394492
-14.4132,15.0522,-297.479,4.04784,-1.22736,-0.749179,-0.00906916,0.000652599,0.00170099,0.000941623,-0.00935818,1.40249,0.00986276,645.709,-83.596,-53.7455,0.327402,-0.295982,-0.112302,0.00442848,181,338,107.042,27.0917,196.928,125.444,90.3168,84.7235,0.000118648,0.000116486,0.000407043
-14.1286,15.0389,-297.476,4.04529,-1.22597,-0.746265,-0.00911904,0.000678805,0.00170006,0.000965404,-0.00940564,1.40378,0.00992362,645.961,-83.7953,-51.433,0.324517,-0.313481,-0.115482,0.00451879,188,338,106.979,27.0594,197.82,126.144,91.3389,85.4815,0.000121302,0.000114327,0.00041599
-13.8437,15.0256,-297.472,4.0424,-1.22442,-0.743659,-0.00915339,0.000706568,0.0017051,0.000993107,-0.00943992,1.4043,0.00997363,646.202,-83.9994,-48.6206,0.321615,-0.329035,-0.121609,0.00460887,195,338,106.911,27.0228,198.715,126.837,92.3752,86.2374,0.000121153,0.000115049,0.000416292
-13.5587,15.0123,-297.467,4.03942,-1.22272,-0.740814,-0.00918226,0.000737147,0.00171524,0.00102537,-0.00947048,1.40432,0.0100226,646.328,-84.2177,-46.1651,0.323115,-0.344202,-0.130599,0.00473852,202,338,106.84,26.9856,199.618,127.519,93.4188,86.9881,0.000120237,0.000119353,0.000414707
-13.2735,14.9991,-297.462,4.03646,-1.22101,-0.73773,-0.00920547,0.000771752,0.00173,0.00106321,-0.00949693,1.40389,0.0100707,646.256,-84.4992,-44.2029,0.331102,-0.356195,-0.143632,0.00484911,209,338,106.767,26.949,200.526,128.201,94.4647,87.7398,0.000119432,0.000124606,0.000413403
-12.989,14.9857,-297.458,4.03372,-1.21936,-0.734519,-0.00921866,0.000813633,0.00174675,0.00110906,-0.00951409,1.40325,0.0101143,646.084,-84.6713,-42.5779,0.347841,-0.362421,-0.161031,0.0050601,216,338,106.699,26.9128,201.406,128.887,95.4748,88.494,0.000121751,0.000131339,0.000422709
-12.7045,14.9724,-297.454,4.0312,-1.21767,-0.730958,-0.00922351,0.000862103,0.00176675,0.00116264,-0.00952405,1.4023,0.0101554,646.003,-84.8452,-40.9828,0.373309,-0.364267,-0.178118,0.00530169,223,338,106.635,26.8773,202.294,129.572,96.4832,89.2488,0.000127687,0.000137674,0.000443529
-12.4192,14.9589,-297.447,4.02869,-1.21587,-0.726921,-0.00921463,0.000912682,0.00179126,0.00122017,-0.00952213,1.40079,0.0101872,645.997,-84.9501,-39.1972,0.406833,-0.362686,-0.192361,0.00548517,230,338,106.568,26.838,203.227,130.262,97.5312,90.0101,0.000134613,0.000141843,0.000467802
-12.1324,14.945,-297.435,4.02586,-1.21374,-0.723099,-0.00918574,0.000963612,0.0018159,0.00127872,-0.00950085,1.39898,0.0102005,646.095,-85.0537,-37.3716,0.442169,-0.356772,-0.203168,0.00542042,237,338,106.497,26.7953,204.225,130.958,98.6525,90.79,0.000135193,0.000140111,0.000470222
-11.844,14.9312,-297.417,4.02287,-1.21146,-0.719182,-0.0091332,0.00101511,0.00183843,0.00133789,-0.00945597,1.397,0.010191,646.209,-85.2264,-35.7966,0.476781,-0.345754,-0.20799,0.00545086,244,338,106.422,26.7444,205.305,131.649,99.8578,91.565,0.000133984,0.000141063,0.000466265
-11.5547,14.9171,-297.396,4.01984,-1.20911,-0.715119,-0.0090545,0.00106735,0.00185686,0.00139724,-0.00938439,1.39497,0.0101554,646.265,-85.4315,-34.3693,0.509808,-0.327936,-0.206568,0.00549974,251,338,106.348,26.6863,206.429,132.352,101.106,92.3488,0.000135191,0.000142074,0.000470522
-11.2655,14.903,-297.375,4.0167,-1.20669,-0.710984,-0.00894736,0.00111903,0.0018723,0.00145599,-0.00928432,1.39273,0.0100914,646.348,-85.771,-32.9323,0.536663,-0.30447,-0.195167,0.0054173,258,338,106.27,26.6265,207.545,133.053,102.348,93.1315,0.000139053,0.000138639,0.000483635
-10.976,14.889,-297.352,4.01364,-1.20419,-0.706407,-0.00881227,0.00116939,0.00188887,0.00151487,-0.00915775,1.38989,0.0100016,646.394,-86.0225,-31.9605,0.556289,-0.278472,-0.177412,0.00540534,265,338,106.192,26.5675,208.687,133.749,103.609,93.9152,0.0001439,0.000135632,0.000499713
-10.6866,14.8751,-297.329,4.01068,-1.20158,-0.70196,-0.00865491,0.00121924,0.00190737,0.00157488,-0.00901054,1.38646,0.00989245,646.378,-86.2663,-30.6445,0.565248,-0.250639,-0.15689,0.00547897,272,338,106.117,26.5082,209.821,134.431,104.859,94.6884,0.000147405,0.000132858,0.000510592
-10.3971,14.8613,-297.306,4.00777,-1.1989,-0.697034,-0.00848097,0.00126662,0.00192822,0.00163419,-0.00884854,1.38243,0.0097687,646.434,-86.3649,-28.8943,0.559687,-0.220988,-0.136225,0.00536358,279,338,106.041,26.4466,210.973,135.103,106.121,95.4542,0.00014435,0.00013367,0.000498975
-10.1078,14.8477,-297.282,4.00494,-1.19615,-0.692267,-0.00830183,0.00131325,0.00194922,0.00169338,-0.00868196,1.3782,0.00964084,646.419,-86.4823,-26.9084,0.540225,-0.190623,-0.117232,0.00519725,286,338,105.968,26.3824,212.113,135.764,107.369,96.2095,0.000139928,0.0001344,0.000483359
-9.81751,14.8335,-297.255,4.00196,-1.19342,-0.687377,-0.00812272,0.00135613,0.00196645,0.00174789,-0.00851448,1.37415,0.00950968,646.339,-86.5556,-24.7751,0.514972,-0.160088,-0.102996,0.00510658,293,338,105.892,26.3173,213.302,136.458,108.669,96.9954,0.000136808,0.000134909,0.000472165
-9.52529,14.8193,-297.221,3.99892,-1.19039,-0.682437,-0.00796158,0.00139676,0.00198084,0.00179876,-0.00836359,1.37057,0.00939304,646.187,-86.5587,-22.4285,0.499255,-0.134006,-0.0963225,0.00508942,300,338,105.817,26.2493,214.596,137.139,110.071,97.7803,0.000134283,0.00013236,0.000463848
-9.23236,14.8048,-297.185,3.99599,-1.18731,-0.67702,-0.00784478,0.00143828,0.00199343,0.00184824,-0.00825474,1.36797,0.00931738,645.987,-86.5213,-20.2386,0.49777,-0.112066,-0.0983368,0.00497796,307,338,105.742,26.1799,215.936,137.829,111.511,98.5749,0.000133353,0.000127499,0.000460715
-8.94141,14.7904,-297.154,3.99325,-1.18437,-0.671507,-0.00777339,0.00147923,0.00200075,0.00189334,-0.00818749,1.3667,0.00928016,645.814,-86.5314,-18.3628,0.500731,-0.0986188,-0.105741,0.00497709,314,338,105.67,26.114,217.178,138.523,112.848,99.3702,0.000134269,0.000124701,0.000464095
-8.65189,14.7762,-297.127,3.99058,-1.18163,-0.666323,-0.00772987,0.00151681,0.00199647,0.00192946,-0.00814252,1.36698,0.00925927,645.762,-86.632,-16.2615,0.501348,-0.0961297,-0.116093,0.00498385,321,338,105.601,26.0497,218.345,139.213,114.112,100.153,0.000134211,0.000124192,0.000464341
-8.36328,14.7621,-297.103,3.98795,-1.17887,-0.660932,-0.00768834,0.00155286,0.00197378,0.00195678,-0.00809226,1.36894,0.00922759,645.617,-86.786,-14.3744,0.501227,-0.102352,-0.131003,0.00509339,328,338,105.531,25.9845,219.469,139.901,115.329,100.934,0.000136602,0.000126718,0.000473106
-8.07404,14.748,-297.076,3.98535,-1.17596,-0.655902,-0.00764407,0.00158975,0.00193452,0.00197866,-0.00803298,1.3724,0.0091836,645.476,-86.9888,-12.6162,0.503683,-0.116139,-0.148028,0.00523637,335,338,105.466,25.9177,220.626,140.581,116.58,101.714,0.000139615,0.000132036,0.000483959
-7.78475,14.734,-297.048,3.98272,-1.1729,-0.650972,-0.00760617,0.00162516,0.00188508,0.00199527,-0.00797627,1.37693,0.00913875,645.343,-87.2543,-10.8837,0.507383,-0.13585,-0.164145,0.00543173,342,338,105.401,25.8504,221.787,141.246,117.835,102.484,0.000144402,0.000136945,0.000500824
-7.49471,14.7197,-297.017,3.97999,-1.16976,-0.645091,-0.00758881,0.00165738,0.0018278,0.00200558,-0.00793701,1.38255,0.00910697,645.354,-87.5567,-9.48912,0.511835,-0.159978,-0.178816,0.00560878,349,338,105.328,25.7778,222.994,141.926,119.13,103.27,0.000149,0.00014236,0.000516903
-7.2031,14.7048,-296.981,3.97661,-1.16619,-0.639148,-0.00759563,0.00168829,0.0017635,0.00201198,-0.00791932,1.38926,0.0090938,645.522,-87.7957,-7.65556,0.515949,-0.186154,-0.190051,0.00569452,356,338,105.24,25.6962,224.272,142.622,120.511,104.084,0.000151893,0.000142873,0.000526923
-6.90693,14.6898,-296.928,3.97252,-1.1621,-0.633553,-0.00760483,0.00171842,0.00168872,0.00201487,-0.00790128,1.39702,0.00907799,645.747,-87.9744,-6.28096,0.518197,-0.211806,-0.197721,0.00561761,363,338,105.142,25.605,225.778,143.302,122.138,104.898,0.000149659,0.000139575,0.000519159
-6.60941,14.6747,-296.871,3.96853,-1.15785,-0.627684,-0.00759963,0.00174563,0.00160644,0.00201407,-0.00786807,1.40523,0.00904488,645.682,-88.1188,-5.4267,0.52024,-0.233865,-0.201577,0.00550836,370,338,105.047,25.5086,227.369,143.983,123.841,105.716,0.000146171,0.000138866,0.000507031
-6.3126,14.6598,-296.815,3.96523,-1.15431,-0.621453,-0.00757904,0.00177342,0.00151872,0.00201386,-0.00781948,1.41378,0.00899707,645.464,-88.1863,-4.58908,0.520776,-0.252033,-0.200351,0.00539571,377,338,104.966,25.424,228.947,144.679,125.512,106.523,0.000141994,0.000137812,0.000492457
-6.01949,14.6458,-296.771,3.96315,-1.15138,-0.614656,-0.00756318,0.00180047,0.0014305,0.00201413,-0.00777685,1.42253,0.00895543,645.243,-88.3303,-3.54385,0.521129,-0.265632,-0.194803,0.00527374,384,338,104.909,25.35,230.366,145.357,126.987,107.29,0.000136212,0.0001349,0.000473239
-5.73258,14.6325,-296.747,3.96152,-1.14873,-0.608762,-0.00756709,0.00182607,0.00135056,0.0020164,-0.00775741,1.43079,0.00893786,645.178,-88.5235,-1.85311,0.525665,-0.27512,-0.189894,0.00527001,391,338,104.864,25.2825,231.454,146.005,128.131,108.023,0.000133819,0.000133228,0.000465952
-5.44986,14.6194,-296.736,3.95971,-1.14604,-0.603359,-0.00759025,0.00184732,0.00128438,0.00201899,-0.00776192,1.43792,0.00894399,645.153,-88.6596,0.141919,0.535296,-0.281368,-0.186891,0.00526448,398,338,104.814,25.2159,232.304,146.639,129.047,108.747,0.00013319,0.000130766,0.000464562
-5.16581,14.606,-296.721,3.95702,-1.14295,-0.597963,-0.00761179,0.00186242,0.00122954,0.00201939,-0.00776876,1.44382,0.00895096,645.175,-88.8466,2.43312,0.545339,-0.284685,-0.184761,0.00539926,405,338,104.743,25.1433,233.205,147.275,130.036,109.487,0.000137632,0.000130098,0.000480649
-4.87874,14.592,-296.695,3.95374,-1.13952,-0.592309,-0.00760581,0.0018709,0.00118087,0.00201583,-0.00775074,1.44868,0.00893094,645.127,-89.0032,4.58503,0.559541,-0.287346,-0.181676,0.00565043,412,338,104.659,25.0637,234.26,147.929,131.191,110.256,0.000145166,0.000130724,0.000507527
-4.59017,14.5777,-296.663,3.95039,-1.13596,-0.585994,-0.00758123,0.00187321,0.00113996,0.00200872,-0.00771673,1.45248,0.0088929,645.012,-89.0894,6.12509,0.586844,-0.288256,-0.177674,0.00564492,419,338,104.571,24.981,235.405,148.594,132.428,111.037,0.000147589,0.000129556,0.000515515
-4.30048,14.5633,-296.627,3.94707,-1.1324,-0.579227,-0.00755416,0.00187246,0.00111136,0.00200171,-0.00768341,1.45502,0.0088556,644.985,-89.3418,7.94846,0.623203,-0.287467,-0.174103,0.0055482,426,338,104.482,24.8962,236.62,149.266,133.73,111.823,0.000147116,0.000130702,0.000513516
-4.00956,14.5489,-296.586,3.94385,-1.12877,-0.572596,-0.00752837,0.0018663,0.00109658,0.0019926,-0.00765467,1.45613,0.00882141,644.897,-89.4212,9.31752,0.65108,-0.28419,-0.169002,0.00536128,433,338,104.399,24.8132,237.909,149.927,135.103,112.603,0.000142494,0.000131337,0.000496772
-3.71642,14.5343,-296.536,3.94039,-1.12491,-0.565821,-0.00748764,0.00186007,0.00108401,0.00198413,-0.00761171,1.45685,0.00877368,644.835,-89.5109,10.9918,0.65914,-0.281263,-0.161867,0.00539767,440,338,104.312,24.7213,239.323,150.6,136.602,113.396,0.0001428,0.000133124,0.000498324
-3.42068,14.519,-296.477,3.93668,-1.12063,-0.559105,-0.007414,0.00185733,0.00106535,0.00197817,-0.00753485,1.45785,0.00869438,644.59,-89.5185,12.6444,0.653233,-0.279246,-0.154311,0.00567637,447,338,104.221,24.6205,240.879,151.288,138.248,114.218,0.000150823,0.000140527,0.000529285
-3.12414,14.5041,-296.414,3.93306,-1.11602,-0.552083,-0.00731157,0.0018627,0.00104018,0.00197916,-0.00742802,1.4593,0.00859033,644.335,-89.5537,14.1689,0.639397,-0.275894,-0.147766,0.00585577,454,338,104.133,24.5127,242.495,151.944,139.946,115.018,0.000155543,0.000141177,0.00054866
-2.8284,14.4892,-296.353,3.92963,-1.1114,-0.544765,-0.00720266,0.00187187,0.00101501,0.00198402,-0.00731481,1.46076,0.00848266,644.098,-89.6584,15.6009,0.620504,-0.269003,-0.144041,0.0059225,461,338,104.046,24.402,244.079,152.605,141.605,115.82,0.000155946,0.000138919,0.000550977
-2.53534,14.4742,-296.301,3.92644,-1.107,-0.537766,-0.00710405,0.0018827,0.000990718,0.00199063,-0.00721197,1.46229,0.00838639,644.069,-89.7079,16.9631,0.597142,-0.258195,-0.141749,0.00581596,468,338,103.966,24.2982,245.521,153.277,143.118,116.629,0.000153021,0.000135126,0.00053992
-2.2447,14.4596,-296.256,3.92354,-1.10307,-0.530698,-0.00701043,0.00189958,0.000956738,0.00200115,-0.007112,1.46502,0.00829562,644.162,-89.8241,18.5252,0.565258,-0.242192,-0.140009,0.00569719,475,338,103.891,24.2009,246.84,153.949,144.502,117.422,0.000150178,0.000131454,0.000528113
-1.95513,14.4453,-296.215,3.9206,-1.09932,-0.523851,-0.00691558,0.00192489,0.000912247,0.00201804,-0.00700874,1.46904,0.00820602,644.341,-90.0967,20.3718,0.533454,-0.221746,-0.142218,0.00588809,482,338,103.815,24.1092,248.099,154.607,145.829,118.196,0.000155357,0.000136938,0.000544224
-1.66529,14.4309,-296.171,3.9174,-1.09538,-0.517036,-0.00681643,0.00196062,0.00086018,0.00204412,-0.00689994,1.47402,0.00811738,644.164,-90.3186,21.7153,0.507456,-0.198265,-0.152104,0.00622695,489,338,103.735,24.0127,249.373,155.263,147.176,118.974,0.000164601,0.000146058,0.000574733
-1.37399,14.4165,-296.122,3.91404,-1.09137,-0.510026,-0.00670919,0.00199965,0.00079822,0.0020722,-0.00678175,1.48015,0.00802118,643.873,-90.6215,22.818,0.484539,-0.174299,-0.165293,0.00661117,496,338,103.651,23.9148,250.733,155.918,148.611,119.752,0.000173801,0.000157653,0.000606885
-1.08038,14.4021,-296.064,3.91044,-1.08693,-0.502554,-0.00659053,0.00203634,0.000725307,0.00209689,-0.00665109,1.4875,0.00791078,643.56,-90.8073,23.668,0.464183,-0.153173,-0.17747,0.00676209,503,338,103.56,23.8072,252.231,156.557,150.182,120.526,0.000176938,0.000161614,0.0006187
-0.784265,14.3872,-295.996,3.90656,-1.08208,-0.494846,-0.00645488,0.00206604,0.000642016,0.00211415,-0.00650298,1.49601,0.0077786,643.337,-90.9761,25.0754,0.447606,-0.136249,-0.184239,0.00652069,510,338,103.465,23.693,253.875,157.206,151.901,121.323,0.00017056,0.000151772,0.000597295
-0.486506,14.3718,-295.922,3.90241,-1.0769,-0.487403,-0.00631705,0.00208851,0.000551959,0.0021246,-0.00635314,1.5055,0.0076403,643.107,-91.0437,26.5935,0.438291,-0.122931,-0.185702,0.00623848,517,338,103.366,23.5688,255.613,157.873,153.721,122.148,0.000162785,0.00014481,0.000573353
-0.187355,14.3564,-295.841,3.89824,-1.07156,-0.479161,-0.00619088,0.00210892,0.000458689,0.00213419,-0.00621615,1.51575,0.0075141,642.888,-91.1237,28.2816,0.435278,-0.115883,-0.182955,0.00592131,524,338,103.264,23.4424,257.448,158.531,155.629,122.967,0.000154938,0.000139826,0.000550021
0.111682,14.341,-295.76,3.89421,-1.06635,-0.470254,-0.00604474,0.00212141,0.000363334,0.00213754,-0.00606087,1.52642,0.00736605,642.578,-91.1728,30.1692,0.435616,-0.112489,-0.181952,0.00585462,531,338,103.161,23.319,259.296,159.195,157.539,123.788,0.000152749,0.000137963,0.00054448
0.410079,14.3257,-295.68,3.89045,-1.06103,-0.462492,-0.00590666,0.00212606,0.000262701,0.00213464,-0.00591524,1.53814,0.00722313,642.336,-91.2275,31.6912,0.443352,-0.116604,-0.171672,0.00589283,538,338,103.073,23.1949,261.114,159.847,159.421,124.604,0.000152985,0.000141392,0.000545156
0.707827,14.3101,-295.602,3.88672,-1.05578,-0.455337,-0.00579229,0.00212225,0.000160965,0.00212552,-0.00579556,1.55047,0.00710105,642.047,-91.441,33.214,0.453906,-0.126164,-0.148946,0.00577141,545,338,102.99,23.07,262.899,160.517,161.273,125.432,0.000150263,0.000135341,0.000532241
1.00493,14.2945,-295.525,3.88312,-1.05059,-0.447835,-0.00571899,0.00211395,5.81571e-05,0.00211438,-0.00571942,1.56337,0.00701964,641.839,-91.6696,34.5888,0.460421,-0.142759,-0.109945,0.00569843,552,338,102.907,22.9437,264.662,161.196,163.097,126.265,0.00014861,0.000133724,0.00052413
1.3023,14.2789,-295.445,3.87964,-1.04551,-0.440332,-0.0057119,0.0021042,-4.63636e-05,0.00210448,-0.00571218,-1.56486,0.00700564,641.548,-91.9294,35.8958,0.464878,-0.166707,-0.0517248,0.00567439,559,338,102.829,22.8172,266.453,161.876,164.944,127.094,0.000148063,0.00013338,0.000521995
1.59906,14.2636,-295.368,3.87623,-1.04049,-0.432015,-0.00580388,0.00209323,-0.000146879,0.00209596,-0.00580661,-1.55221,0.00709086,641.3,-91.946,37.1495,0.478193,-0.195631,0.0290443,0.00561841,566,338,102.748,22.6945,268.23,162.539,166.767,127.905,0.000146394,0.000133678,0.000514791
1.89459,14.2485,-295.293,3.87254,-1.03541,-0.42395,-0.00599302,0.00206984,-0.000243494,0.00207718,-0.00600037,-1.54063,0.00726519,641.112,-91.9048,37.9541,0.509182,-0.229716,0.144261,0.00572287,573,338,102.66,22.5747,269.932,163.192,168.525,128.713,0.000149426,0.000138611,0.00052383
0,0,0,0,0,0,0,0,0,0,0,0,0,0,0,0,0,0,0,-1,580,338,0,0,0,0,0,0,0,0,0
0,0,0,0,0,0,0,0,0,0,0,0,0,0,0,0,0,0,0,-1,587,338,0,0,0,0,0,0,0,0,0
0,0,0,0,0,0,0,0,0,0,0,0,0,0,0,0,0,0,0,-1,594,338,0,0,0,0,0,0,0,0,0
0,0,0,0,0,0,0,0,0,0,0,0,0,0,0,0,0,0,0,-1,601,338,0,0,0,0,0,0,0,0,0
0,0,0,0,0,0,0,0,0,0,0,0,0,0,0,0,0,0,0,-1,62,345,0,0,0,0,0,0,0,0,0
0,0,0,0,0,0,0,0,0,0,0,0,0,0,0,0,0,0,0,-1,69,345,0,0,0,0,0,0,0,0,0
0,0,0,0,0,0,0,0,0,0,0,0,0,0,0,0,0,0,0,-1,76,345,0,0,0,0,0,0,0,0,0
-18.357,14.9633,-297.327,4.08076,-1.23654,-0.762026,-0.00878239,0.000919476,0.0015466,0.00116006,-0.00902297,1.41648,0.00965541,643.737,-80.6131,-78.4377,0.180586,-0.421053,0.282233,0.00496155,83,345,107.716,27.268,186.254,116.329,77.567,75.0918,0.000131099,0.000125151,0.00046207
-18.0839,14.9509,-297.362,4.07828,-1.23678,-0.762634,-0.00865901,0.00083057,0.00159599,0.0010918,-0.00892024,1.40856,0.00951324,644.124,-80.8531,-76.3388,0.155566,-0.393548,0.186741,0.00495841,90,345,107.667,27.2771,186.599,117.037,78.0834,75.8183,0.000131181,0.000123888,0.00046369
-17.8087,14.9385,-297.391,4.07576,-1.23677,-0.762626,-0.00855777,0.000753988,0.00163689,0.00103335,-0.00883714,1.40176,0.00939652,644.594,-81.0668,-73.8438,0.146039,-0.366505,0.110741,0.00499203,97,345,107.615,27.2813,187.041,117.744,78.6925,76.5505,0.000132445,0.000121547,0.000469469
-17.5317,14.9259,-297.415,4.07341,-1.2366,-0.762211,-0.00847528,0.000692488,0.00166914,0.000986924,-0.00876972,1.39619,0.00930253,644.887,-81.2714,-71.4791,0.145924,-0.339648,0.0510691,0.00506495,104,345,107.565,27.2816,187.573,118.448,79.382,77.284,0.000133739,0.000120113,0.000474588
-17.253,14.9133,-297.433,4.07113,-1.23632,-0.761318,-0.00841322,0.000643232,0.0016952,0.00095014,-0.00872013,1.39169,0.00923195,645.05,-81.508,-69.7013,0.153337,-0.313827,0.00560866,0.0050308,111,345,107.516,27.2789,188.196,119.149,80.1553,78.0168,0.000132386,0.000119018,0.000471123
-16.9732,14.9006,-297.447,4.06888,-1.23593,-0.760177,-0.00837409,0.000602097,0.00171567,0.000918847,-0.00869084,1.38823,0.00918479,645.083,-81.7399,-68.1289,0.166966,-0.29016,-0.0286689,0.00500367,118,345,107.466,27.2737,188.871,119.855,80.9766,78.7568,0.000131589,0.000121942,0.000468018
-16.6925,14.8876,-297.459,4.06655,-1.23541,-0.758974,-0.00835861,0.000567563,0.00172806,0.000890428,-0.00868147,1.38609,0.00915921,645.076,-82.0026,-66.6772,0.186896,-0.270302,-0.0550238,0.0050051,125,345,107.415,27.2644,189.584,120.567,81.8363,79.5054,0.0001306,0.000127974,0.000463452
-16.4109,14.8746,-297.468,4.06426,-1.23482,-0.757522,-0.00837176,0.000539952,0.0017331,0.000865129,-0.00869694,1.38532,0.00916019,645.167,-82.2375,-65.2074,0.214107,-0.25592,-0.0742748,0.00528065,132,345,107.365,27.2535,190.338,121.279,82.7329,80.2554,0.000134008,0.000135673,0.000474871
-16.129,14.8616,-297.475,4.06202,-1.23418,-0.75573,-0.00840431,0.000515232,0.00173465,0.000840707,-0.00872979,1.38532,0.00917906,645.427,-82.4325,-63.5736,0.244591,-0.245861,-0.090198,0.00557871,139,345,107.314,27.2409,191.115,121.986,83.6476,81.001,0.000138963,0.000143907,0.000489174
-15.8474,14.8485,-297.484,4.05979,-1.23342,-0.754174,-0.00845693,0.000497173,0.00173577,0.00082188,-0.00878164,1.38587,0.00922009,645.575,-82.5655,-62.0101,0.271761,-0.242552,-0.0992041,0.00553228,146,345,107.265,27.2259,191.869,122.696,84.5392,81.754,0.000136614,0.00014195,0.000479528
-15.5657,14.8354,-297.492,4.05755,-1.23257,-0.752819,-0.00852488,0.000485444,0.00173731,0.000808816,-0.00884825,1.38677,0.00927914,645.71,-82.7354,-60.3693,0.293742,-0.2452,-0.103859,0.00535703,153,345,107.217,27.2089,192.62,123.403,85.4302,82.5065,0.000130801,0.000137057,0.000458273
-15.2842,14.8223,-297.5,4.05528,-1.23156,-0.751486,-0.00860154,0.000479989,0.00173714,0.000800932,-0.00892248,1.3881,0.00934871,645.752,-82.909,-58.6224,0.310639,-0.252368,-0.102719,0.00501452,160,345,107.169,27.1901,193.366,124.105,86.3152,83.2614,0.000121974,0.000128165,0.000425846
-15.0017,14.8088,-297.504,4.05303,-1.23039,-0.749221,-0.00868075,0.000480781,0.00173503,0.000798355,-0.00899833,1.38976,0.0094229,645.698,-83.1091,-56.6632,0.322195,-0.263103,-0.0977197,0.00473247,167,345,107.116,27.1649,194.16,124.817,87.2401,84.0273,0.000116999,0.000122662,0.000404961
-14.7179,14.7956,-297.505,4.05084,-1.22924,-0.746403,-0.00875873,0.000487008,0.00173365,0.000801391,-0.00907311,1.3914,0.00949919,645.65,-83.3418,-55.078,0.329271,-0.277753,-0.0936448,0.00452544,174,345,107.061,27.1388,195.023,125.519,88.2261,84.7809,0.000116998,0.000118957,0.000401973
-14.4338,14.7824,-297.504,4.04853,-1.22807,-0.743583,-0.00882822,0.000496066,0.00173494,0.000808419,-0.00914057,1.39267,0.00957043,645.728,-83.5793,-53.1334,0.332376,-0.295415,-0.0933567,0.00451127,181,345,107.005,27.1117,195.9,126.221,89.2286,85.5344,0.000121857,0.000118966,0.00041775
-14.1492,14.7692,-297.502,4.04593,-1.22669,-0.74077,-0.00888244,0.00051005,0.00174027,0.000822123,-0.00919451,1.39336,0.00963193,645.97,-83.8193,-50.8919,0.330458,-0.314719,-0.0972531,0.00470649,188,345,106.942,27.0811,196.792,126.914,90.2536,86.2861,0.000126556,0.000119184,0.000433955
-13.864,14.7558,-297.497,4.043,-1.22508,-0.738227,-0.0089211,0.000528303,0.0017468,0.000840875,-0.00923367,1.39373,0.00968154,646.131,-83.9939,-48.1774,0.328528,-0.331663,-0.105408,0.0047882,195,345,106.874,27.0449,197.701,127.606,91.3045,87.0423,0.000126447,0.000120724,0.000434884
-13.5785,14.7426,-297.491,4.03998,-1.22334,-0.735499,-0.00895456,0.000551972,0.00175367,0.000865153,-0.00926774,1.39407,0.00972921,646.263,-84.2131,-45.6042,0.331471,-0.346919,-0.117373,0.00489243,202,345,106.803,27.0071,198.625,128.284,92.3708,87.7911,0.000125471,0.000123384,0.0004336
-13.2929,14.7294,-297.484,4.03711,-1.22161,-0.732205,-0.0089845,0.000582373,0.00176042,0.000896027,-0.00929815,1.39448,0.00977701,646.176,-84.4851,-43.4021,0.340489,-0.358041,-0.134045,0.00498616,209,345,106.731,26.9685,199.56,128.962,93.4397,88.5375,0.000124325,0.000128367,0.000430841
-13.0076,14.7162,-297.478,4.03454,-1.21994,-0.728574,-0.00900819,0.00062196,0.00176575,0.000935512,-0.00932174,1.39505,0.00982296,646.031,-84.6176,-41.5825,0.356634,-0.363169,-0.154433,0.00516375,216,345,106.665,26.9304,200.486,129.646,94.4874,89.287,0.000124619,0.000134247,0.000432497
-12.7223,14.7028,-297.471,4.03212,-1.21822,-0.724916,-0.00902764,0.000669569,0.00177382,0.000983851,-0.00934192,1.39544,0.00987069,645.912,-84.7281,-40.1345,0.379603,-0.363674,-0.173527,0.00530276,223,345,106.603,26.8926,201.419,130.331,95.5366,90.0406,0.000127915,0.000137849,0.000443849
-12.4365,14.6893,-297.463,4.02972,-1.21638,-0.721094,-0.00903595,0.000720682,0.00178713,0.00103773,-0.009353,1.39522,0.00991269,645.909,-84.82,-38.3725,0.409224,-0.359963,-0.189496,0.00538115,230,345,106.541,26.8527,202.377,131.023,96.6073,90.8046,0.000131451,0.000139351,0.000456615
-12.1495,14.6754,-297.45,4.02707,-1.21428,-0.717395,-0.00902493,0.000773526,0.00180086,0.00109402,-0.00934542,1.39467,0.0099377,645.999,-84.9206,-36.7025,0.440393,-0.352063,-0.202047,0.0052204,237,345,106.476,26.8095,203.393,131.717,97.7428,91.5809,0.000130455,0.00013508,0.000453857
-11.8616,14.6617,-297.434,4.02429,-1.2121,-0.713364,-0.00898822,0.000827722,0.00181282,0.00115182,-0.00931231,1.39389,0.0099384,646.15,-85.1187,-35.0257,0.471669,-0.339725,-0.209438,0.0052582,244,345,106.406,26.761,204.45,132.405,98.9183,92.3499,0.000131072,0.000136021,0.000456187
-11.5736,14.6477,-297.417,4.02129,-1.20992,-0.709311,-0.00892259,0.000882441,0.00182232,0.00121017,-0.00925032,1.39285,0.00991098,646.257,-85.4126,-33.6121,0.501526,-0.321991,-0.210588,0.0054396,251,345,106.331,26.7088,205.506,133.111,100.099,93.1328,0.00013646,0.00014065,0.000474934
-11.285,14.6337,-297.398,4.01803,-1.20758,-0.705339,-0.0088293,0.000935856,0.00183033,0.00126765,-0.00916109,1.39147,0.00985625,646.334,-85.7416,-32.3026,0.524906,-0.299479,-0.201183,0.00549309,258,345,106.251,26.6535,206.585,133.806,101.309,93.9103,0.000144013,0.000140318,0.000500582
-10.9953,14.6198,-297.375,4.01489,-1.20505,-0.700763,-0.00870875,0.000986964,0.00183926,0.00132414,-0.00904593,1.38949,0.0097755,646.438,-86.0306,-31.2504,0.540921,-0.274704,-0.184521,0.00558599,265,345,106.171,26.596,207.73,134.494,102.575,94.6862,0.000149374,0.000136954,0.00051837
-10.7053,14.6061,-297.35,4.01186,-1.20235,-0.696128,-0.00856368,0.0010362,0.00184871,0.00137991,-0.00890739,1.38698,0.00967146,646.416,-86.199,-29.8027,0.546749,-0.248395,-0.164464,0.00556359,272,345,106.094,26.5338,208.9,135.159,103.861,95.4455,0.000149641,0.0001341,0.000518507
-10.414,14.5924,-297.321,4.00874,-1.19949,-0.691218,-0.00839872,0.00108232,0.00185873,0.0014337,-0.0087501,1.38396,0.00954803,646.406,-86.262,-28.1489,0.540377,-0.220788,-0.144299,0.00543977,279,345,106.014,26.4662,210.136,135.827,105.211,96.2087,0.000146551,0.000134719,0.000506923
-10.1221,14.5785,-297.289,4.00576,-1.19667,-0.686289,-0.00822417,0.00112647,0.00186848,0.00148601,-0.00858371,1.38069,0.00941508,646.273,-86.3484,-26.276,0.523279,-0.192961,-0.126325,0.0052874,286,345,105.94,26.3968,211.412,136.503,106.597,96.9767,0.000140131,0.00013811,0.000484481
-9.83046,14.5645,-297.258,4.00262,-1.19375,-0.681529,-0.00804457,0.00116631,0.00187514,0.00153342,-0.00841168,1.37747,0.00927396,646.15,-86.4323,-24.004,0.502328,-0.165729,-0.112917,0.00522543,293,345,105.862,26.3277,212.668,137.182,107.967,97.7532,0.000133858,0.000138202,0.000462277
-9.53628,14.5501,-297.218,3.99948,-1.1906,-0.676356,-0.00787637,0.00120332,0.00187928,0.00157692,-0.00824996,1.37456,0.00914101,645.96,-86.4693,-21.5712,0.489938,-0.142545,-0.10631,0.0050517,300,345,105.785,26.2568,214.064,137.867,109.471,98.5434,0.000129358,0.000133561,0.000447024
-9.24204,14.5356,-297.177,3.99652,-1.18734,-0.670891,-0.00774553,0.00124148,0.00188104,0.00161931,-0.00812336,1.37257,0.00904242,645.731,-86.4406,-19.583,0.489621,-0.124033,-0.106813,0.00493368,307,345,105.71,26.1847,215.473,138.556,110.98,99.3435,0.000132055,0.000127971,0.000456233
-8.94979,14.5211,-297.141,3.99375,-1.18427,-0.665318,-0.00765716,0.00128106,0.00187784,0.00165955,-0.00803565,1.37191,0.00898116,645.548,-86.4793,-17.713,0.492447,-0.113044,-0.1115,0.00496936,314,345,105.638,26.1179,216.785,139.25,112.386,100.143,0.00013369,0.000124428,0.000462238
-8.65866,14.5068,-297.109,3.99101,-1.18142,-0.659978,-0.00759768,0.00132058,0.00186445,0.00169467,-0.00797176,1.37278,0.00894038,645.422,-86.5635,-15.7732,0.493701,-0.11138,-0.11935,0.00503283,321,345,105.569,26.0519,218.038,139.943,113.734,100.932,0.000134848,0.00012429,0.000466814
-8.36848,14.4925,-297.08,3.98827,-1.17854,-0.654604,-0.00754259,0.0013599,0.00183459,0.00172315,-0.00790584,1.37533,0.0088935,645.247,-86.6791,-13.7809,0.49531,-0.116821,-0.131868,0.00512157,328,345,105.498,25.9844,219.243,140.635,115.035,101.72,0.000136441,0.000127401,0.000472813
-8.07798,14.4783,-297.049,3.98563,-1.17547,-0.649565,-0.00748649,0.00139937,0.00179075,0.00174668,-0.0078338,1.37923,0.00883756,645.11,-86.9088,-11.8815,0.500226,-0.129032,-0.145965,0.00519737,335,345,105.433,25.9144,220.468,141.31,116.353,102.498,0.000137769,0.000132979,0.000477608
-7.78745,14.4643,-297.017,3.98306,-1.17244,-0.644375,-0.0074386,0.00143614,0.00173947,0.0017649,-0.00776736,1.384,0.00878381,645.013,-87.1928,-10.126,0.506337,-0.146396,-0.15844,0.00535536,342,345,105.369,25.8444,221.701,141.982,117.676,103.271,0.000142152,0.000137232,0.00049282
-7.49669,14.4501,-296.984,3.9805,-1.16929,-0.63843,-0.00741527,0.00146904,0.0016837,0.00177743,-0.00772365,1.38965,0.00874884,645.035,-87.4811,-8.66538,0.512028,-0.167638,-0.168647,0.00546295,349,345,105.301,25.7714,222.955,142.661,119.011,104.055,0.000144777,0.000140358,0.000502014
-7.20528,14.4354,-296.948,3.97742,-1.16579,-0.632445,-0.00741935,0.00149986,0.00162351,0.00178618,-0.00770568,1.39623,0.0087368,645.196,-87.7194,-6.98245,0.516933,-0.190703,-0.175882,0.0055354,356,345,105.22,25.6932,224.231,143.348,120.382,104.859,0.000147214,0.000139789,0.000510719
-6.91064,14.4206,-296.9,3.97366,-1.16193,-0.626755,-0.00742734,0.00152924,0.00155598,0.00179185,-0.00768996,1.4036,0.00872499,645.337,-87.8706,-5.73438,0.519647,-0.213266,-0.180428,0.00540834,363,345,105.129,25.608,225.667,144.028,121.929,105.666,0.000144086,0.000134995,0.000499979
-6.6148,14.4059,-296.848,3.97,-1.15796,-0.620893,-0.00742448,0.00155538,0.00148311,0.00179399,-0.00766309,1.41128,0.00869993,645.264,-88.044,-4.84335,0.521367,-0.232483,-0.181723,0.00530868,370,345,105.04,25.5159,227.176,144.699,123.544,106.465,0.000140906,0.000134375,0.000488889
-6.31898,14.3913,-296.796,3.96673,-1.15435,-0.615118,-0.00741187,0.00158094,0.00140615,0.00179568,-0.00762661,1.41925,0.00866514,645.003,-88.1556,-4.30125,0.520993,-0.247894,-0.178644,0.00532101,377,345,104.963,25.4294,228.698,145.384,125.162,107.261,0.000140576,0.000135988,0.000487643
-6.02509,14.3769,-296.749,3.96424,-1.15112,-0.609041,-0.00740938,0.00160549,0.00133027,0.00179769,-0.00760158,1.42731,0.00864181,644.831,-88.2517,-3.04818,0.5208,-0.258516,-0.172009,0.00531724,384,345,104.901,25.3487,230.143,146.07,126.68,108.046,0.000139212,0.000136367,0.000483433
-5.73405,14.3632,-296.711,3.96222,-1.14814,-0.603034,-0.0074291,0.00162835,0.00126305,0.00180119,-0.00760193,1.4348,0.00864443,644.799,-88.3554,-1.31017,0.524865,-0.264703,-0.16649,0.00525187,391,345,104.85,25.2748,231.449,146.729,128.047,108.798,0.000135477,0.000135494,0.000471206
-5.44799,14.3497,-296.689,3.96041,-1.14525,-0.597315,-0.00746788,0.00164874,0.00120908,0.00180637,-0.00762551,1.44116,0.00867098,644.754,-88.4558,0.924408,0.534036,-0.267718,-0.163698,0.0052381,398,345,104.801,25.2058,232.488,147.378,129.147,109.543,0.00013254,0.000133197,0.000461891
-5.16365,14.3365,-296.673,3.95785,-1.14221,-0.591613,-0.00750525,0.00166607,0.00116614,0.00181202,-0.00765121,1.44629,0.00869991,644.731,-88.5984,3.39228,0.544859,-0.267958,-0.162968,0.0054396,405,345,104.732,25.134,233.413,148.006,130.154,110.273,0.000138511,0.000131551,0.000483497
-4.87724,14.3228,-296.649,3.9546,-1.13892,-0.585792,-0.00751567,0.00167957,0.00112983,0.00181636,-0.00765246,1.45031,0.00870396,644.569,-88.7444,5.47528,0.560402,-0.266893,-0.162848,0.00562765,412,345,104.647,25.0586,234.437,148.649,131.275,111.027,0.000145471,0.000129883,0.000508161
-4.58955,14.3087,-296.62,3.95132,-1.13558,-0.579274,-0.00750566,0.00168871,0.00110102,0.00181871,-0.00763567,1.45326,0.00868898,644.464,-88.9136,7.18099,0.588173,-0.263806,-0.162833,0.00557163,419,345,104.559,24.9797,235.538,149.31,132.467,111.796,0.000146225,0.00012872,0.000510354
-4.30075,14.2944,-296.587,3.948,-1.13206,-0.572484,-0.00748883,0.0016952,0.00108247,0.00182106,-0.00761469,1.45504,0.00866986,644.405,-89.1253,9.05502,0.622251,-0.25899,-0.162561,0.00552306,426,345,104.469,24.8966,236.706,149.977,133.721,112.576,0.000146639,0.000130632,0.000511502
-4.01031,14.2802,-296.547,3.9448,-1.12843,-0.565588,-0.00746872,0.00169962,0.00107345,0.00182362,-0.00759273,1.45579,0.00864994,644.263,-89.192,10.1402,0.647168,-0.253076,-0.159776,0.00533851,433,345,104.384,24.8125,237.974,150.636,135.07,113.353,0.000141503,0.000131814,0.000492805
-3.71769,14.2658,-296.499,3.94135,-1.12455,-0.559126,-0.00743265,0.00170632,0.00106356,0.00182846,-0.00755479,1.45646,0.00861579,644.239,-89.26,11.5958,0.654632,-0.247112,-0.155516,0.00540168,440,345,104.299,24.7186,239.358,151.295,136.542,114.132,0.000140803,0.000132318,0.000490603
-3.42245,14.251,-296.442,3.93777,-1.12021,-0.552333,-0.0073638,0.0017163,0.00104662,0.00183538,-0.00748288,1.45751,0.00854962,644.129,-89.308,13.2483,0.65089,-0.241465,-0.15182,0.005546,447,345,104.211,24.6148,240.893,151.966,138.163,114.937,0.000145835,0.000134043,0.000510583
-3.12573,14.236,-296.378,3.93414,-1.11554,-0.545173,-0.00726473,0.00173138,0.00102352,0.00184636,-0.00737971,1.45893,0.00845546,644.014,-89.4504,14.8531,0.640964,-0.23433,-0.150176,0.00557286,454,345,104.121,24.5032,242.521,152.628,139.872,115.741,0.000148294,0.000131249,0.000521798
-2.82862,14.2213,-296.313,3.93057,-1.11078,-0.537922,-0.00715584,0.00174788,0.0010007,0.00185897,-0.00726692,1.46024,0.00835302,643.831,-89.5946,16.2536,0.625228,-0.224263,-0.150861,0.00560961,461,345,104.033,24.39,244.181,153.279,141.61,116.538,0.00014801,0.000127349,0.000522019
-2.53397,14.2065,-296.255,3.92717,-1.10621,-0.531023,-0.00705156,0.00176566,0.000977046,0.00187263,-0.00715853,1.46175,0.0082557,643.795,-89.6456,17.5042,0.604456,-0.211568,-0.152335,0.00564157,468,345,103.95,24.2847,245.71,153.931,143.215,117.334,0.000148435,0.000126517,0.00052312
-2.24212,14.1918,-296.206,3.92403,-1.10214,-0.52407,-0.0069468,0.00178874,0.000943348,0.00188945,-0.00704751,1.46444,0.00815802,643.892,-89.7022,19.0163,0.575917,-0.195214,-0.154104,0.00582437,475,345,103.871,24.1862,247.092,154.603,144.668,118.131,0.000153735,0.000130994,0.000540097
-1.95181,14.1773,-296.161,3.9209,-1.0982,-0.517224,-0.00683529,0.00181833,0.000900149,0.00191097,-0.00692793,1.46824,0.00805525,643.994,-89.9315,20.6988,0.547772,-0.17598,-0.158989,0.00620886,482,345,103.792,24.093,248.392,155.265,146.039,118.916,0.000164108,0.000144485,0.000573586
-1.66131,14.1628,-296.115,3.9176,-1.09413,-0.51021,-0.00671323,0.00185654,0.000849932,0.00194002,-0.00679671,1.47289,0.00794637,643.721,-90.1307,22.0128,0.52345,-0.15531,-0.169706,0.0066708,489,345,103.708,23.997,249.705,155.923,147.426,119.702,0.0001765,0.000155729,0.000614021
-1.36887,14.1486,-296.062,3.9142,-1.09008,-0.502683,-0.00657955,0.00189896,0.000791351,0.00197219,-0.00665278,1.47852,0.00782749,643.446,-90.3764,23.2325,0.499317,-0.135594,-0.181886,0.00701397,496,345,103.621,23.8997,251.137,156.565,148.928,120.47,0.000184744,0.000163373,0.000643487
-1.07452,14.134,-296.001,3.91069,-1.08559,-0.494403,-0.00643504,0.00193961,0.000724655,0.00200185,-0.00649728,1.48512,0.00769601,643.124,-90.5406,24.399,0.475512,-0.118957,-0.191663,0.00694172,503,345,103.529,23.7897,252.69,157.216,150.544,121.255,0.000182719,0.000160078,0.000636302
-0.776615,14.1189,-295.927,3.90656,-1.0806,-0.486612,-0.006277,0.00197342,0.000650212,0.00202435,-0.00632792,1.49263,0.00754656,642.835,-90.7819,25.9599,0.454708,-0.106994,-0.195359,0.00657516,510,345,103.428,23.6719,254.435,157.874,152.368,122.065,0.000173019,0.000149897,0.000603456
-0.476697,14.1031,-295.844,3.90222,-1.07515,-0.47889,-0.00612097,0.00199898,0.000570614,0.00203889,-0.00616087,1.50098,0.00739424,642.633,-90.8853,27.6005,0.441754,-0.0988251,-0.193223,0.00620671,517,345,103.325,23.5405,256.299,158.56,154.314,122.912,0.000162657,0.000143862,0.000571117
-0.17551,14.0877,-295.756,3.89789,-1.06951,-0.470747,-0.00598058,0.00202073,0.000488664,0.00205046,-0.00601032,1.51002,0.00725619,642.404,-90.875,29.3772,0.435215,-0.0960662,-0.186779,0.00582597,524,345,103.222,23.4082,258.252,159.212,156.343,123.735,0.000152288,0.000138104,0.000539647
0.124239,14.0725,-295.672,3.89385,-1.06411,-0.462183,-0.00582045,0.00203632,0.000406283,0.00205727,-0.00584141,1.51927,0.0070973,642.059,-90.9188,31.2044,0.430604,-0.0970162,-0.18121,0.00576112,531,345,103.122,23.2806,260.144,159.861,158.298,124.547,0.000149829,0.000136086,0.000533176
0.422009,14.0574,-295.595,3.89035,-1.05888,-0.45412,-0.005678,0.00204226,0.000321767,0.00205565,-0.00569138,1.52921,0.00695105,641.871,-91.0272,32.8414,0.431207,-0.104126,-0.166649,0.00579118,538,345,103.038,23.1575,261.94,160.506,160.149,125.35,0.000150756,0.000139388,0.000535906
0.718657,14.0422,-295.52,3.88702,-1.05382,-0.446922,-0.00556955,0.00203793,0.000237769,0.00204536,-0.00557697,1.53958,0.00683323,641.543,-91.2293,34.0741,0.43281,-0.116782,-0.139544,0.00563649,545,345,102.964,23.0366,263.676,161.17,161.942,126.167,0.000146957,0.000131693,0.000518405
1.01483,14.0269,-295.446,3.8839,-1.04884,-0.439332,-0.00551357,0.00202693,0.000153232,0.00203004,-0.00551668,1.55049,0.00676416,641.284,-91.5175,35.2751,0.431888,-0.135959,-0.0974653,0.00567481,552,345,102.892,22.914,265.403,161.844,163.716,126.987,0.000147961,0.000131275,0.000520618
1.31145,14.0115,-295.369,3.88074,-1.04384,-0.432187,-0.00553665,0.00201148,6.71349e-05,0.00201208,-0.00553724,1.5619,0.00677133,640.898,-91.7317,36.387,0.433051,-0.161407,-0.0393308,0.00568166,559,345,102.824,22.7897,267.16,162.522,165.524,127.811,0.000147957,0.000131652,0.000520396
1.60816,13.9963,-295.291,3.8774,-1.03872,-0.424369,-0.00567404,0.00199114,-1.44946e-05,0.00199117,-0.00567407,-1.56891,0.00688897,640.604,-91.7013,37.5717,0.447364,-0.190636,0.0364813,0.00562292,566,345,102.748,22.6657,268.935,163.179,167.348,128.62,0.000146398,0.000133541,0.000513358
1.90425,13.9813,-295.215,3.87358,-1.03352,-0.416353,-0.0059229,0.00195817,-9.43715e-05,0.0019593,-0.00592403,-1.55882,0.00710915,640.412,-91.661,38.4033,0.482439,-0.223503,0.140949,0.00570705,573,345,102.658,22.5438,270.672,163.823,169.143,129.422,0.000149002,0.000138038,0.0005201
0,0,0,0,0,0,0,0,0,0,0,0,0,0,0,0,0,0,0,-1,580,345,0,0,0,0,0,0,0,0,0
0,0,0,0,0,0,0,0,0,0,0,0,0,0,0,0,0,0,0,-1,587,345,0,0,0,0,0,0,0,0,0
0,0,0,0,0,0,0,0,0,0,0,0,0,0,0,0,0,0,0,-1,594,345,0,0,0,0,0,0,0,0,0
0,0,0,0,0,0,0,0,0,0,0,0,0,0,0,0,0,0,0,-1,601,345,0,0,0,0,0,0,0,0,0
0,0,0,0,0,0,0,0,0,0,0,0,0,0,0,0,0,0,0,-1,62,352,0,0,0,0,0,0,0,0,0
0,0,0,0,0,0,0,0,0,0,0,0,0,0,0,0,0,0,0,-1,69,352,0,0,0,0,0,0,0,0,0
0,0,0,0,0,0,0,0,0,0,0,0,0,0,0,0,0,0,0,-1,76,352,0,0,0,0,0,0,0,0,0
-18.3879,14.6936,-297.381,4.08056,-1.23788,-0.756091,-0.00866994,0.000911549,0.00139547,0.00111065,-0.00886904,1.42908,0.00947332,643.792,-80.5968,-77.5614,0.213661,-0.398195,0.242593,0.00504791,83,352,107.643,27.2993,184.709,117.142,75.9928,75.9244,0.000131598,0.000127331,0.000468637
-18.114,14.6812,-297.415,4.07801,-1.23804,-0.756628,-0.00852561,0.00082086,0.00145178,0.00104117,-0.00874592,1.42019,0.00931027,644.148,-80.8401,-75.4803,0.200315,-0.368527,0.157105,0.00505128,90,352,107.592,27.3066,185.087,117.847,76.5433,76.6498,0.000132294,0.000126634,0.000473585
-17.8375,14.6688,-297.44,4.07546,-1.23796,-0.756706,-0.00840418,0.000742193,0.00149863,0.000981484,-0.00864347,1.41246,0.00917367,644.567,-81.0311,-73.0309,0.194503,-0.34144,0.088842,0.00511918,97,352,107.541,27.3088,185.59,118.548,77.214,77.3775,0.000133583,0.000125974,0.000479425
-17.5589,14.6561,-297.459,4.07311,-1.23776,-0.756348,-0.00830443,0.000676878,0.00153715,0.000932676,-0.00856023,1.4059,0.00906263,644.841,-81.1715,-70.7638,0.192829,-0.315648,0.0356775,0.00517914,104,352,107.494,27.3089,186.203,119.258,77.9838,78.1167,0.000133674,0.000123316,0.000479999
-17.2786,14.6434,-297.472,4.07087,-1.23742,-0.755421,-0.00822801,0.000621712,0.001571,0.000892322,-0.00849862,1.40022,0.0089781,644.982,-81.3917,-69.1349,0.196165,-0.291564,-0.00401738,0.00505848,111,352,107.447,27.3043,186.903,119.961,78.8321,78.8518,0.000130564,0.000120534,0.00046902
-16.9972,14.6305,-297.482,4.0687,-1.23692,-0.754185,-0.00817746,0.00057292,0.00160125,0.000856731,-0.00846127,1.39537,0.00892054,645.016,-81.6643,-67.7657,0.205121,-0.270112,-0.0331595,0.00492834,118,352,107.4,27.2964,187.66,120.666,79.7307,79.5934,0.000128185,0.000120915,0.000458922
-16.7153,14.6175,-297.49,4.06651,-1.23629,-0.752852,-0.00815374,0.00052941,0.0016256,0.000823766,-0.0084481,1.39166,0.00888866,645.029,-81.9495,-66.3677,0.220324,-0.252834,-0.0547539,0.00486492,125,352,107.353,27.2851,188.436,121.377,80.6482,80.3434,0.000126282,0.000124382,0.000449042
-16.4327,14.6044,-297.496,4.06437,-1.23555,-0.751338,-0.00816005,0.000491351,0.00164535,0.000793702,-0.0084624,1.38906,0.00888588,645.129,-82.2029,-64.7715,0.242238,-0.241052,-0.0697242,0.00506283,132,352,107.307,27.2715,189.246,122.082,81.5943,81.0916,0.000128291,0.000130206,0.000454649
-16.1501,14.5915,-297.502,4.06219,-1.23484,-0.7499,-0.00818491,0.000454703,0.00166377,0.000764029,-0.00849424,1.38698,0.00890088,645.394,-82.4201,-62.8533,0.267638,-0.23311,-0.0809329,0.0052364,139,352,107.261,27.2578,190.056,122.786,82.5423,81.8366,0.000131581,0.000134438,0.000462935
-15.868,14.5783,-297.509,4.06007,-1.23406,-0.748411,-0.00823294,0.00042456,0.00168276,0.000740136,-0.00854851,1.38541,0.00894158,645.579,-82.6246,-60.9372,0.289152,-0.231757,-0.0861305,0.00524522,146,352,107.215,27.2437,190.834,123.495,83.4556,82.5895,0.000130464,0.000132737,0.000456059
-15.5863,14.5653,-297.517,4.05796,-1.23323,-0.746848,-0.00829858,0.000400167,0.00170223,0.000721408,-0.00861982,1.38427,0.00900223,645.735,-82.8047,-59.2257,0.305166,-0.236299,-0.0880663,0.00511808,153,352,107.17,27.2272,191.592,124.197,84.348,83.3363,0.00012593,0.000129144,0.00043913
-15.3047,14.5522,-297.525,4.05583,-1.23225,-0.745284,-0.00837341,0.000381286,0.00171843,0.00070651,-0.00869863,1.38375,0.00907255,645.803,-82.9854,-57.3478,0.317605,-0.245762,-0.085419,0.00490786,160,352,107.123,27.208,192.344,124.895,85.234,84.0842,0.000120532,0.000124567,0.000419074
-15.0225,14.539,-297.531,4.05369,-1.2311,-0.743003,-0.00845202,0.000368599,0.00173043,0.000695928,-0.00877935,1.38384,0.00914719,645.738,-83.1946,-55.674,0.327691,-0.258713,-0.0796816,0.00473471,167,352,107.073,27.1837,193.126,125.598,86.143,84.8405,0.00011873,0.000122737,0.000410013
-14.7393,14.5259,-297.533,4.0515,-1.22995,-0.740545,-0.00853055,0.000361845,0.00174075,0.000690466,-0.00885917,1.38421,0.00922381,645.756,-83.3989,-53.9829,0.33519,-0.274978,-0.0751814,0.00459704,174,352,107.021,27.1585,193.962,126.293,87.1056,85.5881,0.000119247,0.000120893,0.000409815
-14.4552,14.5127,-297.532,4.04916,-1.22879,-0.737949,-0.00860074,0.000360023,0.00175049,0.000689843,-0.00893056,1.38456,0.0092947,645.826,-83.6474,-52.1271,0.339095,-0.29339,-0.0750152,0.00455196,181,352,106.965,27.1325,194.834,126.989,88.1051,86.3357,0.000123153,0.000120281,0.000422668
-14.1702,14.4995,-297.528,4.04645,-1.22742,-0.735416,-0.00865547,0.000364966,0.00176065,0.000696438,-0.00898694,1.38471,0.00935463,646.004,-83.8577,-50.0622,0.337651,-0.312391,-0.0803098,0.00475821,188,352,106.902,27.1026,195.737,127.681,89.146,87.0857,0.000128561,0.000121213,0.000441374
-13.8844,14.4861,-297.522,4.04346,-1.22576,-0.733024,-0.00869464,0.00037636,0.00176839,0.000708914,-0.0090272,1.38491,0.00940172,646.037,-83.9947,-47.5734,0.336151,-0.32864,-0.0909853,0.00486956,195,352,106.834,27.0666,196.674,128.371,90.2269,87.8421,0.000130333,0.000123627,0.000448347
-13.5982,14.4729,-297.514,4.0405,-1.2239,-0.730287,-0.00872911,0.000395189,0.0017727,0.000727493,-0.00906141,1.38549,0.00944619,646.081,-84.1254,-45.1666,0.339671,-0.342286,-0.106173,0.00497033,202,352,106.765,27.0285,197.635,129.043,91.3282,88.5903,0.000130521,0.000125673,0.000450814
-13.3119,14.4597,-297.505,4.03777,-1.22214,-0.72679,-0.00876252,0.00042277,0.00177322,0.000753202,-0.00909295,1.38656,0.00949199,645.977,-84.3139,-42.7935,0.348465,-0.351354,-0.126339,0.00499341,209,352,106.697,26.9886,198.608,129.724,92.4279,89.339,0.000128073,0.00012862,0.000443616
-13.026,14.4463,-297.497,4.03537,-1.22053,-0.722654,-0.0087939,0.000460763,0.00176968,0.000787618,-0.00912075,1.38816,0.00953898,645.87,-84.4589,-40.7701,0.362633,-0.35461,-0.149442,0.0051053,216,352,106.632,26.9494,199.577,130.417,93.5102,90.093,0.000125204,0.000132886,0.000434362
-12.74,14.4329,-297.488,4.03301,-1.21878,-0.71885,-0.00882497,0.000507192,0.00176814,0.000830966,-0.00914874,1.38969,0.00959126,645.81,-84.5836,-39.2184,0.382282,-0.353393,-0.170244,0.00515866,223,352,106.571,26.909,200.549,131.105,94.5949,90.8473,0.000125406,0.000134126,0.000435259
-12.4537,14.4194,-297.478,4.03066,-1.21686,-0.715085,-0.00884715,0.000557766,0.00177172,0.000880456,-0.00916984,1.39064,0.00964028,645.811,-84.6941,-37.6451,0.408014,-0.347819,-0.187423,0.00514282,230,352,106.512,26.8668,201.533,131.792,95.6913,91.6077,0.000126177,0.000133367,0.000438526
-12.1662,14.4057,-297.464,4.02816,-1.21474,-0.711328,-0.00885081,0.000610977,0.00177524,0.000933084,-0.00917292,1.3913,0.00967327,645.939,-84.8242,-36.084,0.435623,-0.338614,-0.201018,0.00501217,237,352,106.45,26.8212,202.574,132.482,96.846,92.378,0.000126859,0.000129736,0.00044112
-11.8788,14.3921,-297.449,4.02548,-1.21261,-0.707326,-0.00882783,0.000666215,0.0017768,0.000987844,-0.00914946,1.39172,0.00968126,646.07,-85.0416,-34.6177,0.464142,-0.325848,-0.20991,0.00509272,244,352,106.382,26.7744,203.609,133.163,97.9976,93.139,0.000129453,0.000131717,0.000450426
-11.5916,14.3783,-297.435,4.02258,-1.21054,-0.703241,-0.00877437,0.00072174,0.00177692,0.00104335,-0.00909598,1.39174,0.00966001,646.143,-85.3374,-33.1247,0.491234,-0.30905,-0.212511,0.00537347,251,352,106.309,26.727,204.624,133.856,99.1349,93.9078,0.000137806,0.000139068,0.000479118
-11.3036,14.3647,-297.418,4.01935,-1.20827,-0.699339,-0.00869361,0.00077555,0.00177657,0.00109789,-0.00901595,1.39131,0.00961204,646.291,-85.6419,-31.5273,0.511885,-0.288374,-0.2043,0.00561029,258,352,106.23,26.6758,205.674,134.538,100.315,94.6718,0.000148416,0.000142167,0.000515144
-11.0137,14.3509,-297.395,4.01606,-1.20577,-0.695033,-0.00858534,0.000826526,0.00177691,0.00115082,-0.00890964,1.39028,0.00953726,646.378,-85.9792,-30.5334,0.525443,-0.265687,-0.18822,0.00577681,265,352,106.148,26.6192,206.825,135.218,101.593,95.4398,0.000154056,0.000139633,0.000534252
-10.7223,14.3371,-297.366,4.01288,-1.203,-0.690405,-0.00845073,0.000874702,0.00177683,0.00120178,-0.00877781,1.38875,0.00943627,646.351,-86.1601,-29.0418,0.529579,-0.241704,-0.168528,0.00570177,272,352,106.07,26.5542,208.061,135.89,102.948,96.2047,0.000152919,0.00013837,0.000529542
-10.4299,14.3231,-297.333,4.00958,-1.19997,-0.685703,-0.0082946,0.000919106,0.00177644,0.00124975,-0.00862524,1.38678,0.00931321,646.264,-86.1992,-27.5384,0.523713,-0.216814,-0.149014,0.00552589,279,352,105.988,26.4816,209.351,136.566,104.359,96.9797,0.000148741,0.000137574,0.000514535
-10.1354,14.3091,-297.293,4.00632,-1.19688,-0.680984,-0.00812666,0.000960346,0.00177618,0.00129519,-0.0084615,1.38447,0.00917789,646.159,-86.2693,-25.4093,0.509583,-0.192056,-0.132188,0.00537514,286,352,105.911,26.4065,210.749,137.244,105.873,97.7567,0.000141496,0.000140893,0.000489275
-9.84046,14.2948,-297.251,4.00302,-1.19374,-0.675964,-0.00795045,0.000996825,0.00177394,0.0013357,-0.00828933,1.38204,0.00903156,645.929,-86.2877,-23.2353,0.492984,-0.168355,-0.119691,0.00531196,293,352,105.831,26.3326,212.179,137.927,107.417,98.5421,0.000129983,0.000139789,0.00044901
-9.54459,14.2804,-297.205,3.99994,-1.19048,-0.670272,-0.00777991,0.00103001,0.00176991,0.00137228,-0.00812219,1.37977,0.00888814,645.698,-86.3829,-21.0326,0.483613,-0.148324,-0.113269,0.00504453,300,352,105.753,26.26,213.67,138.616,109.01,99.3388,0.000125695,0.000133192,0.00043436
-9.25002,14.2659,-297.163,3.99716,-1.18723,-0.664435,-0.00763997,0.0010642,0.00176376,0.00140801,-0.00798378,1.37828,0.00877294,645.518,-86.4197,-19.033,0.483764,-0.132943,-0.112742,0.0049539,307,352,105.681,26.1886,215.106,139.299,110.536,100.133,0.00013297,0.000127497,0.000459357
-8.95715,14.2515,-297.126,3.99446,-1.18416,-0.658796,-0.00753878,0.00110075,0.00175367,0.00144314,-0.00788117,1.37798,0.00869305,645.307,-86.441,-17.1468,0.485831,-0.124051,-0.115667,0.005034,314,352,105.611,26.1216,216.455,139.99,111.976,100.928,0.000134996,0.000124286,0.000466993
-8.66528,14.2372,-297.091,3.99164,-1.18119,-0.653529,-0.00746629,0.00113926,0.00173539,0.00147604,-0.00780307,1.37911,0.00863622,645.143,-86.5157,-15.2637,0.487046,-0.122994,-0.122092,0.00513981,321,352,105.54,26.0532,217.745,140.678,113.364,101.715,0.000137211,0.00012415,0.00047526
-8.37396,14.2229,-297.058,3.98879,-1.1782,-0.648239,-0.00740033,0.00117882,0.00170316,0.00150457,-0.00772608,1.38182,0.0085779,644.917,-86.6675,-13.2421,0.489336,-0.127836,-0.133289,0.00519899,328,352,105.469,25.9834,219.009,141.368,114.725,102.504,0.000138291,0.000127494,0.000479378
-8.08217,14.2087,-297.023,3.98609,-1.17503,-0.642808,-0.00733554,0.0012184,0.00165949,0.00152906,-0.0076462,1.38573,0.00851434,644.772,-86.8899,-11.3618,0.4953,-0.138716,-0.145582,0.00518061,335,352,105.401,25.9106,220.306,142.043,116.113,103.284,0.000137871,0.000131699,0.000477891
-7.79024,14.1947,-296.986,3.98349,-1.17193,-0.637533,-0.00728109,0.00125482,0.0016107,0.00154864,-0.00757491,1.39036,0.00845626,644.739,-87.2042,-9.62347,0.502598,-0.154026,-0.155473,0.00524286,342,352,105.338,25.8384,221.615,142.717,117.511,104.059,0.000140109,0.000134194,0.000485471
-7.4986,14.1805,-296.95,3.98097,-1.16869,-0.631902,-0.00725398,0.00128724,0.00155974,0.00156315,-0.00752989,1.39571,0.00842099,644.724,-87.4077,-8.12101,0.508894,-0.172671,-0.162408,0.00525258,349,352,105.274,25.7648,222.917,143.387,118.895,104.836,0.000139789,0.000135221,0.000484463
-7.20732,14.1663,-296.914,3.9783,-1.16535,-0.625979,-0.00725585,0.00131741,0.00150591,0.00157423,-0.00751267,1.40188,0.00841101,644.783,-87.5877,-6.59245,0.51438,-0.192806,-0.166645,0.00526289,356,352,105.204,25.6897,224.199,144.059,120.262,105.62,0.000139959,0.000133204,0.000485455
-6.91496,14.1519,-296.875,3.97509,-1.16179,-0.620069,-0.00726273,0.00134603,0.00144692,0.00158271,-0.00749941,1.40865,0.0084033,644.899,-87.7621,-5.38111,0.517697,-0.212426,-0.168834,0.00522674,363,352,105.122,25.6091,225.529,144.732,121.688,106.41,0.000139222,0.000131226,0.000483176
-6.62083,14.1374,-296.828,3.97163,-1.15806,-0.614394,-0.00726202,0.00137142,0.00138416,0.00158791,-0.00747851,1.41565,0.00838599,644.796,-87.8919,-4.51601,0.519589,-0.228897,-0.168311,0.00517581,370,352,105.038,25.5217,226.95,145.403,123.213,107.2,0.000137852,0.000131248,0.000478244
-6.32636,14.1231,-296.78,3.96842,-1.1545,-0.608839,-0.00725633,0.00139558,0.00131812,0.00159194,-0.00745269,1.42291,0.00836308,644.657,-88.0837,-3.33953,0.519245,-0.241545,-0.164075,0.00522705,377,352,104.963,25.4355,228.4,146.078,124.759,107.985,0.000138519,0.00013343,0.000480334
-6.0329,14.1088,-296.735,3.96566,-1.15106,-0.603232,-0.00726461,0.00141845,0.00125397,0.00159592,-0.00744207,1.43021,0.00835514,644.516,-88.1255,-2.08789,0.519573,-0.249014,-0.15698,0.00531356,384,352,104.898,25.353,229.811,146.751,126.254,108.766,0.000139269,0.000135814,0.000483301
-5.74069,14.0948,-296.693,3.96332,-1.14792,-0.597104,-0.00729676,0.00143956,0.00119801,0.00160086,-0.00745806,1.43696,0.00837406,644.46,-88.2691,-0.451386,0.524174,-0.251801,-0.15115,0.00522726,391,352,104.839,25.2768,231.174,147.42,127.685,109.533,0.000135255,0.000136811,0.00046995
-5.45168,14.0808,-296.661,3.96125,-1.14486,-0.591114,-0.00734775,0.00145941,0.00115416,0.00160815,-0.00749648,1.44263,0.00841659,644.348,-88.3055,1.44696,0.53361,-0.251608,-0.148625,0.00524208,398,352,104.785,25.2059,232.371,148.087,128.945,110.301,0.000131516,0.000135207,0.000458185
-5.16542,14.0671,-296.638,3.95863,-1.14189,-0.585454,-0.00739809,0.00147847,0.00112039,0.0016177,-0.00753732,1.44716,0.00846293,644.334,-88.4353,3.76147,0.545705,-0.248997,-0.148982,0.00538487,405,352,104.717,25.1361,233.401,148.742,130.057,111.055,0.000136158,0.000133439,0.000475356
-4.87881,14.0534,-296.613,3.95551,-1.13875,-0.57915,-0.00742262,0.00149609,0.00109316,0.00162813,-0.00755465,1.4506,0.00848667,644.16,-88.5619,6.0178,0.562916,-0.244885,-0.151129,0.00546696,412,352,104.633,25.063,234.445,149.392,131.19,111.808,0.000140855,0.000131732,0.000491873
-4.59137,14.0397,-296.585,3.95231,-1.13537,-0.572414,-0.00742544,0.00151129,0.00107288,0.00163829,-0.00755244,1.45297,0.00849096,644.05,-88.7192,7.88575,0.590757,-0.238771,-0.153975,0.00539449,419,352,104.545,24.9847,235.539,150.035,132.371,112.562,0.000141292,0.000130422,0.000492776
-4.303,14.0257,-296.553,3.94906,-1.13185,-0.565432,-0.00741746,0.00152475,0.0010607,0.00164885,-0.00754156,1.45433,0.00848697,643.962,-88.8633,9.79024,0.621795,-0.231172,-0.155761,0.00533956,426,352,104.455,24.9013,236.688,150.689,133.604,113.33,0.000141939,0.000131117,0.000494324
-4.01305,14.0117,-296.515,3.94587,-1.1282,-0.558502,-0.00740149,0.00153877,0.00105426,0.00166141,-0.00752413,1.45499,0.00847783,643.793,-88.9348,10.9485,0.643487,-0.223483,-0.154524,0.00528335,433,352,104.37,24.8145,237.931,151.34,134.927,114.096,0.000139024,0.000131185,0.000483335
-3.72062,13.9975,-296.468,3.94247,-1.12424,-0.55223,-0.00736892,0.00155681,0.00104506,0.00167754,-0.00748964,1.45578,0.00845417,643.721,-88.9897,12.0912,0.650621,-0.215701,-0.152513,0.00544116,440,352,104.287,24.719,239.306,151.987,136.391,114.866,0.000141613,0.000130013,0.000493211
-3.42585,13.9829,-296.412,3.93902,-1.1199,-0.545372,-0.00730502,0.00157805,0.00102879,0.00169564,-0.00742261,1.45699,0.00839979,643.721,-89.1858,13.6189,0.649251,-0.207982,-0.151935,0.00547197,447,352,104.201,24.6138,240.822,152.648,137.987,115.659,0.000143968,0.000126814,0.000503408
-3.12947,13.9681,-296.35,3.93542,-1.11526,-0.538189,-0.00721074,0.00160207,0.00100719,0.00171571,-0.00732438,1.45844,0.00831605,643.707,-89.3582,15.1194,0.643107,-0.198919,-0.154003,0.00536827,454,352,104.112,24.5018,242.432,153.31,139.679,116.46,0.000142623,0.000123003,0.000500675
-2.83245,13.9533,-296.284,3.93177,-1.11047,-0.531102,-0.00710356,0.00162578,0.000985873,0.00173573,-0.00721352,1.45972,0.00822,643.605,-89.5755,16.6205,0.630189,-0.187753,-0.157698,0.00532529,461,352,104.023,24.3887,244.085,153.962,141.412,117.26,0.000140636,0.000119735,0.000495104
-2.5363,13.9386,-296.221,3.92818,-1.10587,-0.524279,-0.00699519,0.00165009,0.000962232,0.0017559,-0.007101,1.46128,0.00812256,643.555,-89.6803,18.043,0.611531,-0.175216,-0.161394,0.00537749,468,352,103.938,24.2807,245.695,154.618,143.102,118.057,0.000141579,0.000119534,0.000498223
-2.24226,13.924,-296.164,3.92478,-1.10148,-0.517389,-0.00688109,0.00167845,0.000928698,0.00177805,-0.0069807,1.46395,0.00801896,643.576,-89.716,19.5664,0.585774,-0.160524,-0.16501,0.00576715,475,352,103.855,24.1796,247.197,155.271,144.681,118.848,0.000152519,0.000128246,0.000535463
-1.95042,13.9095,-296.115,3.92145,-1.09732,-0.510448,-0.00675503,0.00171133,0.000887015,0.00180327,-0.00684696,1.46752,0.0079044,643.465,-89.8567,20.9145,0.560361,-0.144274,-0.171066,0.00626588,482,352,103.772,24.085,248.582,155.925,146.14,119.634,0.000165928,0.000142279,0.000579224
-1.6594,13.895,-296.067,3.9182,-1.09324,-0.502649,-0.00661277,0.00175092,0.00083913,0.00183428,-0.00669613,1.47178,0.00777723,643.163,-89.9678,22.3235,0.5368,-0.127929,-0.18128,0.00674077,489,352,103.685,23.9881,249.935,156.585,147.558,120.421,0.000178209,0.000152498,0.000619508
-1.36592,13.8809,-296.01,3.91472,-1.08902,-0.494727,-0.00645636,0.00179466,0.000784917,0.00186867,-0.00653037,1.47679,0.00763811,642.898,-90.2041,23.693,0.511023,-0.113452,-0.191558,0.00690399,496,352,103.594,23.8881,251.432,157.219,149.122,121.185,0.00018221,0.000157126,0.000633445
-1.07044,13.8661,-295.945,3.91103,-1.08443,-0.486109,-0.00629037,0.00183679,0.000726048,0.00190114,-0.00635472,1.48239,0.00748853,642.659,-90.4065,25.271,0.483757,-0.101906,-0.198342,0.00680407,503,352,103.496,23.7767,253.05,157.881,150.804,121.985,0.000179269,0.00015578,0.000622982
-0.77141,13.8509,-295.866,3.90674,-1.07938,-0.478096,-0.00611416,0.00187257,0.000662328,0.00192713,-0.00616871,1.48862,0.00732494,642.412,-90.5914,27.061,0.458838,-0.0949542,-0.198841,0.00644139,510,352,103.392,23.6548,254.861,158.546,152.695,122.799,0.000169788,0.000147702,0.00059115
-0.468429,13.835,-295.773,3.90208,-1.07346,-0.470246,-0.00594359,0.00190036,0.000594869,0.00194521,-0.00598845,1.49553,0.007162,642.172,-90.6857,28.751,0.442443,-0.0916051,-0.193526,0.00602043,517,352,103.283,23.5165,256.899,159.222,154.819,123.654,0.000158096,0.000138151,0.000554376
-0.164338,13.8197,-295.674,3.89759,-1.06739,-0.462208,-0.00579215,0.00192403,0.000525572,0.00195967,-0.00582779,1.5031,0.00701598,641.859,-90.7171,30.5192,0.433203,-0.0924938,-0.18428,0.00571968,524,352,103.18,23.3759,259.022,159.853,157.02,124.468,0.000148492,0.000133661,0.000524942
0.137097,13.8045,-295.584,3.89361,-1.06189,-0.453473,-0.00562274,0.0019431,0.000458082,0.00197073,-0.00565038,1.51054,0.00685171,641.532,-90.7961,32.0747,0.424819,-0.0970535,-0.175101,0.00561526,531,352,103.082,23.2433,261.02,160.508,159.077,125.285,0.000145745,0.000131571,0.000516505
0.434414,13.7894,-295.507,3.89025,-1.05677,-0.445367,-0.00547998,0.00195242,0.000391279,0.00197296,-0.00550053,1.51834,0.00670825,641.297,-90.8735,33.4421,0.41983,-0.106398,-0.157395,0.00561259,538,352,103.001,23.1206,262.798,161.165,160.905,126.095,0.000145927,0.000133708,0.000515896
0.729683,13.7744,-295.437,3.88735,-1.05193,-0.437996,-0.00537947,0.00195138,0.000325946,0.00196585,-0.00539394,1.52645,0.00660021,640.991,-91.1738,34.8684,0.41471,-0.120731,-0.127731,0.00559891,545,352,102.936,23.0027,264.471,161.827,162.623,126.901,0.000145787,0.000129742,0.000513321
1.02474,13.7595,-295.367,3.8845,-1.04702,-0.431004,-0.00534,0.00194311,0.000259931,0.00195237,-0.00534927,1.53517,0.00654754,640.661,-91.4066,36.1038,0.409468,-0.140386,-0.0851215,0.00566479,552,352,102.874,22.8831,266.139,162.484,164.337,127.704,0.000147253,0.000130168,0.000517139
1.32069,13.7443,-295.293,3.88153,-1.04202,-0.424299,-0.0053898,0.00192905,0.000192016,0.00193408,-0.00539483,1.54458,0.00657867,640.134,-91.547,37.0186,0.411048,-0.164564,-0.0300946,0.00565689,559,352,102.813,22.7605,267.862,163.158,166.11,128.524,0.000147158,0.000131642,0.000515513
1.61715,13.7291,-295.216,3.87831,-1.03679,-0.416719,-0.00556509,0.00190827,0.000127728,0.00191046,-0.00556728,1.55371,0.00672907,639.814,-91.4998,38.2468,0.429956,-0.190756,0.0378545,0.0056504,566,352,102.741,22.6361,269.628,163.816,167.922,129.339,0.000147291,0.00013541,0.000513799
1.91284,13.7144,-295.14,3.87446,-1.0316,-0.409124,-0.00585968,0.00187619,6.05595e-05,0.00187666,-0.00586015,1.56297,0.00699005,639.691,-91.4556,39.1651,0.4728,-0.218854,0.128913,0.00576187,573,352,102.653,22.5151,271.341,164.448,169.699,130.13,0.000149877,0.000140377,0.000520774
0,0,0,0,0,0,0,0,0,0,0,0,0,0,0,0,0,0,0,-1,580,352,0,0,0,0,0,0,0,0,0
0,0,0,0,0,0,0,0,0,0,0,0,0,0,0,0,0,0,0,-1,587,352,0,0,0,0,0,0,0,0,0
0,0,0,0,0,0,0,0,0,0,0,0,0,0,0,0,0,0,0,-1,594,352,0,0,0,0,0,0,0,0,0
0,0,0,0,0,0,0,0,0,0,0,0,0,0,0,0,0,0,0,-1,601,352,0,0,0,0,0,0,0,0,0
0,0,0,0,0,0,0,0,0,0,0,0,0,0,0,0,0,0,0,-1,62,359,0,0,0,0,0,0,0,0,0
0,0,0,0,0,0,0,0,0,0,0,0,0,0,0,0,0,0,0,-1,69,359,0,0,0,0,0,0,0,0,0
0,0,0,0,0,0,0,0,0,0,0,0,0,0,0,0,0,0,0,-1,76,359,0,0,0,0,0,0,0,0,0
-18.4184,14.4239,-297.435,4.08049,-1.23916,-0.750089,-0.00856684,0.000923167,0.0012501,0.00108508,-0.00872875,1.442,0.00931879,643.934,-80.4888,-76.7213,0.22941,-0.371859,0.193858,0.00514119,83,359,107.573,27.3282,183.188,117.951,74.4381,76.7534,0.00013427,0.000130288,0.000480966
-18.1437,14.4115,-297.466,4.0779,-1.23925,-0.750416,-0.00840644,0.000829364,0.00130975,0.00101151,-0.00858859,1.43261,0.00913644,644.205,-80.6955,-74.7344,0.228114,-0.341454,0.119985,0.00524542,90,359,107.52,27.3329,183.602,118.655,75.024,77.4782,0.000136846,0.000131391,0.000492964
-17.8662,14.3991,-297.489,4.07541,-1.23912,-0.75054,-0.00826822,0.000747008,0.00136085,0.000947951,-0.00846917,1.4242,0.00898074,644.527,-80.8821,-72.3447,0.226797,-0.315451,0.0610014,0.00530589,97,359,107.472,27.3334,184.156,119.347,75.7437,78.1974,0.000136173,0.000131427,0.000492683
-17.5864,14.3863,-297.504,4.07313,-1.23889,-0.750329,-0.00815369,0.000676025,0.00140528,0.000894286,-0.00837195,1.41671,0.00885304,644.802,-81.0301,-70.0108,0.224777,-0.291808,0.0156272,0.00525134,104,359,107.429,27.3345,184.826,120.056,76.5688,78.9373,0.000133661,0.000127231,0.000484223
-17.3048,14.3735,-297.514,4.07091,-1.23847,-0.749605,-0.00806481,0.000612901,0.00144732,0.000847927,-0.00829984,1.40981,0.00875465,644.944,-81.2911,-68.4138,0.225812,-0.270524,-0.0172328,0.00504695,111,359,107.385,27.3281,185.59,120.764,77.48,79.6788,0.000129339,0.000121809,0.000467859
-17.0222,14.3606,-297.52,4.06884,-1.23788,-0.748233,-0.00800446,0.000554423,0.00148787,0.000805697,-0.00825574,1.40349,0.00868665,644.992,-81.6027,-67.2625,0.232335,-0.252316,-0.0402833,0.00484242,118,359,107.341,27.3177,186.407,121.466,78.4346,80.4184,0.000125827,0.000118919,0.000452251
-16.7394,14.3477,-297.526,4.06677,-1.23719,-0.746749,-0.00797405,0.000500077,0.0015244,0.000765958,-0.00823993,1.39812,0.00864838,645.035,-81.9542,-65.9946,0.245181,-0.238462,-0.056311,0.00465036,125,359,107.297,27.3041,187.233,122.17,79.3973,81.1627,0.00012193,0.0001184,0.000434806
-16.4563,14.3347,-297.53,4.06476,-1.2364,-0.745101,-0.0079747,0.000450147,0.00155831,0.00072914,-0.0082537,1.39364,0.00864137,645.099,-82.1961,-64.4525,0.264155,-0.229974,-0.0663555,0.00481115,132,359,107.253,27.2895,188.074,122.871,80.3695,81.9071,0.000124461,0.000123424,0.000441344
-16.1733,14.3215,-297.535,4.06266,-1.23561,-0.743696,-0.00799264,0.000401045,0.0015918,0.000692778,-0.00828438,1.38954,0.00865159,645.312,-82.3934,-62.2969,0.286667,-0.224778,-0.0725042,0.00500667,139,359,107.21,27.2757,188.9,123.578,81.331,82.6581,0.000127369,0.000127025,0.000447966
-15.8909,14.3083,-297.541,4.06062,-1.23482,-0.742085,-0.00803513,0.000358466,0.0016266,0.00066266,-0.00833932,1.38592,0.00868963,645.48,-82.6092,-60.182,0.304893,-0.2259,-0.0736846,0.00507432,146,359,107.166,27.2627,189.698,124.287,82.2613,83.4126,0.000126994,0.000126995,0.000443344
-15.6089,14.2953,-297.548,4.05847,-1.23399,-0.740664,-0.00809585,0.000321559,0.00166169,0.000637721,-0.00841201,1.38278,0.00874832,645.638,-82.8583,-58.3654,0.317328,-0.232367,-0.0727933,0.0049874,153,359,107.121,27.2473,190.47,124.988,83.1685,84.1592,0.000124045,0.000124463,0.000431447
-15.3268,14.2823,-297.554,4.05637,-1.23305,-0.738952,-0.0081655,0.000290416,0.00169194,0.000616391,-0.00849148,1.38047,0.00881585,645.756,-83.0801,-56.4381,0.327019,-0.243676,-0.0689296,0.00487311,160,359,107.075,27.2278,191.248,125.685,84.0781,84.9031,0.000121962,0.000123495,0.00042267
-15.0442,14.2693,-297.559,4.05426,-1.23189,-0.736701,-0.00824026,0.000266043,0.00171569,0.000599053,-0.00857327,1.37908,0.00888795,645.797,-83.324,-54.7227,0.33623,-0.25782,-0.0629609,0.0047252,167,359,107.026,27.2033,192.048,126.373,85.0049,85.6443,0.000120148,0.000122145,0.000414529
-14.7608,14.2562,-297.561,4.05206,-1.2307,-0.734449,-0.00831629,0.000248614,0.00173533,0.000586851,-0.00865453,1.3783,0.00896237,645.899,-83.518,-52.8646,0.344003,-0.274267,-0.0586691,0.00462941,174,359,106.975,27.1784,192.887,127.061,85.9717,86.3864,0.000121288,0.000121138,0.000416808
-14.4764,14.2431,-297.56,4.04958,-1.2295,-0.732297,-0.00838423,0.000238176,0.00175142,0.000580351,-0.0087264,1.37786,0.00903058,645.947,-83.74,-51.0802,0.348255,-0.291759,-0.0592568,0.00463887,181,359,106.92,27.153,193.769,127.755,86.9878,87.1338,0.000124944,0.000120658,0.00042891
-14.1909,14.2298,-297.554,4.04684,-1.22808,-0.729973,-0.00843655,0.000236319,0.00176508,0.000581783,-0.00878201,1.37752,0.00908688,646.022,-83.9269,-49.1596,0.346751,-0.308738,-0.0664091,0.00482845,188,359,106.859,27.1234,194.698,128.447,88.057,87.8863,0.000131305,0.000123958,0.000450817
-13.9043,14.2163,-297.545,4.04398,-1.22633,-0.7275,-0.00847336,0.000242928,0.00177365,0.000590019,-0.00882045,1.37754,0.00912977,645.926,-84.0001,-46.9658,0.344945,-0.322523,-0.0798194,0.00495483,195,359,106.795,27.0871,195.679,129.136,89.1771,88.6463,0.000134415,0.000126523,0.000462009
-13.6173,14.203,-297.535,4.04121,-1.22443,-0.724557,-0.00850602,0.000258749,0.001776,0.000604944,-0.00885221,1.37828,0.00916966,645.935,-84.056,-44.5021,0.347926,-0.332998,-0.0981562,0.0050249,202,359,106.73,27.0478,196.682,129.811,90.3123,89.3965,0.000135029,0.000128047,0.000465801
-13.3304,14.1898,-297.524,4.03862,-1.22259,-0.721026,-0.00854028,0.000284835,0.00177175,0.000627249,-0.0088827,1.37989,0.00921235,645.756,-84.1225,-42.2084,0.355099,-0.338812,-0.12145,0.00496044,209,359,106.665,27.0058,197.694,130.489,91.4472,90.1443,0.000130846,0.000128243,0.000452904
-13.0438,14.1764,-297.514,4.03626,-1.22092,-0.716761,-0.00857676,0.000321938,0.00176145,0.000657921,-0.00891275,1.38232,0.00925925,645.736,-84.2552,-39.9492,0.365838,-0.339311,-0.146956,0.00498737,216,359,106.601,26.9645,198.697,131.183,92.5605,90.8993,0.000125248,0.000129746,0.000434678
-12.7572,14.1629,-297.504,4.03384,-1.21908,-0.712775,-0.00861632,0.000367133,0.00175237,0.000696862,-0.00894605,1.38481,0.00931405,645.759,-84.4536,-38.2357,0.381222,-0.335942,-0.169216,0.00495404,223,359,106.538,26.9213,199.698,131.872,93.6737,91.6567,0.00012244,0.000128786,0.000425715
-12.4704,14.1494,-297.492,4.0314,-1.21708,-0.708895,-0.00864863,0.000416494,0.00174769,0.000741764,-0.0089739,1.38679,0.00936684,645.812,-84.6353,-36.7739,0.403019,-0.328611,-0.18728,0.00491848,230,359,106.476,26.8768,200.708,132.557,94.797,92.4165,0.000121394,0.000127673,0.000422274
-12.1822,14.1357,-297.476,4.02888,-1.21497,-0.704949,-0.00866329,0.000468931,0.00174181,0.000789871,-0.00898423,1.38858,0.00940407,645.867,-84.7845,-35.6131,0.427541,-0.318482,-0.201388,0.0047829,237,359,106.413,26.8313,201.787,133.243,95.9886,93.1814,0.000123003,0.000123941,0.000427485
-11.8942,14.1223,-297.459,4.0263,-1.21285,-0.700828,-0.00865152,0.000523692,0.00173342,0.000840254,-0.00896808,1.39016,0.00941637,645.957,-84.9112,-34.2013,0.453633,-0.30588,-0.210996,0.00489957,244,359,106.348,26.7853,202.854,133.916,97.1682,93.9337,0.000127888,0.00012688,0.00044411
-11.607,14.1089,-297.445,4.02355,-1.2108,-0.696811,-0.00860908,0.000578495,0.00172431,0.000891449,-0.00892203,1.39125,0.00939951,646.055,-85.1772,-32.5704,0.478392,-0.290526,-0.2143,0.00521617,251,359,106.279,26.7405,203.878,134.593,98.3101,94.6874,0.000135998,0.000135181,0.000472038
-11.3211,14.0956,-297.435,4.02051,-1.20858,-0.69311,-0.0085398,0.000631493,0.00171543,0.00094185,-0.00885016,1.39181,0.00935671,646.146,-85.5166,-31.0734,0.497147,-0.272249,-0.206836,0.00547445,258,359,106.204,26.6911,204.819,135.256,99.3785,95.4324,0.000146618,0.000140418,0.000508259
-11.0322,14.0818,-297.415,4.01728,-1.20615,-0.688914,-0.00844247,0.00068141,0.00170727,0.000990413,-0.00875147,1.39174,0.00928638,646.229,-85.8498,-29.9818,0.509429,-0.25226,-0.191137,0.00581096,265,359,106.124,26.6346,205.92,135.941,100.607,96.2021,0.000155654,0.000140507,0.000538779
-10.7386,14.0678,-297.379,4.01381,-1.20336,-0.684612,-0.00831764,0.000727947,0.00169848,0.00103635,-0.00862605,1.39118,0.00918817,646.18,-86.0499,-28.5053,0.513428,-0.231214,-0.171774,0.00581255,272,359,106.043,26.5673,207.256,136.627,102.071,96.9786,0.000156217,0.000140071,0.000540047
-10.4427,14.0536,-297.335,4.01034,-1.20018,-0.679766,-0.00817116,0.00077016,0.0016894,0.00107871,-0.00847971,1.39015,0.00906731,646.075,-86.0766,-26.7459,0.509433,-0.209582,-0.152934,0.00555507,279,359,105.96,26.4902,208.723,137.308,103.659,97.7599,0.000149366,0.000138957,0.000516509
-10.1449,14.0391,-297.284,4.0068,-1.19676,-0.675134,-0.00801206,0.000808454,0.00168132,0.00111807,-0.00832168,1.38869,0.00893334,645.894,-86.0971,-24.745,0.498755,-0.188339,-0.137299,0.00541244,286,359,105.879,26.4103,210.289,138,105.348,98.5604,0.000142183,0.000141452,0.000491848
-9.84704,14.0245,-297.233,4.00336,-1.19336,-0.669978,-0.00784282,0.000841828,0.00167245,0.00115277,-0.00815376,1.38698,0.00878704,645.604,-86.1082,-22.6859,0.486311,-0.168407,-0.125753,0.00529076,293,359,105.798,26.3337,211.872,138.691,107.045,99.363,0.000128045,0.000138885,0.000442982
-9.5517,14.0102,-297.189,4.00058,-1.19019,-0.663802,-0.00767474,0.000871794,0.00166272,0.00118388,-0.00798683,1.38526,0.00863982,645.4,-86.253,-20.5249,0.479539,-0.151783,-0.119668,0.00499239,300,359,105.724,26.261,213.348,139.377,108.611,100.153,0.000126162,0.00013117,0.00043622
-9.25831,13.9962,-297.15,3.99806,-1.18709,-0.657901,-0.00753065,0.000902579,0.00165143,0.00121444,-0.0078425,1.38415,0.00851492,645.232,-86.3576,-18.4745,0.479606,-0.139429,-0.118579,0.00504536,307,359,105.657,26.1927,214.73,140.047,110.076,100.927,0.000136104,0.000126663,0.000470236
-8.96588,13.9821,-297.115,3.99544,-1.18413,-0.652457,-0.00742074,0.000936224,0.0016375,0.00124563,-0.00773014,1.38405,0.00842232,645.01,-86.3829,-16.4911,0.480595,-0.132552,-0.12054,0.00517511,314,359,105.59,26.1265,216.056,140.723,111.494,101.703,0.000139095,0.000124085,0.000481159
-8.674,13.968,-297.08,3.99275,-1.18118,-0.646789,-0.00733812,0.00097318,0.00161742,0.00127684,-0.00764179,1.38521,0.00835372,644.849,-86.4786,-14.4856,0.48134,-0.1321,-0.126321,0.00527414,321,359,105.52,26.0577,217.355,141.405,112.884,102.482,0.000141151,0.000124313,0.000488837
-8.38215,13.9538,-297.045,3.98983,-1.17812,-0.641499,-0.00726343,0.0010123,0.0015858,0.00130576,-0.0075569,1.38781,0.00828729,644.659,-86.6259,-12.3686,0.483469,-0.136511,-0.136953,0.00529057,328,359,105.448,25.9863,218.647,142.09,114.274,103.267,0.000141224,0.000127036,0.000489487
-8.08927,13.9396,-297.006,3.98696,-1.17489,-0.635945,-0.00719211,0.00105159,0.00154498,0.00133162,-0.00747215,1.39149,0.00821926,644.529,-86.8799,-10.6333,0.489253,-0.146226,-0.14831,0.00523838,335,359,105.376,25.9124,219.999,142.768,115.72,104.052,0.000140098,0.000129787,0.000485534
-7.79566,13.9253,-296.964,3.98414,-1.17151,-0.630741,-0.00713327,0.00108761,0.00150087,0.00135306,-0.00739871,1.39575,0.00815981,644.478,-87.1314,-9.31627,0.496609,-0.159632,-0.15655,0.00525177,342,359,105.309,25.8368,221.393,143.441,117.207,104.835,0.00014075,0.000130905,0.000487526
-7.50182,13.9111,-296.921,3.98146,-1.16813,-0.62543,-0.0071035,0.00111971,0.00145602,0.0013699,-0.0073537,1.40062,0.00812572,644.448,-87.3076,-7.90209,0.503034,-0.175709,-0.161136,0.00519497,349,359,105.246,25.7603,222.808,144.111,118.709,105.616,0.000138585,0.0001296,0.00047988
-7.20962,13.8971,-296.882,3.97897,-1.16482,-0.61972,-0.00710311,0.00114952,0.00140901,0.00138346,-0.00733705,1.40627,0.00811768,644.423,-87.4274,-6.40559,0.5089,-0.192891,-0.163101,0.00512255,356,359,105.184,25.6853,224.146,144.774,120.127,106.387,0.000136644,0.000127711,0.000473407
-6.9186,13.8832,-296.847,3.97631,-1.16152,-0.61384,-0.0071088,0.00117759,0.0013584,0.00139459,-0.0073258,1.41239,0.00811349,644.484,-87.6029,-4.99076,0.512847,-0.20951,-0.163476,0.00508023,363,359,105.115,25.6076,225.419,145.433,121.483,107.154,0.000135664,0.000126618,0.000470284
-6.62694,13.869,-296.809,3.97326,-1.1581,-0.607987,-0.00711021,0.00120254,0.00130524,0.00140266,-0.00731033,1.41866,0.00810323,644.392,-87.6846,-3.81678,0.515338,-0.223168,-0.161643,0.00512594,370,359,105.038,25.5256,226.72,146.103,122.877,107.931,0.000137038,0.000128277,0.000475036
-6.33359,13.8549,-296.764,3.97009,-1.15455,-0.602571,-0.00711069,0.00122569,0.00124946,0.00140893,-0.00729393,1.42518,0.00809093,644.241,-87.8745,-2.56723,0.515779,-0.23295,-0.156824,0.00520183,377,359,104.963,25.4403,228.11,146.766,124.364,108.706,0.000138225,0.000131207,0.000479158
-6.04066,13.8407,-296.72,3.96722,-1.15103,-0.596904,-0.00712772,0.00124719,0.00119594,0.00141462,-0.00729515,1.4317,0.0080957,644.147,-87.9643,-1.1512,0.517377,-0.237272,-0.14978,0.00524846,384,359,104.894,25.3563,229.491,147.435,125.83,109.485,0.000138212,0.000133985,0.000479477
-5.74824,13.8265,-296.678,3.96465,-1.14771,-0.590658,-0.0071696,0.00126674,0.00114977,0.00142063,-0.00732349,1.43774,0.00812747,644.149,-88.1107,0.546813,0.523346,-0.236872,-0.1438,0.00515995,391,359,104.829,25.279,230.86,148.107,127.273,110.263,0.000134449,0.000135765,0.000466906
-5.4579,13.8125,-296.642,3.96222,-1.1446,-0.584696,-0.00722998,0.00128596,0.00111424,0.00142934,-0.00737336,1.44282,0.0081822,644.008,-88.2241,2.09397,0.533659,-0.233762,-0.141525,0.00523404,398,359,104.768,25.2067,232.121,148.778,128.606,111.034,0.000131065,0.000136413,0.000456475
-5.16985,13.7986,-296.612,3.95946,-1.14154,-0.578838,-0.00729042,0.00130618,0.00108737,0.00144159,-0.00742583,1.44691,0.00824172,643.995,-88.3028,4.01449,0.5472,-0.228706,-0.142779,0.00533162,405,359,104.697,25.1359,233.248,149.438,129.816,111.796,0.000133823,0.000135979,0.000467048
-4.88241,13.7848,-296.585,3.95636,-1.13829,-0.572501,-0.00732672,0.00132718,0.00106646,0.00145667,-0.00745621,1.44997,0.00828119,643.843,-88.4279,6.17355,0.566062,-0.222325,-0.146708,0.00536424,412,359,104.614,25.0627,234.341,150.089,130.996,112.555,0.000137205,0.000134728,0.000478929
-4.59462,13.7711,-296.555,3.95324,-1.13483,-0.565628,-0.00734054,0.00134787,0.00105165,0.00147335,-0.00746602,1.45204,0.00830135,643.74,-88.535,8.28981,0.593451,-0.214062,-0.151694,0.00529305,419,359,104.528,24.9839,235.459,150.728,132.197,113.308,0.000138488,0.000132106,0.000482609
-4.30583,13.7572,-296.522,3.95008,-1.1313,-0.558607,-0.00734,0.00136831,0.00104272,0.00149143,-0.00746311,1.45327,0.00830982,643.582,-88.5853,10.1068,0.621105,-0.204617,-0.154882,0.00520264,426,359,104.441,24.9,236.636,151.379,133.454,114.072,0.000138475,0.000130186,0.000481592
-4.01522,13.7432,-296.482,3.94693,-1.12765,-0.551613,-0.00732711,0.00139151,0.00103646,0.00151303,-0.00744863,1.45408,0.00830911,643.42,-88.6433,11.4818,0.63967,-0.195629,-0.154795,0.00529727,433,359,104.357,24.8115,237.919,152.033,134.816,114.839,0.000140104,0.000128491,0.000487157
-3.72251,13.729,-296.434,3.94353,-1.12365,-0.545345,-0.00729727,0.00142,0.00102641,0.00153922,-0.00741649,1.45516,0.00829392,643.34,-88.7805,12.7772,0.646687,-0.186591,-0.154579,0.0054228,440,359,104.274,24.7148,239.312,152.682,136.296,115.61,0.000143346,0.000126529,0.000499788
-3.42826,13.7147,-296.379,3.94016,-1.11927,-0.538446,-0.00723825,0.00145169,0.00100982,0.00156749,-0.00735405,1.45662,0.00825024,643.398,-89.0433,14.1407,0.647761,-0.177506,-0.156536,0.00544403,447,359,104.19,24.6089,240.802,153.331,137.866,116.393,0.000144334,0.000124235,0.000504965
-3.13275,13.7002,-296.32,3.93666,-1.1147,-0.531235,-0.00714938,0.00148445,0.000988817,0.00159625,-0.00726118,1.45821,0.008177,643.466,-89.3477,15.6241,0.645149,-0.167359,-0.161338,0.00527184,454,359,104.102,24.4991,242.369,153.979,139.511,117.18,0.00013992,0.00012203,0.00049083
-2.83658,13.6856,-296.257,3.93308,-1.11007,-0.52402,-0.00704508,0.00151572,0.000968079,0.00162383,-0.00715319,1.45958,0.00808829,643.401,-89.5783,17.2273,0.634635,-0.156048,-0.166729,0.00518877,461,359,104.014,24.3893,243.978,154.633,141.198,117.975,0.000136972,0.000120393,0.000481725
-2.54071,13.6708,-296.195,3.92953,-1.10552,-0.517073,-0.00693438,0.00154654,0.000944215,0.00165039,-0.00703823,1.46125,0.00799226,643.325,-89.7481,18.6886,0.61743,-0.144529,-0.171179,0.0052462,468,359,103.928,24.2819,245.575,155.292,142.874,118.773,0.000138616,0.000119289,0.000487599
-2.24558,13.6562,-296.134,3.92596,-1.10108,-0.510298,-0.00681298,0.00157947,0.000911154,0.00167725,-0.00691076,1.46389,0.00788435,643.164,-89.8461,20.1788,0.593872,-0.132266,-0.17519,0.00560227,475,359,103.843,24.1774,247.135,155.949,144.514,119.566,0.000148317,0.000125446,0.000520796
-1.95161,13.6418,-296.077,3.92249,-1.09662,-0.503065,-0.00667471,0.00161466,0.000871475,0.00170529,-0.00676534,1.46717,0.00775981,642.856,-89.8832,21.2527,0.570397,-0.119866,-0.181092,0.0060525,482,359,103.757,24.0773,248.643,156.591,146.096,120.349,0.000160238,0.000137095,0.000559975
-1.65753,13.6274,-296.018,3.91901,-1.0923,-0.495044,-0.00651543,0.0016543,0.000826744,0.00173712,-0.00659825,1.47095,0.00761686,642.606,-89.9184,22.751,0.546828,-0.108601,-0.18971,0.00647946,489,359,103.666,23.9762,250.17,157.24,147.689,121.133,0.000171315,0.000146238,0.000597333
-1.3633,13.6129,-295.959,3.91535,-1.08784,-0.486955,-0.00634056,0.00169736,0.00077819,0.00177201,-0.00641521,1.47516,0.00746074,642.356,-90.1002,24.2141,0.519155,-0.0999609,-0.1975,0.00687723,496,359,103.571,23.8704,251.709,157.888,149.297,121.916,0.000181363,0.000155029,0.000633379
-1.06654,13.5979,-295.889,3.91147,-1.08318,-0.478257,-0.00615751,0.00173878,0.000728386,0.00180541,-0.00622414,1.47958,0.00729634,642.126,-90.2967,26.0217,0.488637,-0.0939799,-0.200996,0.00688698,503,359,103.469,23.7567,253.398,158.565,151.054,122.731,0.000181303,0.000154062,0.000633945
-0.76607,13.5827,-295.805,3.90699,-1.07773,-0.470253,-0.00596685,0.00177483,0.000676355,0.00183348,-0.0060255,1.4843,0.00712151,641.933,-90.4889,27.9953,0.459929,-0.0922289,-0.198339,0.00634333,510,359,103.361,23.6262,255.291,159.222,153.029,123.55,0.000167393,0.000141505,0.000585433
-0.461224,13.5669,-295.705,3.9021,-1.07144,-0.462219,-0.00578476,0.00180426,0.000621518,0.00185482,-0.00583532,1.48962,0.00695089,641.573,-90.5788,29.5469,0.440334,-0.0935856,-0.190486,0.00582693,517,359,103.248,23.4824,257.437,159.877,155.265,124.396,0.000152777,0.000132807,0.000536071
-0.155763,13.552,-295.601,3.89754,-1.06544,-0.453905,-0.00562457,0.00183034,0.000564984,0.00187291,-0.00566714,1.49558,0.00679988,641.179,-90.6584,31.0974,0.42911,-0.0981055,-0.179398,0.00566119,524,359,103.143,23.3436,259.645,160.501,157.548,125.2,0.000147428,0.000131229,0.000519668
0.146226,13.5367,-295.508,3.89366,-1.05986,-0.445073,-0.0054494,0.00185341,0.00051265,0.00188922,-0.00548521,1.50105,0.00663472,640.887,-90.7215,32.3625,0.417958,-0.106102,-0.167653,0.00555665,531,359,103.048,23.2096,261.683,161.16,159.64,126.022,0.000145238,0.000127638,0.000512798
0.444363,13.5215,-295.429,3.89039,-1.05487,-0.436912,-0.00530856,0.00186823,0.000462994,0.00189798,-0.00533831,1.50664,0.0064986,640.715,-90.7999,33.7778,0.409028,-0.117568,-0.148123,0.00550804,538,359,102.97,23.0874,263.516,161.833,161.52,126.841,0.000144049,0.000127178,0.00050741
0.739067,13.5066,-295.361,3.88766,-1.05006,-0.429589,-0.00521604,0.00187417,0.000414858,0.00189836,-0.00524023,1.51255,0.00640403,640.419,-91.0088,35.4379,0.399713,-0.133026,-0.117771,0.00551786,545,359,102.909,22.9705,265.164,162.495,163.209,127.646,0.000144026,0.000127075,0.000505959
1.03347,13.4919,-295.293,3.88505,-1.04516,-0.422604,-0.00519046,0.00187369,0.0003651,0.00189251,-0.00520928,1.5193,0.00637,639.976,-91.1646,36.7699,0.393373,-0.152198,-0.0770702,0.0056019,552,359,102.853,22.8514,266.804,163.146,164.888,128.442,0.000145569,0.000129082,0.000510139
1.32853,13.4769,-295.221,3.88219,-1.04012,-0.416346,-0.00526134,0.00186745,0.000312321,0.00188111,-0.005275,1.5271,0.0064255,639.502,-91.3072,37.9828,0.398914,-0.173803,-0.0279734,0.00562297,559,359,102.797,22.7312,268.478,163.804,166.614,129.252,0.000145927,0.000132103,0.000510097
1.62362,13.4621,-295.149,3.87899,-1.035,-0.409093,-0.00546464,0.0018544,0.000260964,0.0018637,-0.00547393,1.5352,0.00660599,639.148,-91.2488,39.0426,0.425735,-0.195456,0.0294627,0.00573398,566,359,102.726,22.611,270.164,164.448,168.349,130.051,0.000148812,0.000137246,0.000517954
1.91692,13.4478,-295.082,3.87531,-1.03011,-0.401585,-0.00579018,0.00183252,0.000201163,0.00183783,-0.00579548,1.54443,0.00690046,639.091,-91.1953,40.1705,0.478943,-0.2171,0.104699,0.0058635,573,359,102.64,22.4957,271.742,165.074,169.989,130.826,0.000152158,0.0001427,0.000527326
0,0,0,0,0,0,0,0,0,0,0,0,0,0,0,0,0,0,0,-1,580,359,0,0,0,0,0,0,0,0,0
0,0,0,0,0,0,0,0,0,0,0,0,0,0,0,0,0,0,0,-1,587,359,0,0,0,0,0,0,0,0,0
0,0,0,0,0,0,0,0,0,0,0,0,0,0,0,0,0,0,0,-1,594,359,0,0,0,0,0,0,0,0,0
0,0,0,0,0,0,0,0,0,0,0,0,0,0,0,0,0,0,0,-1,601,359,0,0,0,0,0,0,0,0,0
0,0,0,0,0,0,0,0,0,0,0,0,0,0,0,0,0,0,0,-1,62,366,0,0,0,0,0,0,0,0,0
0,0,0,0,0,0,0,0,0,0,0,0,0,0,0,0,0,0,0,-1,69,366,0,0,0,0,0,0,0,0,0
0,0,0,0,0,0,0,0,0,0,0,0,0,0,0,0,0,0,0,-1,76,366,0,0,0,0,0,0,0,0,0
-18.4474,14.1541,-297.484,4.08055,-1.24042,-0.74396,-0.00845016,0.000945726,0.00111327,0.00107583,-0.00858026,1.45446,0.00916565,644.077,-80.3808,-75.9938,0.241547,-0.344028,0.143392,0.00541976,83,366,107.506,27.3573,181.743,118.759,72.9545,77.581,0.000138922,0.000137309,0.000499154
-18.1718,14.1417,-297.513,4.07799,-1.24038,-0.744191,-0.00828146,0.00084691,0.00117818,0.000996524,-0.00843107,1.44449,0.00897094,644.208,-80.5645,-74.3041,0.251484,-0.315008,0.0813259,0.00557178,90,366,107.455,27.3604,182.203,119.456,73.5841,78.3043,0.000143767,0.000139805,0.000519552
-17.8935,14.1293,-297.533,4.07564,-1.24023,-0.744355,-0.00813247,0.000759458,0.00123491,0.000927777,-0.00830078,1.43533,0.00880142,644.495,-80.7449,-71.8957,0.254073,-0.29163,0.0311137,0.00556435,97,366,107.411,27.3598,182.798,120.148,74.3406,79.0224,0.000142263,0.000139332,0.000516606
-17.6132,14.1165,-297.547,4.07348,-1.24004,-0.744192,-0.00800774,0.000681769,0.00128618,0.000868145,-0.00819411,1.42689,0.00866088,644.798,-80.9083,-69.4678,0.251232,-0.271116,-0.00731542,0.00539502,104,366,107.372,27.361,183.495,120.86,75.1888,79.7623,0.000137873,0.000133506,0.000501334
-17.3313,14.1036,-297.556,4.07129,-1.23961,-0.743537,-0.00790979,0.000609891,0.00133686,0.000814737,-0.00811463,1.41875,0.00855116,645.004,-81.2205,-67.7022,0.249551,-0.253157,-0.0342096,0.00506852,111,366,107.33,27.3538,184.271,121.567,76.1127,80.5026,0.000131168,0.000125117,0.00047661
-17.0482,14.0907,-297.561,4.06925,-1.23897,-0.742076,-0.00784154,0.000541062,0.0013876,0.000764786,-0.00806526,1.41094,0.00847358,645.088,-81.6017,-66.5896,0.253541,-0.23834,-0.0518992,0.00473559,118,366,107.287,27.3424,185.113,122.269,77.09,81.2435,0.000125215,0.000117753,0.000451312
-16.7647,14.0778,-297.565,4.06726,-1.23817,-0.740384,-0.00780474,0.000475265,0.00143552,0.000717082,-0.00804656,1.40391,0.00842801,645.115,-82.041,-65.4707,0.264308,-0.227802,-0.0628722,0.00449663,125,366,107.243,27.3272,185.977,122.961,78.0852,81.9789,0.000119694,0.000113172,0.000426752
-16.4809,14.0651,-297.567,4.06532,-1.2373,-0.73862,-0.00779911,0.000412999,0.00148201,0.000672265,-0.00805838,1.39761,0.00841468,645.122,-82.3089,-64.0085,0.281063,-0.222456,-0.0681852,0.00458012,132,366,107.201,27.3107,186.854,123.648,79.0906,82.7114,0.000122063,0.000116668,0.000431857
-16.1975,14.052,-297.571,4.0632,-1.23649,-0.73739,-0.00781,0.000351425,0.00152836,0.000628248,-0.00808682,1.39162,0.00841854,645.254,-82.4432,-61.784,0.301731,-0.21989,-0.0694982,0.00495377,139,366,107.159,27.296,187.701,124.349,80.0745,83.4557,0.00013001,0.000125881,0.00045252
-15.9146,14.0388,-297.576,4.06101,-1.23571,-0.736261,-0.00784594,0.000296363,0.00157618,0.00059083,-0.00814041,1.3861,0.00845133,645.361,-82.6247,-59.6121,0.318052,-0.223348,-0.0667411,0.00536031,146,366,107.116,27.282,188.514,125.061,81.027,84.2119,0.000139373,0.000135469,0.000477409
-15.632,14.0255,-297.581,4.05884,-1.23489,-0.734889,-0.00790019,0.00024681,0.00162373,0.000558503,-0.00821188,1.38114,0.0085049,645.463,-82.8686,-57.6985,0.328476,-0.231305,-0.0629298,0.00548891,153,366,107.072,27.2664,189.311,125.771,81.9602,84.9657,0.00014172,0.000139737,0.000482136
-15.3492,14.0123,-297.585,4.05677,-1.23391,-0.733002,-0.00796311,0.000203409,0.00166513,0.000529873,-0.00828958,1.37719,0.00856681,645.622,-83.1352,-55.6367,0.336622,-0.243724,-0.0576082,0.00524522,160,366,107.026,27.246,190.125,126.475,82.903,85.717,0.00013565,0.000135373,0.000463096
-15.0657,13.9994,-297.587,4.05466,-1.23269,-0.730685,-0.00803254,0.000167433,0.00169815,0.000505194,-0.0083703,1.37446,0.00863399,645.734,-83.4085,-53.8268,0.345519,-0.258348,-0.0512308,0.00485094,167,366,106.977,27.2215,190.973,127.158,83.8762,86.4557,0.000125795,0.00012653,0.000432321
-14.7818,13.9864,-297.588,4.05241,-1.23142,-0.728564,-0.00810494,0.000139231,0.00172495,0.000485596,-0.0084513,1.37263,0.00870426,645.916,-83.5922,-51.9072,0.353822,-0.274402,-0.0469044,0.00462667,174,366,106.927,27.1963,191.835,127.837,84.8671,87.1922,0.00012283,0.000120647,0.000423154
-14.4969,13.9733,-297.585,4.0499,-1.23012,-0.72659,-0.00817031,0.000120166,0.00174554,0.000472696,-0.00852284,1.37152,0.00876875,646.021,-83.7939,-50.0014,0.35846,-0.290475,-0.0479518,0.00474492,181,366,106.873,27.1704,192.738,128.522,85.9066,87.9343,0.000127474,0.000121255,0.000438447
-14.211,13.9601,-297.579,4.04723,-1.22861,-0.724462,-0.00822081,0.000111652,0.0017612,0.000468618,-0.00857777,1.37082,0.00882142,646.04,-83.938,-48.109,0.35675,-0.305095,-0.0566004,0.00499911,188,366,106.815,27.1402,193.686,129.208,86.9936,88.6839,0.000134879,0.000125639,0.00046324
-13.924,13.9466,-297.568,4.04461,-1.22684,-0.721683,-0.00825631,0.000113899,0.00176957,0.000472633,-0.00861504,1.37078,0.00886081,645.884,-83.9558,-46.1035,0.35419,-0.316171,-0.0724108,0.00511563,195,366,106.755,27.104,194.695,129.898,88.1324,89.4457,0.000137785,0.000127497,0.00047351
-13.6367,13.9331,-297.557,4.04199,-1.22496,-0.718702,-0.00828816,0.000127452,0.00176956,0.0004844,-0.00864511,1.37175,0.00889721,645.774,-83.9226,-43.7292,0.355954,-0.323327,-0.093659,0.00514761,202,366,106.694,27.0648,195.721,130.581,89.2862,90.2022,0.000138489,0.000128619,0.000477045
-13.3491,13.9199,-297.544,4.03958,-1.22303,-0.714854,-0.00832353,0.000152833,0.00176079,0.000504047,-0.00867474,1.37392,0.00893743,645.636,-83.9593,-41.3501,0.361043,-0.325841,-0.119931,0.00496746,209,366,106.633,27.0205,196.773,131.256,90.4524,90.9481,0.000133793,0.000126606,0.000462793
-13.0617,13.9065,-297.532,4.03717,-1.2212,-0.710648,-0.0083643,0.000189762,0.00174451,0.000531856,-0.00870639,1.37716,0.00898414,645.703,-84.124,-38.9912,0.368055,-0.323723,-0.147809,0.00486964,216,366,106.569,26.9745,197.817,131.947,91.6078,91.7041,0.000127116,0.000126361,0.000441171
-12.774,13.8929,-297.518,4.03462,-1.21924,-0.706548,-0.00841042,0.00023438,0.00172895,0.000567346,-0.00874338,1.38054,0.00904042,645.789,-84.2977,-37.1996,0.37886,-0.318377,-0.171635,0.00481111,223,366,106.503,26.9285,198.868,132.637,92.7729,92.4652,0.000123195,0.000124937,0.000428622
-12.486,13.8794,-297.502,4.03201,-1.21717,-0.702649,-0.00844998,0.000283,0.00171705,0.00060847,-0.00877545,1.38347,0.00909496,645.837,-84.5021,-35.8403,0.396546,-0.309503,-0.190779,0.00477355,230,366,106.437,26.8816,199.937,133.32,93.9589,93.2245,0.000121165,0.000123939,0.000421328
-12.1965,13.8658,-297.482,4.0294,-1.21502,-0.698469,-0.00847236,0.000334714,0.00170297,0.000652538,-0.00879018,1.38629,0.00913395,645.799,-84.7093,-34.7878,0.417914,-0.298584,-0.205521,0.00467719,237,366,106.372,26.8355,201.082,134,95.2166,93.9829,0.000121666,0.000120256,0.000422094
-11.9074,13.8525,-297.462,4.02678,-1.21285,-0.694335,-0.00846896,0.000388453,0.00168611,0.000698566,-0.00877907,1.38891,0.00914838,645.792,-84.8354,-33.4225,0.441602,-0.286139,-0.215831,0.00481401,244,366,106.307,26.7886,202.206,134.665,96.4531,94.7283,0.000126796,0.000123282,0.000438991
-11.6197,13.8393,-297.447,4.0242,-1.21069,-0.690029,-0.00843562,0.000441875,0.00166943,0.000745433,-0.00873918,1.39093,0.00913473,645.839,-84.9992,-31.7973,0.464232,-0.272124,-0.219789,0.00507081,251,366,106.241,26.7425,203.259,135.325,97.6159,95.4686,0.000133924,0.000131084,0.000463189
-11.332,13.826,-297.431,4.0213,-1.20842,-0.686248,-0.00837665,0.00049318,0.00165385,0.000791519,-0.00867499,1.39232,0.00909661,645.888,-85.2913,-30.4165,0.481599,-0.256019,-0.213063,0.00524787,258,366,106.171,26.6935,204.303,135.988,98.7821,96.2143,0.000141383,0.000135354,0.000488626
-11.0423,13.8123,-297.408,4.01813,-1.20604,-0.682209,-0.0082897,0.000540881,0.00163953,0.000835459,-0.00858427,1.39302,0.00903103,645.988,-85.6572,-29.2027,0.493433,-0.238365,-0.197748,0.00547655,265,366,106.095,26.6378,205.442,136.669,100.047,96.9775,0.000147573,0.000136564,0.000509785
-10.7479,13.7983,-297.369,4.01459,-1.20334,-0.677994,-0.00817513,0.000584577,0.00162491,0.00087628,-0.00846684,1.39317,0.00893725,645.943,-85.8911,-27.6698,0.498221,-0.219818,-0.178662,0.00564154,272,366,106.013,26.5706,206.824,137.363,101.56,97.7563,0.000151871,0.000138397,0.000524378
-10.4501,13.7839,-297.32,4.01092,-1.2,-0.673497,-0.00803968,0.000623888,0.00161034,0.000913528,-0.00832932,1.39284,0.00882164,645.829,-85.9357,-25.8635,0.496782,-0.200865,-0.160316,0.0054687,279,366,105.93,26.4919,208.382,138.05,103.245,98.55,0.000147126,0.000138713,0.000508325
-10.1513,13.7691,-297.266,4.00729,-1.19648,-0.668815,-0.00789121,0.000659025,0.00159758,0.000947776,-0.00817996,1.39198,0.00869268,645.577,-85.9429,-24.0949,0.489686,-0.182627,-0.145509,0.00534918,286,366,105.848,26.4102,210,138.753,104.987,99.364,0.000138853,0.00013991,0.000480524
-9.85365,13.7545,-297.215,4.00407,-1.19303,-0.663345,-0.00773113,0.00068955,0.00158484,0.000977951,-0.00801953,1.39079,0.00855055,645.284,-85.953,-22.0184,0.481055,-0.165987,-0.134397,0.00520734,293,366,105.77,26.3347,211.578,139.442,106.671,100.167,0.000129293,0.000136085,0.00044769
-9.5596,13.7402,-297.175,4.00154,-1.18996,-0.657019,-0.00756839,0.000716978,0.00157164,0.00100508,-0.0078565,1.38949,0.00840424,645.15,-86.1517,-19.9888,0.476709,-0.152303,-0.128103,0.00498168,300,366,105.7,26.2643,212.995,140.133,108.17,100.958,0.00012841,0.000130269,0.000444306
-9.26819,13.7267,-297.143,3.99931,-1.18712,-0.651155,-0.00742381,0.000745497,0.00155679,0.00103211,-0.00771042,1.38873,0.0082749,644.974,-86.2577,-18.0466,0.476959,-0.142768,-0.126004,0.00514083,307,366,105.638,26.1994,214.28,140.791,109.533,101.712,0.000138311,0.000127141,0.000477988
-8.9769,13.7131,-297.111,3.99682,-1.18426,-0.645863,-0.00730884,0.000777941,0.00153997,0.00106127,-0.00759217,1.38885,0.00817463,644.736,-86.275,-16.0422,0.477137,-0.137889,-0.126598,0.00531323,314,366,105.575,26.1348,215.55,141.449,110.891,102.466,0.000143088,0.000126588,0.000494861
-8.68561,13.6992,-297.078,3.99412,-1.18139,-0.640515,-0.00721866,0.000815176,0.0015181,0.00109247,-0.00749595,1.39013,0.00809765,644.561,-86.3827,-13.9439,0.477454,-0.138149,-0.131231,0.00538368,321,366,105.507,26.067,216.816,142.122,112.251,103.232,0.000144788,0.000127477,0.000501046
-8.39394,13.6852,-297.044,3.9913,-1.17839,-0.634892,-0.00713622,0.000855594,0.00148621,0.00112303,-0.00740365,1.39276,0.00802432,644.403,-86.5222,-11.7587,0.479356,-0.142301,-0.140835,0.00536239,328,366,105.434,25.9955,218.102,142.798,113.632,104.005,0.000143813,0.000129317,0.000498137
-8.10085,13.6711,-297.004,3.98825,-1.17506,-0.629579,-0.00705842,0.000896251,0.00144677,0.00115121,-0.00731338,1.39636,0.00795173,644.31,-86.7624,-9.97889,0.484505,-0.150983,-0.150973,0.0052834,335,366,105.36,25.922,219.46,143.466,115.089,104.785,0.000141461,0.000128972,0.000490208
-7.80582,13.6568,-296.958,3.98524,-1.17155,-0.624348,-0.00699479,0.00093334,0.00140546,0.00117512,-0.00723657,1.40043,0.00789004,644.311,-86.9789,-8.68946,0.491166,-0.162397,-0.157607,0.00527463,342,366,105.29,25.8436,220.926,144.139,116.652,105.573,0.000141396,0.000128553,0.000489905
-7.51044,13.6425,-296.909,3.98237,-1.1679,-0.6191,-0.00696103,0.000966339,0.00136428,0.00119456,-0.00718925,1.40505,0.00785495,644.248,-87.14,-7.53999,0.497059,-0.17571,-0.160139,0.00528552,349,366,105.224,25.7629,222.418,144.808,118.236,106.361,0.000141566,0.000127158,0.000490366
-7.21564,13.6282,-296.862,3.97973,-1.16452,-0.613498,-0.00695668,0.000996532,0.00132139,0.00121033,-0.00717048,1.41039,0.00784597,644.204,-87.2471,-6.18625,0.50286,-0.189594,-0.160156,0.00527985,356,366,105.162,25.6847,223.892,145.486,119.793,107.146,0.000141319,0.000125004,0.000489519
-6.92345,13.6144,-296.823,3.97716,-1.16123,-0.607757,-0.00695998,0.00102451,0.00127648,0.00122361,-0.00715908,1.41606,0.00784281,644.182,-87.3796,-4.87179,0.507204,-0.2028,-0.159012,0.00520815,363,366,105.098,25.6059,225.232,146.14,121.214,107.904,0.000139415,0.000123279,0.000483134
-6.63237,13.6005,-296.786,3.97442,-1.15792,-0.601617,-0.0069629,0.00104948,0.00123034,0.00123415,-0.00714757,1.42181,0.00783786,644.096,-87.4603,-3.50595,0.510104,-0.213265,-0.156269,0.00517564,370,366,105.026,25.5263,226.514,146.802,122.577,108.67,0.000138432,0.000124617,0.000479957
-6.3404,13.5866,-296.747,3.97153,-1.15442,-0.595792,-0.00696881,0.00107215,0.00118273,0.00124251,-0.00713917,1.42774,0.00783467,644.005,-87.6143,-1.91832,0.511204,-0.219757,-0.151307,0.00513721,377,366,104.954,25.442,227.84,147.459,123.99,109.437,0.0001374,0.000127923,0.000476573
-6.04792,13.5725,-296.704,3.96863,-1.15091,-0.590083,-0.00699328,0.0010928,0.00113811,0.00124994,-0.00715042,1.4336,0.00785038,643.875,-87.8061,-0.501812,0.5139,-0.220989,-0.144637,0.00510714,384,366,104.884,25.3588,229.197,148.126,125.434,110.214,0.000135788,0.000130115,0.000471293
-5.75576,13.5583,-296.663,3.96594,-1.1475,-0.583632,-0.00704366,0.00111134,0.00110052,0.00125724,-0.00718956,1.43899,0.00789364,643.859,-87.9501,1.40423,0.521299,-0.217642,-0.138797,0.0050913,391,366,104.814,25.2799,230.551,148.797,126.863,110.994,0.000132785,0.000133311,0.000461374
-5.46476,13.5442,-296.624,3.96326,-1.14428,-0.577349,-0.00711213,0.00113078,0.00107255,0.00126805,-0.0072494,1.4435,0.00795954,643.692,-88.0729,2.88141,0.532764,-0.212051,-0.136915,0.00524252,398,366,104.745,25.2051,231.845,149.463,128.232,111.764,0.000131148,0.000135724,0.000456917
-5.17513,13.5304,-296.59,3.96026,-1.1411,-0.571521,-0.00718115,0.00115299,0.00105215,0.00128376,-0.00731192,1.44714,0.00803113,643.662,-88.1424,4.58968,0.54747,-0.205145,-0.138901,0.00538455,405,366,104.67,25.1314,233.054,150.124,129.53,112.527,0.000132722,0.000137755,0.000463338
-4.88632,13.5164,-296.557,3.95712,-1.13767,-0.565213,-0.00722748,0.00117777,0.00103716,0.00130386,-0.00735357,1.44982,0.00808474,643.483,-88.246,6.45256,0.56737,-0.197122,-0.144188,0.0054389,412,366,104.588,25.0555,234.222,150.777,130.785,113.295,0.000135079,0.000138321,0.00047173
-4.59747,13.5025,-296.524,3.954,-1.13412,-0.558542,-0.00725081,0.00120388,0.00102743,0.00132694,-0.00737388,1.45159,0.00811909,643.35,-88.2849,8.54725,0.594035,-0.187519,-0.150831,0.0053511,419,366,104.505,24.9757,235.399,151.424,132.045,114.059,0.000136356,0.000136329,0.000475192
-4.30747,13.4885,-296.487,3.95104,-1.13053,-0.551527,-0.00725726,0.00123086,0.00102179,0.00135213,-0.00737853,1.45267,0.00813927,643.221,-88.3594,10.5295,0.618635,-0.177124,-0.155189,0.00524178,426,366,104.424,24.8919,236.65,152.079,133.37,114.828,0.00013805,0.000131546,0.000480398
-4.01578,13.4744,-296.443,3.94792,-1.12683,-0.54465,-0.00724781,0.00126239,0.00101618,0.00138205,-0.00736747,1.45358,0.0081469,643.113,-88.452,12.2234,0.634565,-0.167909,-0.155891,0.00535617,433,366,104.343,24.803,237.995,152.736,134.792,115.6,0.00014246,0.000126362,0.000496077
-3.72283,13.4604,-296.393,3.94459,-1.12273,-0.538238,-0.00722062,0.00129989,0.00100584,0.00141702,-0.00733775,1.45487,0.0081393,643.082,-88.611,13.8214,0.641787,-0.158437,-0.157,0.00540683,440,366,104.262,24.7059,239.407,153.372,136.288,116.363,0.000143732,0.000124201,0.000501613
-3.429,13.4464,-296.34,3.94116,-1.11842,-0.531519,-0.00716564,0.00134054,0.000989253,0.00145407,-0.00727917,1.45653,0.00810463,643.067,-88.8934,14.714,0.645248,-0.14871,-0.160948,0.00539542,447,366,104.177,24.6023,240.873,154.011,137.837,117.133,0.000143151,0.00012349,0.000500911
-3.13436,13.4321,-296.284,3.93767,-1.11387,-0.524516,-0.00708167,0.001381,0.000969051,0.00149054,-0.00719121,1.45823,0.00804078,643.16,-89.2602,16.2275,0.645449,-0.138,-0.167836,0.0051972,454,366,104.09,24.4958,242.392,154.647,139.435,117.91,0.000137283,0.000122616,0.000481037
-2.83928,13.4177,-296.225,3.93424,-1.10944,-0.517107,-0.00698076,0.00141906,0.000949295,0.00152501,-0.0070867,1.45965,0.00795954,643.127,-89.547,17.7479,0.636605,-0.126858,-0.174272,0.00510589,461,366,104.003,24.389,243.947,155.298,141.063,118.694,0.000134359,0.000122189,0.000471611
-2.54403,13.4032,-296.165,3.93079,-1.10501,-0.509936,-0.00686922,0.00145596,0.000925863,0.00155768,-0.00697094,1.46137,0.00786632,643.008,-89.7353,19.3779,0.620536,-0.116418,-0.17903,0.00518376,468,366,103.918,24.2832,245.515,155.958,142.706,119.488,0.00013687,0.000121326,0.000480924
-2.24873,13.3887,-296.104,3.92723,-1.10052,-0.503067,-0.00674245,0.00149318,0.000893722,0.00158905,-0.00683832,1.46393,0.00775592,642.786,-89.7962,21.0465,0.599083,-0.106291,-0.183244,0.00542599,475,366,103.834,24.1771,247.088,156.609,144.358,120.277,0.000143667,0.000123448,0.000504477
-1.95363,13.3742,-296.042,3.92364,-1.09607,-0.495659,-0.00659448,0.00153055,0.000856235,0.0016198,-0.00668373,1.46693,0.0076238,642.36,-89.8416,22.2439,0.57735,-0.0971623,-0.189066,0.00582772,482,366,103.744,24.0727,248.659,157.261,146.004,121.065,0.000154155,0.000130749,0.000540159
-1.65875,13.3597,-295.981,3.92005,-1.09161,-0.487436,-0.00642187,0.00157028,0.000815037,0.00165255,-0.00650414,1.4702,0.00746882,642.094,-89.9056,23.6372,0.553736,-0.0901521,-0.19661,0.00620607,489,366,103.65,23.9691,250.233,157.914,147.644,121.855,0.00016378,0.000137664,0.000573672
-1.36282,13.3449,-295.915,3.91626,-1.08698,-0.478728,-0.00623271,0.00161288,0.000772251,0.00168817,-0.006308,1.47361,0.00729999,641.848,-90.0608,25.0768,0.524395,-0.0864675,-0.202599,0.00646645,496,366,103.549,23.8594,251.872,158.577,149.349,122.658,0.000170461,0.000139917,0.000596937
-1.06419,13.3296,-295.838,3.912,-1.08199,-0.470064,-0.00603629,0.00165405,0.000730752,0.00172288,-0.00610511,1.47689,0.00712453,641.606,-90.201,26.8144,0.491146,-0.0851898,-0.203699,0.00631707,503,366,103.44,23.7404,253.662,159.256,151.215,123.485,0.000166515,0.000136882,0.000583878
-0.761456,13.3148,-295.746,3.90708,-1.07612,-0.462517,-0.00583349,0.00169143,0.000688583,0.00175392,-0.00589598,1.48029,0.00694118,641.388,-90.4109,28.7228,0.459672,-0.0877045,-0.199072,0.00589642,510,366,103.327,23.6017,255.674,159.887,153.323,124.29,0.0001553,0.000131797,0.000544672
-0.455376,13.2994,-295.641,3.90217,-1.06979,-0.454444,-0.00564102,0.00172391,0.000644004,0.0017798,-0.00569691,1.48423,0.00676475,641.028,-90.4884,30.1101,0.437581,-0.0929955,-0.18982,0.00563376,517,366,103.214,23.4561,257.896,160.525,155.633,125.119,0.00014772,0.000132518,0.000519217
-0.150423,13.2844,-295.539,3.89774,-1.06381,-0.446048,-0.00547253,0.00175359,0.000597612,0.00180268,-0.00552162,1.48884,0.00660997,640.652,-90.5738,31.5677,0.424554,-0.100905,-0.17766,0.00557142,524,366,103.111,23.3184,260.082,161.158,157.889,125.931,0.000145984,0.000131464,0.000513052
0.151323,13.2692,-295.448,3.89402,-1.05834,-0.437209,-0.00529127,0.00178197,0.000557602,0.00182565,-0.00533495,1.49261,0.00644473,640.354,-90.5914,32.7578,0.411023,-0.111967,-0.164193,0.00551062,531,366,103.02,23.1839,262.113,161.822,159.971,126.752,0.000144526,0.000127961,0.000508703
0.449853,13.2544,-295.367,3.89084,-1.05334,-0.429018,-0.00515062,0.00180368,0.000521436,0.00184256,-0.0051895,1.49637,0.00631569,640.179,-90.6717,34.2752,0.398815,-0.125555,-0.143535,0.00549425,538,366,102.945,23.0622,263.976,162.478,161.877,127.554,0.000143969,0.000125556,0.000505815
0.745058,13.2398,-295.296,3.88819,-1.04853,-0.421387,-0.00506315,0.00181827,0.000486189,0.00185245,-0.00509733,1.50061,0.00623353,639.826,-90.7795,35.8834,0.386413,-0.14273,-0.11301,0.00549822,545,366,102.885,22.9452,265.663,163.13,163.599,128.349,0.000143974,0.000126926,0.000504786
1.03882,13.2252,-295.231,3.88554,-1.0436,-0.414736,-0.00504757,0.00182767,0.000447915,0.00185673,-0.00507662,1.50601,0.00621655,639.433,-90.934,37.545,0.380156,-0.16244,-0.0745055,0.00555556,552,366,102.83,22.8261,267.264,163.774,165.245,129.139,0.000144908,0.000128972,0.000506115
1.33232,13.2106,-295.165,3.88281,-1.03862,-0.408354,-0.00513513,0.00183212,0.000405145,0.0018556,-0.00515861,1.51291,0.00629498,639,-91.0638,38.9166,0.390241,-0.182923,-0.031356,0.00564391,559,366,102.775,22.7099,268.855,164.412,166.883,129.929,0.000146489,0.000133,0.000510212
1.62498,13.1962,-295.101,3.87969,-1.03373,-0.401212,-0.00536161,0.00183123,0.000361173,0.00184932,-0.0053797,1.52075,0.00650462,638.745,-91.0513,39.902,0.424115,-0.202226,0.0163743,0.00584099,566,366,102.704,22.5961,270.4,165.047,168.479,130.714,0.00015069,0.000138707,0.000522964
1.91601,13.1819,-295.043,3.87622,-1.02919,-0.393645,-0.00571279,0.00182658,0.000302638,0.00183871,-0.00572492,1.53074,0.00683243,638.734,-91.0564,41.2268,0.48644,-0.220283,0.0773462,0.00597106,573,366,102.621,22.4893,271.851,165.681,169.987,131.488,0.000154332,0.000143295,0.000533336
0,0,0,0,0,0,0,0,0,0,0,0,0,0,0,0,0,0,0,-1,580,366,0,0,0,0,0,0,0,0,0
0,0,0,0,0,0,0,0,0,0,0,0,0,0,0,0,0,0,0,-1,587,366,0,0,0,0,0,0,0,0,0
0,0,0,0,0,0,0,0,0,0,0,0,0,0,0,0,0,0,0,-1,594,366,0,0,0,0,0,0,0,0,0
0,0,0,0,0,0,0,0,0,0,0,0,0,0,0,0,0,0,0,-1,601,366,0,0,0,0,0,0,0,0,0
0,0,0,0,0,0,0,0,0,0,0,0,0,0,0,0,0,0,0,-1,62,373,0,0,0,0,0,0,0,0,0
0,0,0,0,0,0,0,0,0,0,0,0,0,0,0,0,0,0,0,-1,69,373,0,0,0,0,0,0,0,0,0
0,0,0,0,0,0,0,0,0,0,0,0,0,0,0,0,0,0,0,-1,76,373,0,0,0,0,0,0,0,0,0
-18.4759,13.8841,-297.532,4.08076,-1.24177,-0.737992,-0.00836504,0.000996511,0.000990074,0.00110007,-0.00846861,1.46657,0.00906882,644.114,-80.4191,-75.4316,0.23674,-0.311862,0.0912013,0.00563888,83,373,107.445,27.3907,180.328,119.576,71.4964,78.4165,0.000142572,0.000142463,0.000513383
-18.1994,13.8716,-297.558,4.07829,-1.24168,-0.738069,-0.00818677,0.000891468,0.00105523,0.00101251,-0.00830781,1.45659,0.00885758,644.199,-80.6359,-73.8021,0.260181,-0.286979,0.0423999,0.00571071,90,373,107.396,27.393,180.833,120.276,72.1675,79.1435,0.000147564,0.000144129,0.000533837
-17.9204,13.8591,-297.576,4.07602,-1.24144,-0.738113,-0.00802636,0.000796719,0.00111523,0.0009355,-0.00816514,1.44699,0.00867082,644.463,-80.7925,-71.5253,0.268618,-0.26867,0.00187301,0.00563587,97,373,107.354,27.3906,181.464,120.965,72.9558,79.8613,0.000145377,0.000142944,0.000528114
-17.6398,13.8464,-297.589,4.07393,-1.24119,-0.73776,-0.00789091,0.000709581,0.00117258,0.000866583,-0.00804792,1.43769,0.00851435,644.824,-80.9807,-68.97,0.266693,-0.253144,-0.0292532,0.00538294,104,373,107.316,27.3887,182.181,121.668,73.8206,80.5927,0.000139213,0.000136053,0.000506587
-17.3578,13.8336,-297.598,4.07179,-1.24068,-0.737089,-0.0077833,0.000626063,0.00123172,0.000802762,-0.00796,1.42831,0.00839023,645.103,-81.3096,-67.0009,0.263974,-0.239815,-0.0502643,0.00503237,111,373,107.275,27.3801,182.959,122.366,74.7453,81.3256,0.000131161,0.000127121,0.000476559
-17.0745,13.8207,-297.603,4.06968,-1.24001,-0.735901,-0.00770679,0.000544251,0.00129246,0.000741966,-0.00790451,1.419,0.0083004,645.282,-81.7392,-65.6025,0.267132,-0.229241,-0.0628756,0.00466298,118,373,107.232,27.3669,183.804,123.067,75.7294,82.0647,0.000123185,0.000118484,0.000443548
-16.7908,13.8079,-297.606,4.06772,-1.23916,-0.734173,-0.00766365,0.000464899,0.00135111,0.000683594,-0.00788234,1.41032,0.00824542,645.286,-82.1601,-64.6735,0.277294,-0.22253,-0.0690694,0.00442888,125,373,107.19,27.3504,184.681,123.755,76.7364,82.7969,0.000116693,0.000111821,0.000415398
-16.5065,13.7952,-297.607,4.0658,-1.23825,-0.732371,-0.00765195,0.000388819,0.00140874,0.000628485,-0.00789162,1.40228,0.00822389,645.269,-82.4382,-63.3112,0.293068,-0.220482,-0.0698945,0.00442591,132,373,107.148,27.3336,185.583,124.434,77.7657,83.5234,0.000116235,0.000111526,0.000410956
-16.2225,13.7823,-297.609,4.06371,-1.23747,-0.731171,-0.00765521,0.000314046,0.00146548,0.000574991,-0.00791616,1.39458,0.00821875,645.286,-82.5527,-61.2005,0.313026,-0.220627,-0.0666141,0.00493563,139,373,107.108,27.3186,186.454,125.132,78.7718,84.2626,0.000133115,0.000128735,0.000457672
-15.9392,13.769,-297.613,4.06151,-1.23668,-0.730103,-0.00768299,0.000246117,0.00152377,0.000528862,-0.00796574,1.38733,0.0082429,645.306,-82.674,-59.066,0.328869,-0.226151,-0.0602474,0.00552828,146,373,107.066,27.3039,187.29,125.846,79.7478,85.0189,0.000150625,0.000145025,0.000508643
-15.6558,13.7556,-297.616,4.05933,-1.23584,-0.728805,-0.00772829,0.000184201,0.00158115,0.00048846,-0.00803255,1.38069,0.00828759,645.343,-82.8459,-57.0015,0.338839,-0.235283,-0.0539115,0.00579866,153,373,107.022,27.2878,188.123,126.562,80.7171,85.7786,0.000157398,0.000153293,0.000528132
-15.3719,13.7423,-297.617,4.05718,-1.23478,-0.727006,-0.0077816,0.000129417,0.00163092,0.000452455,-0.00810464,1.37526,0.00834008,645.451,-83.0729,-55.1081,0.346695,-0.24802,-0.0474458,0.00550893,160,373,106.977,27.2666,188.987,127.266,81.712,86.5325,0.000148462,0.000145734,0.000501672
-15.0872,13.7294,-297.615,4.05502,-1.23347,-0.724716,-0.00784244,8.31848e-05,0.00167067,0.000420955,-0.00818021,1.37131,0.00839861,645.647,-83.3353,-53.1756,0.355673,-0.262028,-0.0409642,0.00499704,167,373,106.928,27.2405,189.897,127.943,82.7485,87.2678,0.000133051,0.000130992,0.000455044
-14.8022,13.7164,-297.613,4.05268,-1.23202,-0.722647,-0.00790762,4.61267e-05,0.00170211,0.000395073,-0.00825656,1.36859,0.00846102,645.893,-83.5211,-51.256,0.364249,-0.27634,-0.0368414,0.0046815,174,373,106.877,27.2132,190.811,128.613,83.7931,88.0016,0.000124472,0.000120318,0.000430065
-14.5167,13.7033,-297.608,4.05018,-1.23056,-0.720636,-0.00796669,2.00958e-05,0.00172496,0.000376724,-0.00832331,1.36692,0.00851793,646.034,-83.652,-49.2678,0.36897,-0.289563,-0.0385031,0.00487736,181,373,106.824,27.1842,191.742,129.296,84.8594,88.7474,0.00013059,0.000123239,0.000450135
-14.2308,13.69,-297.602,4.04776,-1.22894,-0.718247,-0.00801169,6.28883e-06,0.00174098,0.000368,-0.0083734,1.36595,0.00856333,646.041,-83.7297,-47.1414,0.366943,-0.300512,-0.0486564,0.00512274,188,373,106.77,27.1513,192.701,129.979,85.9474,89.4972,0.000137486,0.000128317,0.000473088
-13.9436,13.6766,-297.591,4.04533,-1.22724,-0.715277,-0.00804257,5.14064e-06,0.00174845,0.000368597,-0.00840603,1.36584,0.00859625,645.873,-83.7812,-45.1872,0.363612,-0.307585,-0.0668144,0.00524349,195,373,106.714,27.1156,193.725,130.668,87.0951,90.2536,0.000140412,0.000129379,0.000482922
-13.6561,13.6632,-297.579,4.04291,-1.22546,-0.712223,-0.00807056,1.66575e-05,0.00174638,0.000377661,-0.00843157,1.36695,0.0086266,645.706,-83.7518,-42.7532,0.363774,-0.310377,-0.0907426,0.00526733,202,373,106.658,27.0771,194.764,131.351,88.2554,91.0052,0.000140672,0.000129287,0.000484322
-13.3679,13.65,-297.565,4.04051,-1.2235,-0.708445,-0.00810422,4.10532e-05,0.00173445,0.000395005,-0.00845817,1.36949,0.00866243,645.592,-83.8313,-40.4512,0.365853,-0.308671,-0.119534,0.00502161,209,373,106.597,27.0322,195.844,132.026,89.4492,91.7515,0.000134819,0.00012559,0.000466411
-13.0795,13.6365,-297.549,4.03801,-1.22156,-0.704199,-0.00814676,7.70007e-05,0.00171454,0.000420142,-0.0084899,1.37327,0.00870758,645.669,-83.9883,-38.3401,0.368146,-0.302949,-0.149395,0.00480136,216,373,106.532,26.9848,196.939,132.715,90.6571,92.5094,0.000128361,0.000123995,0.000445534
-12.7907,13.6229,-297.532,4.03532,-1.2195,-0.700088,-0.00819664,0.000119894,0.0016948,0.000452009,-0.00852876,1.37729,0.00876351,645.781,-84.1789,-36.6082,0.373844,-0.294665,-0.17466,0.00469973,223,373,106.464,26.9378,198.042,133.405,91.8772,93.2734,0.000124816,0.00012188,0.000434113
-12.5014,13.6092,-297.513,4.03263,-1.21736,-0.695979,-0.00824032,0.000166353,0.00167772,0.000488809,-0.00856277,1.38091,0.00881735,645.818,-84.3892,-35.3239,0.387391,-0.283363,-0.194843,0.00469168,230,373,106.396,26.8899,199.175,134.093,93.1269,94.0381,0.000123017,0.000121028,0.000427298
-12.2108,13.5956,-297.489,4.02994,-1.21519,-0.691669,-0.00826778,0.000215722,0.00165729,0.000527988,-0.00858004,1.38456,0.00885585,645.712,-84.546,-34.1862,0.405869,-0.270903,-0.210097,0.00470066,237,373,106.33,26.8433,200.378,134.774,94.4428,94.7982,0.000122122,0.000118328,0.000422662
-11.9204,13.5822,-297.465,4.02727,-1.21296,-0.687463,-0.00827167,0.000266715,0.00163372,0.000568631,-0.00857359,1.38805,0.00887158,645.672,-84.7299,-32.5885,0.427363,-0.258042,-0.220721,0.00483563,244,373,106.264,26.7956,201.568,135.442,95.745,95.5466,0.000126061,0.000121556,0.000435242
-11.631,13.569,-297.444,4.02468,-1.21069,-0.68326,-0.00824759,0.000317213,0.0016108,0.000610142,-0.00854051,1.39091,0.00886135,645.661,-84.9394,-30.9509,0.448229,-0.244981,-0.225098,0.00499704,251,373,106.2,26.7468,202.711,136.101,96.9978,96.2878,0.000130792,0.000127486,0.000451137
-11.342,13.5557,-297.424,4.02197,-1.20836,-0.679207,-0.00819911,0.000365561,0.00158957,0.000651064,-0.00848462,1.39308,0.00882817,645.721,-85.2375,-29.516,0.464878,-0.231146,-0.219065,0.00512868,258,373,106.135,26.6944,203.83,136.764,98.2306,97.0333,0.000136032,0.000131699,0.000468917
-11.0521,13.5421,-297.4,4.01901,-1.20597,-0.674807,-0.00812247,0.00041015,0.00157004,0.000689874,-0.00840219,1.39448,0.00876751,645.793,-85.5435,-28.1903,0.477076,-0.216361,-0.204273,0.00527646,265,373,106.061,26.6359,204.99,137.443,99.5077,97.7917,0.00014161,0.000134321,0.000487912
-10.7566,13.5283,-297.358,4.01547,-1.20313,-0.670809,-0.00801821,0.000450427,0.0015508,0.00072548,-0.00829326,1.39526,0.00867877,645.702,-85.7732,-26.9294,0.483799,-0.201022,-0.185667,0.00543625,272,373,105.983,26.5683,206.425,138.119,101.074,98.5586,0.000146803,0.000136482,0.000506144
-10.4579,13.5138,-297.305,4.01167,-1.19973,-0.666572,-0.00789453,0.000486493,0.00153232,0.000757864,-0.0081659,1.39552,0.00857,645.525,-85.8309,-25.1275,0.485967,-0.185605,-0.167855,0.00537143,279,373,105.9,26.4904,208.03,138.81,102.811,99.3589,0.000144485,0.000137329,0.000499055
-10.1587,13.499,-297.25,4.00808,-1.19621,-0.661769,-0.007758,0.000518552,0.00151658,0.000787695,-0.00802714,1.39516,0.00844857,645.318,-85.8625,-23.1208,0.482684,-0.171156,-0.153647,0.00528656,286,373,105.818,26.4105,209.669,139.515,104.57,100.176,0.000138118,0.000138181,0.000478135
-9.86163,13.4846,-297.201,4.0051,-1.19286,-0.656127,-0.00760923,0.000546708,0.00150154,0.000814363,-0.00787689,1.3944,0.00831403,645.024,-85.8871,-21.0375,0.477409,-0.158419,-0.142817,0.00517814,293,373,105.745,26.339,211.226,140.199,106.225,100.973,0.000133418,0.000134863,0.000462232
-9.57037,13.4704,-297.17,4.00284,-1.19001,-0.649785,-0.00745442,0.000572498,0.00148631,0.000838872,-0.00772079,1.39346,0.00817258,644.917,-86.0826,-19.0161,0.474863,-0.148386,-0.136243,0.00511573,300,373,105.678,26.2717,212.503,140.892,107.578,101.759,0.000133911,0.000132583,0.000463569
-9.28097,13.4571,-297.145,4.00076,-1.18731,-0.644288,-0.00731167,0.00059979,0.00146927,0.000863842,-0.00757572,1.39298,0.00804251,644.746,-86.1949,-17.1923,0.474702,-0.14197,-0.133396,0.00524947,307,373,105.622,26.2104,213.683,141.539,108.837,102.497,0.000140239,0.000131579,0.000484813
-8.99061,13.4439,-297.116,3.99831,-1.1846,-0.639439,-0.00719337,0.000631457,0.0014509,0.000891823,-0.00745373,1.39323,0.00793731,644.521,-86.2161,-15.3372,0.47372,-0.139229,-0.133222,0.00541644,314,373,105.562,26.1478,214.9,142.187,110.147,103.235,0.000145727,0.000132121,0.00050382
-8.7,13.4304,-297.086,3.9957,-1.1818,-0.634103,-0.00709646,0.000668685,0.00142875,0.000923224,-0.007351,1.39449,0.00785342,644.324,-86.3078,-13.3101,0.473076,-0.14016,-0.137468,0.00544011,321,373,105.495,26.0816,216.132,142.845,111.471,103.985,0.000146482,0.000132963,0.000506654
-8.40821,13.4166,-297.051,3.99288,-1.1788,-0.628486,-0.00700713,0.000709978,0.00139856,0.000955618,-0.00725277,1.39693,0.00777475,644.226,-86.4091,-11.1073,0.473883,-0.143784,-0.146854,0.00537658,328,373,105.423,26.0095,217.426,143.513,112.858,104.748,0.000144401,0.00013311,0.000500009
-8.11452,13.4026,-297.01,3.98979,-1.1755,-0.62302,-0.00692419,0.000751631,0.00136274,0.000986388,-0.00715895,1.4002,0.00769968,644.129,-86.5773,-9.59098,0.477437,-0.150986,-0.156663,0.00529107,335,373,105.347,25.936,218.816,144.178,114.347,105.522,0.000141744,0.000130524,0.000491131
-7.8184,13.3883,-296.959,3.9866,-1.17185,-0.617841,-0.00685711,0.000789785,0.00132628,0.00101328,-0.00708061,1.40385,0.00763783,644.136,-86.758,-8.37624,0.482612,-0.159956,-0.162668,0.00529698,342,373,105.275,25.8564,220.335,144.844,115.968,106.308,0.000141949,0.000126964,0.000491902
-7.52152,13.3741,-296.906,3.9836,-1.16811,-0.612538,-0.00682008,0.000823799,0.00129015,0.00103568,-0.00703196,1.40802,0.00760289,644.112,-86.9129,-7.07251,0.487606,-0.169903,-0.164166,0.00540718,349,373,105.207,25.7729,221.906,145.507,117.632,107.091,0.00014488,0.000125397,0.000502039
-7.22569,13.3598,-296.855,3.98081,-1.16458,-0.607071,-0.0068124,0.000854545,0.00125229,0.00105391,-0.00701176,1.41292,0.00759377,644.076,-87.0438,-5.81658,0.493206,-0.179788,-0.162867,0.00548491,356,373,105.143,25.6923,223.431,146.182,119.244,107.878,0.000146928,0.00012441,0.000509078
-6.93156,13.3459,-296.809,3.97816,-1.1612,-0.601252,-0.00681443,0.000882787,0.00121336,0.00106953,-0.00700117,1.41809,0.00759264,643.978,-87.2014,-4.65107,0.49808,-0.188783,-0.160574,0.00548386,363,373,105.078,25.611,224.875,146.844,120.769,108.645,0.00014684,0.000123139,0.000508863
-6.63941,13.332,-296.77,3.97545,-1.15782,-0.595088,-0.00682025,0.000908246,0.00117419,0.0010827,-0.0069947,1.4233,0.00759416,643.805,-87.3008,-3.34859,0.502007,-0.195401,-0.157106,0.00540968,370,373,105.008,25.5297,226.216,147.506,122.19,109.412,0.000144596,0.000123253,0.000501433
-6.34723,13.3181,-296.729,3.97268,-1.15425,-0.589016,-0.00683261,0.000931154,0.0011342,0.00109346,-0.00699491,1.42866,0.00760086,643.691,-87.4547,-1.73384,0.504644,-0.198418,-0.151992,0.00526622,377,373,104.938,25.4438,227.56,148.162,123.615,110.179,0.000140561,0.000125853,0.000487872
-6.05507,13.304,-296.688,3.96996,-1.1507,-0.582946,-0.00686447,0.000951648,0.00109746,0.00110282,-0.00701564,1.43391,0.00762708,643.558,-87.6677,0.0668764,0.509276,-0.196549,-0.145593,0.00513668,384,373,104.869,25.3596,228.908,148.827,125.042,110.956,0.000136479,0.000127361,0.000473994
-5.76315,13.2899,-296.647,3.96737,-1.14725,-0.576057,-0.00692257,0.000970187,0.00106676,0.00111183,-0.0070642,1.43879,0.00768071,643.517,-87.8214,2.1652,0.519004,-0.190569,-0.139595,0.00508044,391,373,104.799,25.2786,230.257,149.495,126.459,111.733,0.000132405,0.000129751,0.000460352
-5.47186,13.276,-296.608,3.96452,-1.14389,-0.569866,-0.00699778,0.000990324,0.00104412,0.00112455,-0.007132,1.44295,0.00775566,643.391,-87.8847,3.82304,0.532293,-0.182993,-0.137427,0.00528445,398,373,104.727,25.2011,231.563,150.153,127.845,112.499,0.000131142,0.000134807,0.000457214
-5.18117,13.2621,-296.569,3.96132,-1.14044,-0.564133,-0.00707366,0.00101438,0.00102773,0.00114293,-0.00720221,1.44636,0.00783643,643.256,-87.9812,5.36829,0.54842,-0.17488,-0.139391,0.00545879,405,373,104.649,25.1236,232.825,150.806,129.201,113.264,0.00013241,0.00013828,0.000462494
-4.89082,13.2481,-296.532,3.95807,-1.1369,-0.557983,-0.00712842,0.00104233,0.00101607,0.00116678,-0.00725288,1.44891,0.00790115,643.168,-88.0456,7.15148,0.569434,-0.166154,-0.145245,0.00557586,412,373,104.567,25.0449,234.075,151.455,130.541,114.029,0.000133562,0.000140575,0.000466761
-4.60044,13.2341,-296.493,3.95492,-1.13319,-0.551504,-0.00715978,0.00107318,0.00100869,0.00119497,-0.00728156,1.45064,0.00794672,642.993,-88.0654,9.06897,0.595093,-0.156438,-0.152693,0.00551109,419,373,104.486,24.9618,235.337,152.106,131.886,114.801,0.00013602,0.000138043,0.00047427
-4.30904,13.22,-296.451,3.95206,-1.12956,-0.544542,-0.0071717,0.00110634,0.00100341,0.00122623,-0.00729159,1.45188,0.00797572,642.813,-88.1399,11.03,0.61612,-0.146643,-0.157256,0.00549632,426,373,104.41,24.8767,236.67,152.769,133.29,115.578,0.000141478,0.000132313,0.000492801
-4.01639,13.2058,-296.404,3.94895,-1.12576,-0.537491,-0.00716421,0.00114498,0.000995984,0.00126269,-0.00728193,1.45315,0.00798847,642.706,-88.232,12.7956,0.629218,-0.138408,-0.158384,0.00554629,433,373,104.329,24.7876,238.072,153.424,134.766,116.352,0.00014504,0.000127377,0.000505239
-3.72328,13.192,-296.354,3.94559,-1.12171,-0.531237,-0.00713843,0.00118978,0.000983491,0.00130435,-0.007253,1.45483,0.00798547,642.668,-88.4033,14.5018,0.636906,-0.129992,-0.160742,0.00554346,440,373,104.249,24.6935,239.493,154.055,136.273,117.109,0.000144835,0.000125475,0.000505262
-3.42957,13.1781,-296.301,3.94211,-1.11746,-0.524304,-0.00708702,0.00123751,0.000965694,0.00134807,-0.00719758,1.45681,0.00795772,642.704,-88.6743,15.5439,0.642863,-0.121343,-0.166307,0.00543668,447,373,104.161,24.5928,240.956,154.691,137.817,117.875,0.000142176,0.000124949,0.000496571
-3.13528,13.164,-296.246,3.93862,-1.11302,-0.517246,-0.00700838,0.00128431,0.000945524,0.00139075,-0.00711482,1.45869,0.00790252,642.803,-89.0511,16.8732,0.645575,-0.11198,-0.174437,0.00520752,454,373,104.074,24.4876,242.457,155.328,139.398,118.648,0.000135605,0.000123626,0.000473889
-2.8407,13.1497,-296.189,3.93526,-1.10863,-0.50975,-0.00691179,0.00132831,0.000926072,0.0014311,-0.00701459,1.46025,0.00782886,642.816,-89.3351,18.483,0.638011,-0.102509,-0.180966,0.00513743,461,373,103.988,24.3816,243.988,155.978,141,119.429,0.000134405,0.000123257,0.00047073
-2.54566,13.1352,-296.129,3.93184,-1.10422,-0.502573,-0.00680073,0.00137054,0.000902651,0.00146906,-0.00689926,1.46208,0.00773908,642.647,-89.5666,20.2696,0.622995,-0.0942691,-0.185047,0.0052114,468,373,103.903,24.2757,245.547,156.636,142.633,120.22,0.000137145,0.000122539,0.000481456
-2.25027,13.1208,-296.067,3.92829,-1.09976,-0.49566,-0.00667042,0.00141152,0.000871298,0.00150439,-0.00676329,1.46461,0.00762757,642.292,-89.6853,22.0094,0.603716,-0.0870436,-0.188435,0.00531651,475,373,103.819,24.1691,247.127,157.288,144.292,121.007,0.000140525,0.000123672,0.000493835
-1.95485,13.1063,-296.005,3.92467,-1.09529,-0.488184,-0.00651541,0.00145121,0.00083593,0.00153798,-0.00660218,1.46737,0.00749054,641.787,-89.7223,23.1633,0.583509,-0.0815024,-0.193108,0.00554804,482,373,103.729,24.0629,248.719,157.942,145.958,121.795,0.000146657,0.000126094,0.000515486
-1.65941,13.0919,-295.941,3.92101,-1.09077,-0.480012,-0.00633274,0.00149179,0.000798088,0.00157236,-0.00641331,1.47018,0.00732714,641.474,-89.754,24.6952,0.559482,-0.0786243,-0.198679,0.00563198,489,373,103.634,23.9558,250.324,158.593,147.631,122.583,0.000148748,0.000126679,0.000522625
-1.36195,13.0771,-295.87,3.91702,-1.08591,-0.471263,-0.00613267,0.00153459,0.000760927,0.00160938,-0.00620746,1.47283,0.00714932,641.278,-89.8895,26.0829,0.528322,-0.0789596,-0.202496,0.00569968,496,373,103.529,23.8411,252.049,159.254,149.425,123.39,0.000150359,0.000126571,0.000528118
-1.0613,13.062,-295.786,3.91244,-1.08064,-0.462977,-0.0059257,0.00157648,0.000727376,0.00164635,-0.00599557,1.47503,0.00696621,641.134,-90.0216,27.7233,0.492768,-0.0809988,-0.201353,0.00558577,503,373,103.417,23.7177,253.947,159.916,151.408,124.209,0.000147003,0.000126392,0.000516609
-0.757892,13.0472,-295.692,3.90751,-1.07475,-0.455297,-0.0057132,0.00161636,0.000694609,0.00168161,-0.00577844,1.47714,0.00677756,640.94,-90.2543,29.3465,0.458907,-0.0861584,-0.194993,0.00552313,510,373,103.303,23.5797,256.002,160.549,153.558,125.017,0.000145276,0.00013074,0.000510396
-0.452242,13.032,-295.588,3.90263,-1.06851,-0.4472,-0.00551267,0.00165344,0.000660267,0.00171377,-0.00557299,1.47968,0.00659894,640.601,-90.3636,30.6695,0.434118,-0.0936722,-0.184751,0.00555798,517,373,103.191,23.436,258.203,161.185,155.846,125.841,0.000144488,0.000136365,0.000507578
-0.147635,13.017,-295.487,3.89834,-1.06268,-0.438736,-0.00533768,0.00168877,0.000624262,0.0017438,-0.00539271,1.48287,0.00644406,640.174,-90.4106,32.0424,0.419129,-0.103172,-0.172241,0.0056403,524,373,103.091,23.3025,260.376,161.823,158.085,126.654,0.000146956,0.000136706,0.000515377
0.153665,13.0021,-295.397,3.89477,-1.05725,-0.429888,-0.00515251,0.0017243,0.000596805,0.00177571,-0.00520392,1.48487,0.00628288,639.854,-90.4232,33.293,0.403495,-0.115299,-0.158082,0.00556802,531,373,103.004,23.1701,262.388,162.481,160.144,127.468,0.000145799,0.000132273,0.000512015
0.451686,12.9875,-295.317,3.89172,-1.05225,-0.421655,-0.00501295,0.00175573,0.00057434,0.00180412,-0.00506134,1.48674,0.00616468,639.672,-90.4653,34.8373,0.388525,-0.129284,-0.137208,0.00553639,538,373,102.932,23.0495,264.229,163.127,162.023,128.261,0.00014535,0.000127443,0.000509782
0.746651,12.9733,-295.248,3.88906,-1.04745,-0.414019,-0.00492956,0.00178248,0.000552225,0.00182761,-0.00497469,1.48925,0.0060975,639.366,-90.5554,36.3962,0.374039,-0.14616,-0.107757,0.00551556,545,373,102.871,22.933,265.904,163.763,163.734,129.038,0.0001445,0.00012607,0.000506265
1.03947,12.9588,-295.186,3.88642,-1.04255,-0.407075,-0.00492069,0.0018057,0.000525984,0.00184658,-0.00496157,1.49323,0.00609828,639.027,-90.7024,37.8262,0.369436,-0.164537,-0.072994,0.00552141,552,373,102.813,22.8144,267.456,164.402,165.328,129.823,0.000144727,0.000128393,0.000505074
1.33109,12.9445,-295.127,3.88366,-1.03775,-0.400459,-0.00501884,0.00182508,0.000494248,0.00186059,-0.00505435,1.49908,0.00619777,638.679,-90.8343,39.4,0.385466,-0.182644,-0.0369663,0.00561522,559,373,102.753,22.7023,268.938,165.035,166.858,130.603,0.000146987,0.000133978,0.000511233
1.62174,12.9303,-295.07,3.88058,-1.03309,-0.393209,-0.00525835,0.00184083,0.000459045,0.00187039,-0.00528791,1.50649,0.00643046,638.518,-90.8985,40.5764,0.426841,-0.198768,0.000562577,0.00581668,566,373,102.681,22.5935,270.368,165.666,168.338,131.377,0.00015036,0.000138736,0.000521487
1.91125,12.9164,-295.017,3.87722,-1.02883,-0.385719,-0.00562065,0.00185702,0.000404413,0.00187882,-0.00564245,1.51692,0.00678,638.507,-90.9753,42.1544,0.498003,-0.213043,0.047435,0.00598763,573,373,102.6,22.4929,271.732,166.299,169.758,132.14,0.000153606,0.00014285,0.000530999
0,0,0,0,0,0,0,0,0,0,0,0,0,0,0,0,0,0,0,-1,580,373,0,0,0,0,0,0,0,0,0
0,0,0,0,0,0,0,0,0,0,0,0,0,0,0,0,0,0,0,-1,587,373,0,0,0,0,0,0,0,0,0
0,0,0,0,0,0,0,0,0,0,0,0,0,0,0,0,0,0,0,-1,594,373,0,0,0,0,0,0,0,0,0
0,0,0,0,0,0,0,0,0,0,0,0,0,0,0,0,0,0,0,-1,601,373,0,0,0,0,0,0,0,0,0
0,0,0,0,0,0,0,0,0,0,0,0,0,0,0,0,0,0,0,-1,62,380,0,0,0,0,0,0,0,0,0
0,0,0,0,0,0,0,0,0,0,0,0,0,0,0,0,0,0,0,-1,69,380,0,0,0,0,0,0,0,0,0
0,0,0,0,0,0,0,0,0,0,0,0,0,0,0,0,0,0,0,-1,76,380,0,0,0,0,0,0,0,0,0
-18.5049,13.614,-297.581,4.08106,-1.24327,-0.731781,-0.00828246,0.00106768,0.000884997,0.00115071,-0.00836549,1.47725,0.00899621,644.248,-80.4681,-75.1765,0.218762,-0.287718,0.0420322,0.00589584,83,380,107.385,27.4271,178.888,120.399,70.011,79.2525,0.000150386,0.000150056,0.000532501
-18.2277,13.6015,-297.605,4.07868,-1.24309,-0.731694,-0.00810202,0.000956465,0.000947302,0.00105447,-0.00820003,1.46771,0.00877491,644.342,-80.7264,-73.5464,0.25597,-0.266965,0.00714994,0.00574401,90,380,107.337,27.4294,179.43,121.088,70.714,79.9721,0.000149316,0.00014602,0.000534168
-17.9483,13.5891,-297.622,4.07651,-1.24275,-0.731485,-0.00793598,0.000853444,0.00100949,0.000967897,-0.00805044,1.4579,0.00857545,644.536,-80.9242,-71.4674,0.271508,-0.253809,-0.0234607,0.0054981,97,380,107.296,27.4269,180.089,121.77,71.5251,80.6871,0.000141444,0.000140014,0.00051109
-17.6673,13.5764,-297.635,4.07438,-1.2424,-0.731221,-0.00779373,0.000755345,0.00107261,0.000887865,-0.00792625,1.44787,0.00840543,644.868,-81.1905,-68.8453,0.27219,-0.243381,-0.0475995,0.00525423,104,380,107.258,27.4225,180.818,122.467,72.404,81.4152,0.000136028,0.000133891,0.000491294
-17.3856,13.5638,-297.645,4.07228,-1.24188,-0.730603,-0.00767871,0.000658622,0.00113974,0.00081162,-0.00783171,1.43735,0.00826745,645.193,-81.5139,-66.5322,0.270217,-0.23473,-0.06344,0.00497515,111,380,107.218,27.4126,181.584,123.159,73.3146,82.1415,0.000129012,0.000127011,0.000466121
-17.1021,13.5509,-297.649,4.07015,-1.24118,-0.729759,-0.00759501,0.000562579,0.00120939,0.0007381,-0.00777053,1.42667,0.00816464,645.412,-81.8564,-64.8347,0.274196,-0.228318,-0.0718158,0.00466485,118,380,107.178,27.3977,182.435,123.858,74.3079,82.8789,0.00012056,0.00011933,0.000433861
-16.8178,13.5381,-297.651,4.06818,-1.24033,-0.728256,-0.00754587,0.000468906,0.00127693,0.000667431,-0.0077444,1.41656,0.00809877,645.459,-82.2132,-63.6546,0.285095,-0.225164,-0.0740769,0.00446458,125,380,107.137,27.3798,183.333,124.547,75.3381,83.6102,0.000114537,0.000113947,0.000408685
-16.5328,13.5253,-297.65,4.06632,-1.23938,-0.726464,-0.00752807,0.000378822,0.00134286,0.000600661,-0.0077499,1.40708,0.00806702,645.411,-82.4806,-62.266,0.300989,-0.22584,-0.0711789,0.004382,132,380,107.099,27.3617,184.273,125.23,76.403,84.3395,0.000112445,0.000111276,0.000398222
-16.248,13.5124,-297.649,4.06424,-1.23854,-0.725371,-0.00752362,0.000291401,0.00140642,0.000536799,-0.00776902,1.39805,0.00805085,645.377,-82.6278,-60.2523,0.321215,-0.227958,-0.0641078,0.00498025,139,380,107.06,27.3448,185.183,125.922,77.4483,85.0746,0.000130409,0.000129764,0.000447981
-15.964,13.4991,-297.651,4.06206,-1.23775,-0.724181,-0.00754205,0.000211213,0.00147127,0.000481014,-0.00781185,1.38943,0.00806312,645.331,-82.7581,-58.3559,0.337943,-0.234365,-0.0547487,0.0055227,146,380,107.018,27.3283,186.051,126.635,78.4544,85.8272,0.000151118,0.000147806,0.000509775
-15.6799,13.4857,-297.652,4.05992,-1.23684,-0.722584,-0.00757637,0.000138121,0.00153444,0.000432124,-0.00787037,1.38149,0.00809508,645.297,-82.9134,-56.3878,0.349008,-0.2433,-0.046324,0.00583716,153,380,106.974,27.3105,186.924,127.349,79.4601,86.5867,0.000164005,0.000157805,0.00054913
-15.3951,13.4723,-297.65,4.05768,-1.23563,-0.720746,-0.00761784,7.35948e-05,0.00158876,0.00038885,-0.00793309,1.37491,0.00813449,645.424,-83.0607,-54.5672,0.357656,-0.254769,-0.0391143,0.00563949,160,380,106.927,27.2884,187.834,128.05,80.5018,87.3437,0.000156767,0.000149712,0.000528564
-15.1095,13.4591,-297.646,4.05541,-1.23413,-0.718587,-0.00766768,1.91206e-05,0.00163167,0.000351132,-0.0079997,1.37006,0.00818092,645.634,-83.2201,-52.5639,0.366886,-0.266465,-0.032902,0.00517074,167,380,106.878,27.2605,188.778,128.731,81.5753,88.0905,0.000140516,0.000133803,0.000479943
-14.8237,13.446,-297.641,4.053,-1.23255,-0.716447,-0.00772313,-2.4434e-05,0.00166462,0.000320074,-0.00806764,1.36672,0.00823235,645.868,-83.3818,-50.5456,0.375345,-0.277269,-0.0293052,0.00476614,174,380,106.825,27.2307,189.734,129.406,82.6629,88.8324,0.000127816,0.000120993,0.000443162
-14.5377,13.433,-297.635,4.05062,-1.23107,-0.714217,-0.0077735,-5.54392e-05,0.00168732,0.000297317,-0.00812626,1.3647,0.00827892,645.982,-83.5145,-48.4098,0.379871,-0.28596,-0.031668,0.00491507,181,380,106.774,27.1989,190.694,130.084,83.7527,89.5706,0.000132688,0.000126286,0.000459099
-14.2513,13.4199,-297.627,4.04841,-1.22941,-0.711588,-0.00781102,-7.31845e-05,0.00170218,0.00028471,-0.00816892,1.36356,0.00831493,645.996,-83.5599,-46.219,0.377428,-0.291715,-0.0431278,0.00511449,188,380,106.724,27.1632,191.682,130.757,84.8617,90.3099,0.00013793,0.000130545,0.000476292
-13.9638,13.4067,-297.616,4.04613,-1.22773,-0.708381,-0.00783573,-7.71029e-05,0.0017083,0.000282375,-0.00819521,1.36339,0.00833998,645.854,-83.6368,-44.2769,0.373075,-0.293538,-0.0633163,0.00521801,195,380,106.67,27.1272,192.726,131.437,86.0231,91.0547,0.000139946,0.00013126,0.000482964
-13.6759,13.3934,-297.603,4.04385,-1.22597,-0.705172,-0.00785837,-6.76421e-05,0.00170476,0.00028906,-0.00821508,1.36453,0.00836335,645.672,-83.6802,-41.9888,0.371234,-0.291237,-0.0894319,0.00527421,202,380,106.617,27.0895,193.791,132.115,87.2043,91.8003,0.00014009,0.000129977,0.000483102
-13.3869,13.3801,-297.586,4.04136,-1.22403,-0.701512,-0.00788878,-4.48672e-05,0.00169146,0.000304334,-0.00823798,1.36721,0.00839429,645.547,-83.8178,-40.0322,0.369893,-0.284923,-0.120157,0.00503714,209,380,106.556,27.0461,194.911,132.792,88.4408,92.5491,0.00013409,0.000124427,0.000464145
-13.0974,13.3665,-297.567,4.03879,-1.22201,-0.697346,-0.00793081,-1.11582e-05,0.00167058,0.000326812,-0.00826878,1.37118,0.00843693,645.61,-83.9875,-38.0685,0.366942,-0.27546,-0.15153,0.00481654,216,380,106.491,27.0001,196.056,133.482,89.6995,93.3114,0.000129225,0.000122006,0.000448048
-12.8078,13.3528,-297.547,4.03606,-1.21988,-0.6933,-0.00798117,2.83818e-05,0.00164936,0.000354729,-0.00830752,1.37546,0.00849045,645.693,-84.1525,-36.3045,0.367202,-0.264255,-0.177994,0.0046705,223,380,106.423,26.953,197.2,134.173,90.9621,94.0792,0.000124917,0.000119096,0.000433715
-12.5178,13.3391,-297.526,4.03336,-1.21775,-0.689197,-0.00802527,7.09068e-05,0.0016297,0.000386639,-0.008341,1.37943,0.00854088,645.745,-84.2816,-34.7937,0.376683,-0.250771,-0.199059,0.00462507,230,380,106.357,26.905,198.37,134.864,92.248,94.8466,0.000122108,0.000117228,0.000423216
-12.2267,13.3255,-297.5,4.03069,-1.21558,-0.684924,-0.00805454,0.000116155,0.00160553,0.000420317,-0.0083587,1.38357,0.00857659,645.638,-84.4297,-33.3933,0.39249,-0.237045,-0.214617,0.00458917,237,380,106.291,26.8574,199.598,135.55,93.588,95.6093,0.000119008,0.000114673,0.000411113
-11.9356,13.3121,-297.474,4.02807,-1.21336,-0.680587,-0.00806357,0.000162511,0.00157772,0.000454728,-0.00835579,1.38766,0.00859218,645.52,-84.6764,-31.7829,0.412131,-0.223996,-0.225162,0.00468375,244,380,106.227,26.8088,200.827,136.222,94.9273,96.3603,0.000121394,0.000117983,0.000418492
-11.6454,13.2989,-297.451,4.02554,-1.21106,-0.676346,-0.00804777,0.000208318,0.00155065,0.000489951,-0.00832941,1.39113,0.00858487,645.499,-84.9683,-30.1146,0.431499,-0.212033,-0.229535,0.00478572,251,380,106.165,26.7578,202.012,136.881,96.2193,97.0997,0.000124653,0.000122688,0.000429407
-11.3555,13.2856,-297.428,4.02292,-1.20868,-0.672137,-0.00800919,0.000252393,0.00152551,0.000525079,-0.00828187,1.39391,0.0085565,645.556,-85.246,-28.676,0.447877,-0.20073,-0.223922,0.00492174,258,380,106.102,26.7023,203.182,137.543,97.4985,97.8434,0.000130061,0.000126876,0.000447731
-11.0639,13.272,-297.399,4.01992,-1.20611,-0.667718,-0.00794253,0.000293025,0.00150232,0.000558517,-0.00820803,1.39588,0.00850106,645.568,-85.521,-27.3753,0.461327,-0.189196,-0.209602,0.00515257,265,380,106.029,26.6395,204.43,138.216,98.8627,98.5988,0.000136704,0.000131015,0.000470404
-10.7671,13.2583,-297.353,4.01637,-1.20312,-0.663856,-0.00784901,0.00032939,0.00148013,0.000589023,-0.00810864,1.39715,0.00841862,645.481,-85.7083,-26.0249,0.470943,-0.177474,-0.1914,0.00534649,272,380,105.953,26.5699,205.93,138.884,100.494,99.3627,0.000142929,0.000134269,0.00049232
-10.4678,13.2438,-297.298,4.01255,-1.19964,-0.659921,-0.00773808,0.000362036,0.00145941,0.000616958,-0.007993,1.39787,0.00831866,645.209,-85.7406,-24.1975,0.477402,-0.165956,-0.173889,0.00536101,279,380,105.872,26.493,207.563,139.572,102.262,100.164,0.000143482,0.000136165,0.00049533
-10.1704,13.2294,-297.249,4.00928,-1.19621,-0.654883,-0.00761484,0.00039147,0.00144214,0.000643316,-0.00786669,1.39791,0.00820728,644.982,-85.7861,-22.2125,0.478043,-0.155524,-0.159924,0.00537089,286,380,105.796,26.4165,209.123,140.26,103.933,100.964,0.000141546,0.00013972,0.000489758
-9.87533,13.2153,-297.206,4.00662,-1.19319,-0.648981,-0.00747926,0.000418299,0.00142599,0.000667889,-0.00772885,1.39752,0.00808351,644.781,-85.8113,-19.9286,0.475801,-0.146823,-0.149054,0.00540923,293,380,105.726,26.3502,210.583,140.939,105.482,101.744,0.00013972,0.000140373,0.000484016
-9.586,13.2014,-297.182,4.00447,-1.1905,-0.642714,-0.00733489,0.000443799,0.00140962,0.000691365,-0.00758246,1.39694,0.00795071,644.721,-85.9977,-17.7807,0.474703,-0.140615,-0.141964,0.0054443,300,380,105.661,26.2852,211.76,141.624,106.734,102.516,0.000141431,0.000140419,0.000489815
-9.29681,13.1882,-297.157,4.0023,-1.18783,-0.637481,-0.00719667,0.000471186,0.00139146,0.000715881,-0.00744137,1.39672,0.00782391,644.615,-86.1217,-15.9679,0.47379,-0.137263,-0.138405,0.00548902,307,380,105.604,26.224,212.925,142.271,107.982,103.252,0.000144402,0.000139341,0.000499618
-9.00663,13.1749,-297.129,3.99986,-1.18503,-0.632749,-0.00707723,0.00050293,0.00137239,0.00074375,-0.00731805,1.39709,0.00771686,644.454,-86.1726,-14.2474,0.471457,-0.136587,-0.137877,0.00554991,314,380,105.545,26.1613,214.132,142.916,109.282,103.992,0.000148193,0.000137877,0.000512628
-8.71572,13.1615,-297.098,3.99734,-1.18223,-0.627431,-0.00697534,0.000540632,0.00135069,0.000775992,-0.0072107,1.39828,0.00762836,644.26,-86.2647,-12.3361,0.469718,-0.138094,-0.142414,0.00550778,321,380,105.482,26.0953,215.382,143.573,110.621,104.74,0.000147682,0.000137772,0.000510919
-8.42375,13.1477,-297.062,3.99451,-1.17921,-0.62208,-0.00688076,0.000582911,0.00132329,0.000810581,-0.00710843,1.40042,0.00754644,644.113,-86.3415,-10.551,0.468858,-0.14113,-0.152292,0.00536695,328,380,105.411,26.0227,216.682,144.239,112.017,105.502,0.0001441,0.000136822,0.000498906
-8.12939,13.1338,-297.019,3.99141,-1.1759,-0.616486,-0.00679413,0.000625475,0.00129232,0.000844125,-0.00701278,1.40319,0.00747069,644.076,-86.4928,-9.03159,0.469794,-0.146744,-0.162586,0.00524097,335,380,105.335,25.9491,218.108,144.903,113.541,106.274,0.000140625,0.000131945,0.000487119
-7.8323,13.1196,-296.965,3.98805,-1.17223,-0.611397,-0.00672449,0.000664701,0.00126181,0.00087423,-0.00693402,1.40624,0.00740991,644,-86.5822,-8.06528,0.472513,-0.15338,-0.168958,0.0052541,342,380,105.26,25.8695,219.674,145.568,115.212,107.059,0.000140763,0.000126367,0.000487816
-7.53438,13.1054,-296.908,3.985,-1.16847,-0.605827,-0.00668428,0.000699933,0.00123162,0.00089994,-0.00688429,1.40981,0.00737555,644.021,-86.7302,-6.60366,0.475784,-0.160174,-0.170532,0.00543702,349,380,105.191,25.7861,221.302,146.228,116.932,107.839,0.000145444,0.00012542,0.00050421
-7.23758,13.0912,-296.855,3.98214,-1.16487,-0.600178,-0.00667331,0.000731754,0.0011994,0.000921177,-0.00686274,1.41416,0.00736665,643.98,-86.9169,-5.28353,0.480732,-0.166187,-0.16888,0.00558639,356,380,105.125,25.705,222.88,146.899,118.596,108.624,0.000149401,0.000125309,0.000517945
-6.94234,13.0772,-296.805,3.97936,-1.16129,-0.594452,-0.00667471,0.000760692,0.00116664,0.000939445,-0.00685347,1.41876,0.00736825,643.818,-87.1041,-4.25196,0.486029,-0.170998,-0.166038,0.00564655,363,380,105.059,25.6217,224.38,147.559,120.18,109.397,0.00015091,0.000125038,0.000523215
-6.6488,13.0633,-296.761,3.97656,-1.15783,-0.588377,-0.00668415,0.000787286,0.00113435,0.000955711,-0.00685258,1.4234,0.00737701,643.594,-87.2413,-3.08591,0.491004,-0.173665,-0.162194,0.00557251,370,380,104.989,25.5383,225.794,148.222,121.676,110.166,0.00014858,0.000124038,0.000515426
-6.3559,13.0495,-296.718,3.9738,-1.15419,-0.582319,-0.00670323,0.000811302,0.00110159,0.00096946,-0.00686139,1.4282,0.00739394,643.438,-87.3932,-1.43528,0.495666,-0.173136,-0.157159,0.0054029,377,380,104.92,25.449,227.179,148.871,123.141,110.926,0.000143739,0.000124131,0.000498998
-6.0633,13.0356,-296.675,3.97124,-1.15055,-0.57591,-0.00674179,0.000832681,0.00107187,0.000981441,-0.00689055,1.43289,0.00743005,643.305,-87.5442,0.610411,0.502802,-0.168159,-0.150997,0.00518027,384,380,104.853,25.3615,228.559,149.526,124.592,111.693,0.000137229,0.000124676,0.00047653
-5.77129,13.0217,-296.634,3.96874,-1.14694,-0.568887,-0.00680627,0.000852551,0.00104675,0.000993036,-0.00694676,1.43738,0.00749279,643.152,-87.6455,2.79564,0.515349,-0.159686,-0.14449,0.0050805,391,380,104.784,25.2767,229.917,150.181,126.015,112.461,0.000132961,0.000126132,0.000462152
-5.47983,13.0079,-296.594,3.96587,-1.14343,-0.562648,-0.00688644,0.000874223,0.00102772,0.00100801,-0.00702023,1.44134,0.00757471,643.047,-87.7138,4.7546,0.531041,-0.150057,-0.141356,0.00519728,398,380,104.711,25.196,231.233,150.832,127.411,113.224,0.000131427,0.000129638,0.000457927
-5.18852,12.994,-296.554,3.9626,-1.13989,-0.556823,-0.00696714,0.000900397,0.00101332,0.00102881,-0.00709556,1.44474,0.00766195,642.918,-87.7969,6.56939,0.549034,-0.14063,-0.142411,0.00536307,405,380,104.632,25.1164,232.53,151.482,128.801,113.989,0.000132674,0.000133575,0.000463286
-4.89721,12.9802,-296.513,3.95926,-1.13632,-0.550844,-0.0070284,0.000931612,0.0010026,0.00105595,-0.00715274,1.44741,0.00773497,642.865,-87.9335,8.28236,0.571392,-0.131239,-0.147871,0.00545085,412,380,104.55,25.0368,233.831,152.124,130.195,114.747,0.000133026,0.000134771,0.00046474
-4.60561,12.9663,-296.47,3.95613,-1.13257,-0.5444,-0.0070659,0.000967108,0.000995022,0.00108852,-0.00718732,1.44937,0.00778884,642.675,-88.0178,10.0644,0.595872,-0.121659,-0.155029,0.00542946,419,380,104.471,24.9532,235.161,152.768,131.608,115.513,0.000135677,0.000132606,0.000473086
-4.31321,12.9523,-296.424,3.95327,-1.12888,-0.537515,-0.00708171,0.00100607,0.000987717,0.00112495,-0.00720059,1.45102,0.00782396,642.512,-88.1352,11.7906,0.613479,-0.113002,-0.158958,0.00553855,426,380,104.397,24.8687,236.552,153.423,133.068,116.284,0.000141375,0.000130279,0.000492637
-4.01965,12.9381,-296.374,3.95011,-1.12505,-0.53044,-0.00707499,0.00105079,0.000976589,0.00116652,-0.00719071,1.45285,0.00783933,642.381,-88.2052,13.3208,0.624295,-0.106044,-0.160236,0.00562682,433,380,104.316,24.7803,238.005,154.083,134.596,117.063,0.000143514,0.00012958,0.000500343
-3.72604,12.9242,-296.322,3.94675,-1.12097,-0.524091,-0.00704983,0.00110146,0.000960477,0.0012131,-0.00716147,1.45508,0.00783874,642.329,-88.323,14.9319,0.632598,-0.0992723,-0.163604,0.00565583,440,380,104.236,24.6872,239.456,154.721,136.131,117.83,0.000143812,0.000128964,0.000501982
-3.43177,12.9102,-296.267,3.94321,-1.1168,-0.517043,-0.00700195,0.00115454,0.000940277,0.00126153,-0.00710894,1.4575,0.00781643,642.385,-88.5469,15.9379,0.640612,-0.0927206,-0.170317,0.00550063,447,380,104.147,24.587,240.951,155.364,137.708,118.598,0.000139984,0.000128088,0.000488649
-3.13704,12.8961,-296.21,3.93963,-1.11237,-0.510164,-0.00692935,0.00120601,0.000919021,0.00130854,-0.00703188,1.4597,0.00776924,642.478,-88.8109,17.1047,0.645054,-0.0860142,-0.179062,0.00530419,454,380,104.059,24.4809,242.475,156.002,139.315,119.37,0.000136001,0.000125144,0.000475003
-2.84186,12.8818,-296.151,3.93611,-1.10794,-0.502951,-0.00683794,0.00125439,0.000898708,0.001353,-0.00693655,1.46151,0.00770269,642.448,-89.0558,18.8454,0.638176,-0.0798,-0.18497,0.00530835,461,380,103.972,24.3735,244.035,156.657,140.952,120.156,0.000137572,0.000124046,0.000481912
-2.54614,12.8672,-296.089,3.93262,-1.10342,-0.495553,-0.00672854,0.00130033,0.000874345,0.00139445,-0.00682265,1.46357,0.00761622,642.189,-89.2839,20.7979,0.623949,-0.0750635,-0.187663,0.00531625,468,380,103.885,24.265,245.634,157.319,142.624,120.954,0.00013857,0.000124376,0.000486527
-2.25019,12.8528,-296.025,3.92902,-1.09884,-0.488419,-0.00659645,0.0013437,0.000842847,0.00143218,-0.00668493,1.4662,0.00750423,641.76,-89.4659,22.5489,0.606779,-0.0719442,-0.189274,0.00525972,475,380,103.798,24.1576,247.249,157.97,144.316,121.744,0.000138097,0.000125108,0.00048511
-1.95399,12.8384,-295.96,3.92538,-1.09432,-0.480666,-0.00643696,0.00138507,0.000808356,0.00146773,-0.00651962,1.46889,0.00736402,641.295,-89.4921,23.9981,0.587753,-0.0708717,-0.191793,0.00524179,482,380,103.707,24.0504,248.889,158.625,146.029,122.534,0.000138224,0.000124345,0.000485112
-1.65779,12.8241,-295.894,3.92168,-1.08969,-0.472369,-0.00624795,0.00142645,0.000772612,0.00150346,-0.00632496,1.47145,0.00719547,640.994,-89.571,25.6112,0.563076,-0.0725152,-0.194657,0.00528202,489,380,103.612,23.9412,250.541,159.27,147.747,123.318,0.000139413,0.000123463,0.000489524
-1.3598,12.8094,-295.82,3.91762,-1.08479,-0.463976,-0.006041,0.00146941,0.000739908,0.00154161,-0.0061132,1.47352,0.00701227,640.894,-89.7056,27.1994,0.53051,-0.0767426,-0.195903,0.00539412,496,380,103.508,23.8239,252.294,159.928,149.574,124.121,0.000142168,0.000123751,0.000499294
-1.05901,12.7945,-295.736,3.91307,-1.07937,-0.456151,-0.00582712,0.0015124,0.00071297,0.00158102,-0.00589573,1.47485,0.006825,640.821,-89.8902,28.7555,0.493279,-0.0818342,-0.192381,0.00546351,503,380,103.4,23.6982,254.2,160.58,151.567,124.936,0.000143748,0.000126324,0.000505146
-0.756151,12.7797,-295.643,3.90832,-1.07359,-0.448627,-0.00560803,0.00155521,0.000688544,0.00162079,-0.00567361,1.47583,0.0066342,640.609,-90.1367,30.0252,0.457602,-0.0890071,-0.184297,0.00548575,510,380,103.292,23.5629,256.229,161.215,153.688,125.743,0.000144109,0.000133528,0.000506027
-0.451491,12.7649,-295.543,3.90361,-1.06758,-0.440411,-0.0054021,0.00159709,0.000663743,0.00165948,-0.00546449,1.47708,0.00645621,640.235,-90.1902,31.3025,0.430535,-0.0979383,-0.173354,0.00555839,517,380,103.182,23.4244,258.382,161.846,155.922,126.554,0.000141575,0.00014068,0.000495363
-0.14734,12.75,-295.444,3.89941,-1.06188,-0.431669,-0.00522306,0.00163849,0.000637955,0.0016973,-0.00528187,1.47887,0.00630428,639.794,-90.2036,32.732,0.413905,-0.108198,-0.160977,0.00563034,524,380,103.082,23.2954,260.535,162.485,158.137,127.364,0.000144303,0.000142685,0.000503388
0.153494,12.7353,-295.355,3.89587,-1.05652,-0.423065,-0.00503686,0.0016819,0.000622812,0.00173914,-0.00509411,1.47914,0.00615093,639.417,-90.2029,34.0891,0.396533,-0.120311,-0.146764,0.00563792,531,380,102.997,23.1658,262.522,163.138,160.172,128.172,0.000145772,0.000139458,0.000509381
0.450549,12.721,-295.279,3.89296,-1.0515,-0.414705,-0.00489965,0.00172421,0.000614051,0.00178065,-0.00495609,1.47913,0.00604638,639.188,-90.3282,35.5957,0.379529,-0.133777,-0.126544,0.00558967,538,380,102.927,23.0459,264.313,163.769,161.998,128.951,0.00014687,0.000134064,0.000513267
0.744727,12.7072,-295.212,3.89025,-1.04678,-0.407173,-0.00481962,0.00176445,0.000605717,0.00181971,-0.00487488,1.47982,0.00599555,638.9,-90.4217,36.961,0.364283,-0.149107,-0.0995129,0.00562181,545,380,102.864,22.9307,265.942,164.387,163.666,129.708,0.00014644,0.000129511,0.000512351
1.03679,12.6928,-295.153,3.88754,-1.04198,-0.399987,-0.00481449,0.00180263,0.000592921,0.00185534,-0.0048672,1.48213,0.0060135,638.687,-90.5204,38.0106,0.362558,-0.164869,-0.0699541,0.00562232,552,380,102.802,22.8144,267.451,165.03,165.216,130.493,0.000146213,0.000129958,0.000510804
1.32723,12.6786,-295.098,3.88473,-1.03743,-0.393148,-0.00491729,0.00183756,0.000574161,0.00188601,-0.00496574,1.4866,0.00613034,638.443,-90.6339,39.5596,0.385053,-0.179755,-0.0421617,0.00565739,559,380,102.739,22.7054,268.866,165.673,166.679,131.274,0.000148548,0.000136037,0.000517264
1.6164,12.6645,-295.047,3.88164,-1.03294,-0.385851,-0.00515939,0.00186936,0.000549736,0.00191209,-0.00520212,1.49321,0.00637692,638.32,-90.7315,41.0827,0.433706,-0.192647,-0.0153458,0.00580971,566,380,102.665,22.6005,270.209,166.302,168.074,132.041,0.000151021,0.000140872,0.000524458
1.90504,12.6507,-294.997,3.87836,-1.02866,-0.378093,-0.00551747,0.00190247,0.000501823,0.00193625,-0.00555125,1.50357,0.00673158,638.254,-90.9075,42.9088,0.513128,-0.203674,0.017585,0.00598246,573,380,102.583,22.5018,271.526,166.925,169.444,132.797,0.000153343,0.0001431,0.000530708
0,0,0,0,0,0,0,0,0,0,0,0,0,0,0,0,0,0,0,-1,580,380,0,0,0,0,0,0,0,0,0
0,0,0,0,0,0,0,0,0,0,0,0,0,0,0,0,0,0,0,-1,587,380,0,0,0,0,0,0,0,0,0
0,0,0,0,0,0,0,0,0,0,0,0,0,0,0,0,0,0,0,-1,594,380,0,0,0,0,0,0,0,0,0
0,0,0,0,0,0,0,0,0,0,0,0,0,0,0,0,0,0,0,-1,601,380,0,0,0,0,0,0,0,0,0
0,0,0,0,0,0,0,0,0,0,0,0,0,0,0,0,0,0,0,-1,62,387,0,0,0,0,0,0,0,0,0
0,0,0,0,0,0,0,0,0,0,0,0,0,0,0,0,0,0,0,-1,69,387,0,0,0,0,0,0,0,0,0
0,0,0,0,0,0,0,0,0,0,0,0,0,0,0,0,0,0,0,-1,76,387,0,0,0,0,0,0,0,0,0
-18.5347,13.3437,-297.633,4.08148,-1.24483,-0.72557,-0.00819301,0.00113895,0.000798018,0.0012067,-0.00826076,1.4861,0.0089255,644.452,-80.5727,-74.4952,0.19086,-0.281177,-0.0066238,0.00686378,83,387,107.326,27.4642,177.411,121.23,68.4851,80.0936,0.000180299,0.000179944,0.00061265
-18.257,13.3313,-297.656,4.07916,-1.24458,-0.725415,-0.00802013,0.00102199,0.000857298,0.00110255,-0.00810069,1.4771,0.0087045,644.481,-80.8753,-73.1445,0.240274,-0.261682,-0.0276241,0.00623071,90,387,107.28,27.4663,177.981,121.91,69.2135,80.8064,0.000165072,0.00016025,0.000572966
-17.9772,13.3188,-297.672,4.07702,-1.24427,-0.725179,-0.00785618,0.000910761,0.000921773,0.00100663,-0.00795205,1.46716,0.00850019,644.675,-81.1291,-71.207,0.263226,-0.251005,-0.0485137,0.00530172,97,387,107.24,27.4651,178.658,122.595,70.041,81.5237,0.000137925,0.000134609,0.000494883
-17.6962,13.3063,-297.684,4.07484,-1.24387,-0.724921,-0.00771201,0.000802173,0.000990594,0.000915905,-0.00782575,1.45648,0.00832159,644.975,-81.3892,-68.7577,0.267948,-0.243568,-0.066186,0.00504927,104,387,107.201,27.4591,179.387,123.284,70.9212,82.2452,0.000131799,0.000128047,0.000472137
-17.4142,13.2935,-297.693,4.07266,-1.24325,-0.724454,-0.00759227,0.000693485,0.00106501,0.000828187,-0.00772697,1.44499,0.0081726,645.289,-81.6849,-66.3002,0.268376,-0.237984,-0.0776211,0.00485969,111,387,107.16,27.4473,180.161,123.974,71.8429,82.9719,0.000126011,0.000123938,0.000452274
-17.1306,13.2807,-297.697,4.07054,-1.24247,-0.72372,-0.00750239,0.00058524,0.00114208,0.000743421,-0.00766057,1.43317,0.00805805,645.504,-81.9676,-64.2269,0.274615,-0.234488,-0.082521,0.00468049,118,387,107.122,27.4312,181.019,124.663,72.8433,83.7025,0.000118864,0.0001197,0.000425614
-16.8458,13.2679,-297.698,4.0686,-1.24157,-0.722402,-0.00744689,0.000479876,0.00121622,0.000662284,-0.0076293,1.42193,0.00798108,645.547,-82.2246,-62.4638,0.287361,-0.233864,-0.08154,0.00454672,125,387,107.084,27.4125,181.939,125.35,73.8956,84.4327,0.000114271,0.000116524,0.000406913
-16.5602,13.2551,-297.695,4.06674,-1.24061,-0.720698,-0.0074219,0.000378805,0.00128725,0.000585734,-0.00762883,1.41141,0.00793792,645.475,-82.4696,-60.826,0.3044,-0.236323,-0.0755651,0.00446042,132,387,107.047,27.3942,182.903,126.036,74.9843,85.1647,0.000112005,0.000114416,0.000396369
-16.2747,13.2422,-297.693,4.06475,-1.23972,-0.719246,-0.00740901,0.000281754,0.00135403,0.000513181,-0.00764044,1.40152,0.00790953,645.419,-82.6824,-59.0798,0.325849,-0.239448,-0.0653625,0.00496505,139,387,107.008,27.3761,183.854,126.724,76.0652,85.8964,0.000127827,0.000129779,0.000440383
-15.9901,13.229,-297.693,4.06274,-1.23888,-0.717608,-0.00741674,0.000192163,0.00142127,0.000448976,-0.00767355,1.39203,0.0079076,645.407,-82.848,-57.5496,0.344598,-0.245614,-0.053501,0.00545241,146,387,106.968,27.3577,184.758,127.428,77.0988,86.6416,0.000147787,0.000145221,0.000500957
-15.7056,13.2158,-297.693,4.06063,-1.23782,-0.715847,-0.00743832,0.000110675,0.00148595,0.000392637,-0.00772028,1.38327,0.0079239,645.351,-82.9995,-55.996,0.358133,-0.253119,-0.0432255,0.00585292,153,387,106.924,27.3372,185.653,128.128,78.1235,87.3904,0.000162993,0.000155892,0.000548381
-15.4206,13.2026,-297.691,4.05843,-1.23652,-0.713939,-0.00746626,3.91476e-05,0.00154064,0.000343089,-0.0077702,1.37602,0.0079473,645.519,-83.1074,-54.1456,0.368729,-0.261965,-0.0352828,0.00581914,160,387,106.877,27.3135,186.571,128.82,79.1722,88.1412,0.000161197,0.000151227,0.000545141
-15.135,13.1894,-297.687,4.05607,-1.235,-0.712072,-0.00750351,-2.09626e-05,0.00158289,0.000300111,-0.00782458,1.37067,0.00797887,645.717,-83.1821,-52.0421,0.378611,-0.269864,-0.02924,0.00539482,167,387,106.828,27.2846,187.511,129.496,80.2454,88.883,0.000147039,0.000137739,0.000503224
-14.8488,13.1765,-297.681,4.05364,-1.23343,-0.709988,-0.0075479,-6.87901e-05,0.00161408,0.00026468,-0.00788137,1.36706,0.00801698,645.925,-83.3341,-49.7493,0.38674,-0.275743,-0.0261047,0.00491975,174,387,106.776,27.2544,188.483,130.164,81.3503,89.6172,0.00013217,0.000123765,0.000459243
-14.5619,13.1635,-297.672,4.0513,-1.23192,-0.707526,-0.00758882,-0.000103243,0.00163434,0.000238026,-0.00793009,1.36494,0.00805174,645.973,-83.4228,-47.6031,0.390685,-0.278531,-0.0290527,0.00492404,181,387,106.725,27.2216,189.495,130.838,82.4887,90.3515,0.000132477,0.000126567,0.000460431
-14.2743,13.1503,-297.66,4.04917,-1.23025,-0.704625,-0.00761864,-0.000124118,0.00164669,0.00022173,-0.00796449,1.36378,0.00807764,645.966,-83.5034,-45.3681,0.387747,-0.277844,-0.0414111,0.00504229,188,387,106.677,27.1843,190.545,131.518,83.6549,91.095,0.000135571,0.000128254,0.000470674
-13.9859,13.1371,-297.646,4.04696,-1.22859,-0.701159,-0.00763731,-0.000130792,0.00165087,0.000216235,-0.00798434,1.36361,0.00809462,645.86,-83.5668,-43.4129,0.382364,-0.273519,-0.0630292,0.00512989,195,387,106.623,27.1472,191.639,132.199,84.8612,91.8389,0.000137733,0.000129841,0.000477588
-13.6968,13.1238,-297.63,4.0447,-1.22675,-0.697754,-0.00765493,-0.000123921,0.00164624,0.000220214,-0.00799906,1.36472,0.00811141,645.701,-83.6239,-41.1571,0.378185,-0.265728,-0.0906504,0.0051566,202,387,106.57,27.108,192.768,132.879,86.1032,92.588,0.000137034,0.000127628,0.000474368
-13.4066,13.1103,-297.609,4.04221,-1.22472,-0.694069,-0.00768191,-0.000103853,0.00163295,0.000233045,-0.0080188,1.36734,0.00813783,645.575,-83.7712,-39.3399,0.373064,-0.254957,-0.122558,0.00498301,209,387,106.511,27.065,193.946,133.559,87.3967,93.3426,0.000132393,0.000122192,0.00045849
-13.1163,13.0967,-297.587,4.0396,-1.22267,-0.69018,-0.00772193,-7.35922e-05,0.00161312,0.000252712,-0.00804824,1.37121,0.00817752,645.588,-83.9812,-37.5327,0.364786,-0.242394,-0.154892,0.00477138,216,387,106.448,27.0202,195.131,134.249,88.6978,94.1073,0.000127629,0.000118725,0.000442106
-12.826,13.0831,-297.566,4.03694,-1.22055,-0.686286,-0.0077701,-3.86231e-05,0.00159274,0.000276636,-0.00808536,1.37539,0.00822717,645.59,-84.1537,-35.9295,0.35971,-0.229287,-0.182436,0.00457859,223,387,106.384,26.9739,196.308,134.937,89.9923,94.8717,0.000122151,0.000115809,0.000423285
-12.5357,13.0695,-297.543,4.03429,-1.2184,-0.682329,-0.00781138,-1.2082e-06,0.00157284,0.000303636,-0.00811622,1.37935,0.00827222,645.647,-84.2283,-34.3608,0.36539,-0.215015,-0.204333,0.00451449,230,387,106.32,26.9265,197.493,135.622,91.2929,95.633,0.000118927,0.000113349,0.000411102
-12.2447,13.0559,-297.519,4.03175,-1.21626,-0.678009,-0.00783923,3.8764e-05,0.00154758,0.000331871,-0.00813233,1.38362,0.00830324,645.552,-84.3734,-32.9376,0.378795,-0.201559,-0.220115,0.00445429,237,387,106.258,26.8786,198.715,136.303,92.6224,96.3895,0.000114812,0.000111468,0.000395852
-11.9539,13.0427,-297.494,4.02916,-1.21404,-0.673893,-0.00785101,7.93373e-05,0.00151827,0.000360073,-0.00813174,1.38796,0.00831763,645.45,-84.6602,-31.2749,0.396713,-0.189662,-0.23039,0.0045201,244,387,106.195,26.8301,199.928,136.968,93.9467,97.1327,0.000115577,0.000115002,0.000398112
-11.6637,13.0295,-297.47,4.02668,-1.21179,-0.669716,-0.00784196,0.00011956,0.00148939,0.000389063,-0.00811146,1.39178,0.00831282,645.402,-85.0358,-29.6622,0.414944,-0.17977,-0.234394,0.00460134,251,387,106.136,26.7789,201.114,137.63,95.2389,97.8722,0.000117975,0.000119071,0.000406336
-11.3728,13.0163,-297.444,4.0241,-1.20938,-0.665463,-0.00781197,0.000158543,0.00146228,0.000418347,-0.00807177,1.39496,0.00828887,645.441,-85.322,-28.1637,0.431463,-0.171428,-0.229018,0.00480338,258,387,106.074,26.7219,202.337,138.285,96.5687,98.6083,0.000125822,0.000124073,0.000432794
-11.0788,13.0029,-297.408,4.02099,-1.20662,-0.661253,-0.00775459,0.000194519,0.00143762,0.000446525,-0.0080066,1.39726,0.00823894,645.368,-85.5902,-26.9413,0.446548,-0.16327,-0.214967,0.00506972,265,387,106.003,26.6564,203.706,138.948,98.0569,99.3601,0.000133789,0.000128345,0.000460333
-10.7813,12.9889,-297.36,4.01748,-1.20347,-0.657433,-0.00767191,0.00022661,0.00141464,0.00047233,-0.00791763,1.39881,0.00816404,645.208,-85.6836,-25.5312,0.459572,-0.155151,-0.196903,0.00530481,272,387,105.928,26.5834,205.245,139.624,99.7258,100.136,0.000140402,0.000133068,0.000483642
-10.4826,12.9744,-297.307,4.01383,-1.20004,-0.653447,-0.00757421,0.000255765,0.00139367,0.00049643,-0.00781487,1.3998,0.00807454,644.876,-85.6951,-23.4818,0.470612,-0.147216,-0.179202,0.00545094,279,387,105.851,26.5072,206.85,140.318,101.461,100.941,0.000143443,0.000139785,0.000495142
-10.1872,12.9604,-297.264,4.01096,-1.19685,-0.647929,-0.00746501,0.000283107,0.00137643,0.000520362,-0.00770226,1.4001,0.00797519,644.663,-85.7275,-21.2382,0.474994,-0.140272,-0.16469,0.00568176,286,387,105.779,26.4343,208.32,140.996,103.028,101.722,0.000143449,0.000147839,0.000496192
-9.89503,12.9466,-297.231,4.00853,-1.19405,-0.641754,-0.00734379,0.000309544,0.0013606,0.000544234,-0.00757848,1.39999,0.00786474,644.542,-85.8778,-18.6413,0.475192,-0.134882,-0.152936,0.00579079,293,387,105.711,26.3696,209.635,141.671,104.426,102.488,0.000143115,0.000150374,0.000495822
-9.6054,12.933,-297.205,4.00639,-1.19132,-0.635497,-0.00721179,0.000335935,0.00134448,0.000568275,-0.00744413,1.39968,0.00774392,644.51,-85.9647,-16.5378,0.474995,-0.131865,-0.144486,0.00579849,300,387,105.646,26.3045,210.829,142.34,105.694,103.247,0.000145903,0.000150464,0.000505693
-9.31491,12.9196,-297.177,4.00399,-1.18847,-0.630463,-0.00708027,0.000364574,0.00132643,0.000593841,-0.00730954,1.39964,0.00762382,644.491,-86.1375,-14.7258,0.473369,-0.130968,-0.139593,0.00575919,307,387,105.586,26.2399,212.053,142.988,107.008,103.989,0.000147941,0.000148922,0.000512373
-9.02355,12.9061,-297.145,4.00146,-1.18552,-0.625786,-0.00696164,0.000397282,0.0013077,0.000622757,-0.00718712,1.40005,0.00751787,644.438,-86.2143,-13.0168,0.470262,-0.131875,-0.13852,0.0056776,314,387,105.527,26.1753,213.319,143.639,108.369,104.74,0.00014958,0.00014463,0.000517725
-8.73174,12.8927,-297.111,3.99895,-1.18262,-0.620395,-0.00685661,0.000435775,0.00128736,0.000656366,-0.00707721,1.40109,0.00742717,644.308,-86.3204,-11.2748,0.467776,-0.133849,-0.143272,0.00558743,321,387,105.464,26.1084,214.617,144.294,109.754,105.49,0.000147901,0.00014168,0.000511763
-8.4389,12.879,-297.072,3.99608,-1.17952,-0.615178,-0.00675842,0.000479038,0.00126353,0.000693287,-0.00697267,1.40283,0.00734389,644.164,-86.3674,-9.80777,0.46525,-0.136592,-0.153602,0.00539584,328,387,105.395,26.0361,215.962,144.954,111.196,106.249,0.000143199,0.000139133,0.000495634
-8.1434,12.8651,-297.025,3.99291,-1.1762,-0.609555,-0.00666934,0.000522609,0.00123791,0.00072972,-0.00687645,1.40503,0.00726884,644.092,-86.4507,-8.53884,0.463289,-0.141086,-0.164723,0.00518967,335,387,105.319,25.9611,217.448,145.618,112.78,107.019,0.000138835,0.000132402,0.000480691
-7.84585,12.8509,-296.97,3.98955,-1.17248,-0.604426,-0.00659777,0.000563059,0.00121352,0.00076312,-0.00679783,1.40741,0.00720974,643.95,-86.5035,-7.52592,0.463103,-0.145893,-0.172129,0.00517346,342,387,105.244,25.8806,219.038,146.285,114.476,107.806,0.000138802,0.000127544,0.000480833
-7.54772,12.8367,-296.913,3.98654,-1.16874,-0.598753,-0.00655415,0.000599777,0.00118919,0.000792276,-0.00674665,1.41032,0.00717566,643.927,-86.7226,-6.04582,0.464342,-0.150104,-0.174815,0.00535468,349,387,105.175,25.797,220.679,146.948,116.207,108.588,0.000143006,0.000126937,0.000495862
-7.25058,12.8227,-296.858,3.98372,-1.1651,-0.592991,-0.00653972,0.000633023,0.00116251,0.00081673,-0.00672343,1.41407,0.00716678,643.82,-86.8628,-4.6621,0.468151,-0.15287,-0.174061,0.0055359,356,387,105.11,25.7162,222.277,147.608,117.888,109.365,0.000147559,0.000127193,0.000511887
-6.95467,12.8087,-296.806,3.98089,-1.16149,-0.587269,-0.00654102,0.000663247,0.00113533,0.000837929,-0.00671571,1.41813,0.00717148,643.569,-87.024,-3.7744,0.473531,-0.154111,-0.171678,0.00566905,363,387,105.044,25.6328,223.813,148.27,119.508,110.14,0.000151109,0.000127733,0.000524229
-6.66035,12.7948,-296.759,3.97801,-1.15791,-0.581452,-0.00655469,0.000691508,0.00110875,0.000857363,-0.00672054,1.42231,0.00718768,643.363,-87.1887,-2.43247,0.479506,-0.153118,-0.168392,0.00560527,370,387,104.974,25.5484,225.266,148.929,121.046,110.909,0.000149408,0.000126213,0.000518364
-6.36686,12.781,-296.714,3.97523,-1.15431,-0.575343,-0.00658063,0.000717254,0.00108195,0.00087428,-0.00673765,1.42667,0.00721463,643.199,-87.3599,-0.755072,0.486004,-0.149172,-0.164094,0.00542466,377,387,104.905,25.4589,226.682,149.583,122.543,111.671,0.00014452,0.000124544,0.000501472
-6.07404,12.7672,-296.671,3.97269,-1.1506,-0.568845,-0.00662522,0.000740239,0.00105766,0.000889107,-0.00677409,1.43096,0.00725959,643.065,-87.4836,1.45423,0.495258,-0.141231,-0.158516,0.00522739,384,387,104.839,25.3699,228.076,150.23,124.007,112.431,0.000138863,0.000123303,0.000481958
-5.78188,12.7535,-296.629,3.97011,-1.14688,-0.562065,-0.00669481,0.000761869,0.00103656,0.000903281,-0.00683622,1.43521,0.00732973,642.925,-87.5571,3.81643,0.510326,-0.130483,-0.151609,0.00511818,391,387,104.77,25.2823,229.44,150.872,125.438,113.19,0.000135341,0.000123021,0.000470068
-5.49014,12.7398,-296.588,3.96731,-1.14331,-0.555569,-0.00677851,0.000785358,0.00101956,0.00092038,-0.00691353,1.43913,0.00741667,642.801,-87.6152,5.82677,0.528206,-0.119089,-0.147261,0.00514126,398,387,104.697,25.1997,230.775,151.52,126.849,113.95,0.000134059,0.000124723,0.000466536
-5.19836,12.7259,-296.546,3.96406,-1.13966,-0.549553,-0.00686217,0.000813374,0.0010056,0.000942933,-0.00699173,1.44266,0.00750774,642.688,-87.705,7.90167,0.548014,-0.108493,-0.146861,0.00520062,405,387,104.617,25.1182,232.101,152.167,128.266,114.716,0.000134568,0.000126891,0.000469128
-4.90637,12.7121,-296.503,3.96082,-1.13607,-0.543176,-0.00692792,0.000847076,0.000994053,0.000972155,-0.007053,1.44563,0.00758594,642.577,-87.8329,9.40061,0.571761,-0.0986714,-0.151172,0.0052398,412,387,104.536,25.038,233.445,152.814,129.696,115.478,0.000134695,0.000128439,0.000469634
-4.61389,12.6982,-296.458,3.95762,-1.13233,-0.53687,-0.00696965,0.00088616,0.000984583,0.00100768,-0.00709117,1.44799,0.00764498,642.345,-87.9568,10.9283,0.595015,-0.0893953,-0.157065,0.00529699,419,387,104.457,24.9552,234.823,153.461,131.158,116.245,0.000136758,0.000127997,0.000476366
-4.32074,12.6843,-296.409,3.95464,-1.12864,-0.530225,-0.00698774,0.000929475,0.000973925,0.00104752,-0.00710579,1.45018,0.00768329,642.137,-88.1059,12.2888,0.609776,-0.0816839,-0.159836,0.00548332,426,387,104.383,24.8715,236.251,154.113,132.66,117.013,0.000140196,0.000128868,0.000488552
-4.02635,12.6701,-296.356,3.95139,-1.12476,-0.523318,-0.00698073,0.000978352,0.000958316,0.00109211,-0.00709449,1.45264,0.00769886,642.073,-88.2659,13.8378,0.619262,-0.07575,-0.161071,0.00567806,433,387,104.303,24.7832,237.747,154.773,134.234,117.794,0.000142864,0.000132492,0.000498638
-3.73204,12.6562,-296.302,3.94809,-1.12072,-0.516651,-0.00695534,0.00103268,0.000938193,0.0011414,-0.00706405,1.45544,0.00769847,642.028,-88.3691,15.4267,0.628467,-0.0702527,-0.165259,0.00578551,440,387,104.222,24.6886,239.243,155.413,135.81,118.558,0.000143414,0.000133849,0.000501256
-3.43696,12.6423,-296.244,3.94447,-1.11643,-0.509753,-0.00691047,0.00108911,0.000915112,0.00119246,-0.00701382,1.45834,0.0076798,642.029,-88.4701,16.2308,0.638109,-0.0655914,-0.172836,0.00562699,447,387,104.134,24.5866,240.781,156.051,137.432,119.326,0.000139269,0.000131945,0.000486588
-3.14156,12.6284,-296.185,3.94084,-1.112,-0.502946,-0.0068437,0.00114369,0.000891815,0.00124205,-0.00694206,1.46095,0.0076392,642.049,-88.6545,17.5209,0.643356,-0.0615695,-0.18161,0.00547455,454,387,104.046,24.4772,242.342,156.688,139.077,120.093,0.000138745,0.000126848,0.000485132
-2.84531,12.6142,-296.122,3.93724,-1.10741,-0.49574,-0.00675753,0.00119491,0.00086944,0.00128885,-0.00685148,1.46316,0.00757855,642.021,-88.8089,19.4047,0.63647,-0.0589566,-0.186259,0.00552076,461,387,103.958,24.3651,243.962,157.334,140.776,120.874,0.000142048,0.000123881,0.0004983
-2.54851,12.5997,-296.056,3.93358,-1.10271,-0.4886,-0.00665048,0.00124301,0.000843069,0.00133205,-0.00673952,1.46557,0.00749485,641.747,-89.0058,21.3218,0.622506,-0.0580606,-0.186931,0.00546553,468,387,103.87,24.2535,245.618,157.989,142.51,121.669,0.00014137,0.000123453,0.000496387
-2.25136,12.5853,-295.988,3.92983,-1.09797,-0.48141,-0.00651795,0.00128754,0.000810076,0.00137073,-0.00660114,1.46847,0.00738257,641.346,-89.1597,23.1864,0.606802,-0.0594606,-0.185944,0.00529461,475,387,103.78,24.1454,247.3,158.636,144.272,122.461,0.000137426,0.000124141,0.000482306
-1.95383,12.5708,-295.918,3.92608,-1.09334,-0.473532,-0.00635644,0.00132964,0.000774825,0.00140697,-0.00643377,1.47132,0.00724052,640.913,-89.2317,24.5423,0.58849,-0.0630443,-0.185413,0.00504379,482,387,103.687,24.0387,249.017,159.294,146.06,123.26,0.000132223,0.000121977,0.000462904
-1.65696,12.5564,-295.849,3.92232,-1.08869,-0.46528,-0.00616518,0.00137127,0.000739597,0.00144317,-0.00623708,1.47389,0.00707001,640.645,-89.3137,26.2547,0.562948,-0.0693245,-0.184915,0.00505006,489,387,103.591,23.9291,250.707,159.943,147.819,124.047,0.000133166,0.000120956,0.000466259
-1.35907,12.5419,-295.776,3.91832,-1.0837,-0.457174,-0.005956,0.00141367,0.000709578,0.00148137,-0.0060237,1.47568,0.00688496,640.546,-89.4648,27.8752,0.529302,-0.0775768,-0.183187,0.00530553,496,387,103.492,23.8123,252.457,160.589,149.642,124.844,0.000139703,0.000122363,0.000489927
-1.05894,12.5272,-295.694,3.91397,-1.07833,-0.449468,-0.00573946,0.00145665,0.00068733,0.00152171,-0.00580452,1.47642,0.00669634,640.485,-89.6858,29.5264,0.491428,-0.0859799,-0.177071,0.00556846,503,387,103.389,23.6869,254.332,161.238,151.6,125.653,0.000145857,0.000127349,0.000512077
-0.756818,12.5125,-295.603,3.90953,-1.07273,-0.44189,-0.00551778,0.00150116,0.000669476,0.00156445,-0.00558106,1.47655,0.00650593,640.231,-89.9006,30.5907,0.455079,-0.0952627,-0.167319,0.00569178,510,387,103.287,23.5573,256.329,161.878,153.681,126.459,0.000147606,0.000136033,0.000517612
-0.453581,12.498,-295.508,3.90509,-1.06711,-0.433611,-0.0053099,0.00154652,0.000652959,0.00160815,-0.00537153,1.47669,0.00633069,639.812,-89.9723,31.8624,0.426542,-0.105619,-0.155877,0.0057165,517,387,103.183,23.4263,258.409,162.507,155.836,127.255,0.000144539,0.000143271,0.000504521
-0.150548,12.4833,-295.413,3.90096,-1.06159,-0.424784,-0.00512965,0.00159269,0.000636453,0.00165242,-0.00518938,1.47723,0.00618346,639.392,-90.0096,33.3447,0.409035,-0.116779,-0.144037,0.00566094,524,387,103.083,23.3001,260.501,163.151,157.988,128.064,0.000142204,0.000146399,0.000493985
0.149653,12.4685,-295.326,3.89743,-1.05625,-0.415901,-0.00494545,0.0016428,0.000632498,0.00170298,-0.00500562,1.47595,0.00603994,638.99,-90.0478,35.0121,0.391118,-0.12885,-0.130506,0.00564366,531,387,102.996,23.1725,262.455,163.807,159.988,128.876,0.000144185,0.000143962,0.000501139
0.445742,12.4543,-295.254,3.8945,-1.0512,-0.407721,-0.00481182,0.00169508,0.000636389,0.00175673,-0.00487348,1.47421,0.00594964,638.728,-90.2154,36.4933,0.373633,-0.141429,-0.112101,0.00566613,538,387,102.925,23.052,264.189,164.436,161.759,129.654,0.000148277,0.000139343,0.000516725
0.739468,12.4406,-295.189,3.89172,-1.04641,-0.400289,-0.00473437,0.00174814,0.000641243,0.00181097,-0.00479719,1.47314,0.0059144,638.508,-90.3687,37.7861,0.359618,-0.154783,-0.0890039,0.00567626,545,387,102.861,22.9363,265.79,165.049,163.402,130.408,0.000148631,0.000134385,0.000518825
1.03143,12.4266,-295.129,3.88877,-1.04179,-0.393456,-0.00472967,0.00180108,0.000641781,0.00186355,-0.00479214,1.47376,0.00594709,638.331,-90.4604,38.3515,0.362167,-0.167458,-0.0660531,0.00567666,552,387,102.796,22.8202,267.285,165.687,164.948,131.179,0.000147768,0.000133731,0.000515872
1.32217,12.4126,-295.073,3.88583,-1.03718,-0.386586,-0.00483049,0.00185182,0.000636067,0.00191183,-0.00489049,1.47674,0.00607633,638.146,-90.5041,39.7111,0.391155,-0.178901,-0.0471201,0.00574439,559,387,102.73,22.7111,268.716,166.316,166.43,131.947,0.00015036,0.000138504,0.000523447
1.61159,12.3985,-295.021,3.88276,-1.03272,-0.379221,-0.00506408,0.00189979,0.000622465,0.00195499,-0.00511928,1.48235,0.00632749,638.016,-90.6189,41.376,0.445826,-0.189247,-0.0303869,0.00584999,566,387,102.656,22.6043,270.076,166.952,167.84,132.718,0.000153037,0.00014249,0.000531394
1.90005,12.3849,-294.972,3.87962,-1.0284,-0.37083,-0.00540262,0.00194817,0.000582146,0.00199398,-0.00544844,1.49225,0.00667275,637.868,-90.7902,43.2163,0.531205,-0.198804,-0.00927201,0.00599803,573,387,102.573,22.5049,271.394,167.567,169.202,133.466,0.000155047,0.000142149,0.000536432
0,0,0,0,0,0,0,0,0,0,0,0,0,0,0,0,0,0,0,-1,580,387,0,0,0,0,0,0,0,0,0
0,0,0,0,0,0,0,0,0,0,0,0,0,0,0,0,0,0,0,-1,587,387,0,0,0,0,0,0,0,0,0
0,0,0,0,0,0,0,0,0,0,0,0,0,0,0,0,0,0,0,-1,594,387,0,0,0,0,0,0,0,0,0
0,0,0,0,0,0,0,0,0,0,0,0,0,0,0,0,0,0,0,-1,601,387,0,0,0,0,0,0,0,0,0
0,0,0,0,0,0,0,0,0,0,0,0,0,0,0,0,0,0,0,-1,62,394,0,0,0,0,0,0,0,0,0
0,0,0,0,0,0,0,0,0,0,0,0,0,0,0,0,0,0,0,-1,69,394,0,0,0,0,0,0,0,0,0
0,0,0,0,0,0,0,0,0,0,0,0,0,0,0,0,0,0,0,-1,76,394,0,0,0,0,0,0,0,0,0
-18.5649,13.0733,-297.686,4.08184,-1.24648,-0.719193,-0.00809058,0.00121408,0.00073801,0.00127226,-0.00814876,1.49214,0.00885371,644.69,-80.6398,-73.7855,0.158506,-0.288685,-0.0494869,0.00760149,83,394,107.265,27.5024,175.915,122.067,66.9412,80.936,0.000208721,0.000206027,0.000692278
-18.2874,13.061,-297.709,4.07972,-1.24618,-0.718884,-0.0079353,0.00108996,0.000793487,0.00115919,-0.00800453,1.48377,0.00864263,644.722,-80.9553,-72.6996,0.217614,-0.269325,-0.0591501,0.00674646,90,394,107.222,27.5035,176.481,122.742,67.6583,81.6454,0.000180543,0.0001765,0.000613296
-18.0077,13.0485,-297.726,4.07771,-1.24584,-0.718527,-0.0077813,0.000970054,0.000858781,0.00105353,-0.00786478,1.4739,0.008441,644.897,-81.196,-70.9493,0.247711,-0.259266,-0.0722096,0.00526823,97,394,107.185,27.503,177.157,123.423,68.4813,82.3605,0.000134891,0.000133857,0.000481806
-17.7264,13.036,-297.738,4.07538,-1.24538,-0.718546,-0.00764039,0.000851547,0.00093126,0.000952473,-0.00774131,1.46284,0.00825885,645.094,-81.4612,-68.8817,0.257325,-0.252907,-0.08492,0.00498568,104,394,107.144,27.4958,177.891,124.103,69.3718,83.0749,0.000128256,0.000126364,0.000456764
-17.4443,13.0234,-297.747,4.07308,-1.24472,-0.718257,-0.00751874,0.000732536,0.00101037,0.000854455,-0.00764066,1.45071,0.00810175,645.324,-81.7631,-66.4582,0.261101,-0.248599,-0.0931784,0.00486152,111,394,107.102,27.483,178.667,124.784,70.2997,83.7945,0.000124902,0.000123929,0.000445634
-17.1604,13.0107,-297.75,4.07103,-1.24393,-0.717624,-0.00742371,0.000614473,0.00109175,0.000760117,-0.00756935,1.43818,0.00797662,645.504,-82.0167,-63.8939,0.270225,-0.246428,-0.0955604,0.00476463,118,394,107.066,27.4663,179.536,125.469,71.31,84.5197,0.00012046,0.000121828,0.000429617
-16.8751,12.9977,-297.749,4.06915,-1.24297,-0.716342,-0.00736124,0.000500168,0.00116909,0.000670342,-0.00753142,1.42625,0.00788798,645.533,-82.23,-61.5896,0.28516,-0.246809,-0.0921187,0.00466485,125,394,107.031,27.4477,180.482,126.158,72.3852,85.2545,0.000116665,0.000119421,0.000415462
-16.5891,12.9847,-297.745,4.06728,-1.24196,-0.714716,-0.00732758,0.000391026,0.0012416,0.00058583,-0.00752238,1.41517,0.00783174,645.462,-82.4629,-59.6775,0.303604,-0.249696,-0.0836411,0.00463146,132,394,106.994,27.4302,181.463,126.847,73.4927,85.9934,0.000116333,0.000118726,0.000412016
-16.3032,12.9718,-297.742,4.06536,-1.241,-0.712899,-0.0073053,0.000286985,0.00130806,0.000506027,-0.00752434,1.40488,0.00778969,645.453,-82.7472,-57.9581,0.326575,-0.252714,-0.0709811,0.00495062,139,394,106.956,27.4114,182.437,127.535,74.5913,86.7266,0.000128601,0.000127925,0.000446718
-16.0188,12.9588,-297.742,4.06351,-1.24006,-0.710788,-0.00730125,0.00019066,0.00137399,0.000434695,-0.00754529,1.39502,0.00777176,645.471,-82.9616,-56.752,0.348105,-0.257526,-0.0570575,0.00541048,146,394,106.915,27.3914,183.342,128.226,75.6177,87.4616,0.000146331,0.000140206,0.000500734
-15.7342,12.9459,-297.742,4.06148,-1.23898,-0.708586,-0.00730897,0.000103151,0.00143648,0.000371804,-0.00757762,1.38591,0.0077702,645.461,-83.1169,-55.2286,0.365228,-0.262575,-0.0451081,0.00577054,153,394,106.87,27.3686,184.245,128.912,76.6453,88.1959,0.000157898,0.000148674,0.000536409
-15.4494,12.9328,-297.741,4.0593,-1.23768,-0.706686,-0.00732232,2.68026e-05,0.00148839,0.000316797,-0.00761232,1.37837,0.00777555,645.596,-83.2136,-53.3825,0.378675,-0.267769,-0.0363947,0.00573847,160,394,106.824,27.3446,185.151,129.593,77.6802,88.9359,0.000156033,0.000145801,0.000532874
-15.1638,12.9197,-297.738,4.05698,-1.23623,-0.704829,-0.00734622,-3.72811e-05,0.00152742,0.000269078,-0.00765258,1.37285,0.0077906,645.797,-83.3189,-51.1212,0.389581,-0.270933,-0.0303427,0.00538359,167,394,106.776,27.3168,186.09,130.269,78.752,89.6729,0.000144972,0.000136185,0.000499478
-14.8772,12.9067,-297.73,4.05453,-1.23474,-0.702966,-0.0073793,-8.83238e-05,0.001555,0.000229472,-0.0076971,1.3692,0.00781436,645.957,-83.3991,-48.7101,0.397545,-0.271173,-0.0274404,0.00500262,174,394,106.726,27.2877,187.077,130.942,79.8736,90.4092,0.000134428,0.000125721,0.000467614
-14.5895,12.8936,-297.719,4.05215,-1.23322,-0.700473,-0.00741112,-0.000125705,0.00157166,0.000198882,-0.00773571,1.36713,0.00783704,645.996,-83.4839,-46.4956,0.401033,-0.2676,-0.0306886,0.00492694,181,394,106.674,27.2537,188.125,131.621,81.0483,91.1468,0.000131847,0.000126039,0.000459964
-14.3005,12.8805,-297.703,4.04994,-1.2315,-0.69758,-0.00743421,-0.000149696,0.00158086,0.000178583,-0.00776249,1.36605,0.00785331,645.956,-83.5413,-44.4155,0.397767,-0.260375,-0.0435124,0.00495442,188,394,106.626,27.2148,189.246,132.299,82.2872,91.8884,0.000132799,0.000126214,0.000463769
-14.0104,12.8675,-297.684,4.04775,-1.22972,-0.69394,-0.00744829,-0.000159659,0.0015831,0.000169342,-0.00777729,1.36589,0.00786333,645.878,-83.5704,-42.5793,0.391412,-0.250066,-0.0658954,0.00498937,195,394,106.573,27.1752,190.424,132.964,83.5744,92.6187,0.000133651,0.00012741,0.00046614
-13.7191,12.8541,-297.661,4.04549,-1.22773,-0.6901,-0.00746224,-0.000156444,0.0015778,0.000169744,-0.00778842,1.36693,0.00787467,645.771,-83.6015,-40.4278,0.384747,-0.237287,-0.094261,0.00500881,202,394,106.519,27.1321,191.667,133.646,84.9256,93.3726,0.000133125,0.000124043,0.000463107
-13.4274,12.8405,-297.636,4.043,-1.22558,-0.686324,-0.00748626,-0.000140474,0.00156517,0.000179115,-0.00780585,1.36938,0.00789693,645.635,-83.7747,-38.7365,0.375877,-0.222921,-0.126689,0.00486944,209,394,106.461,27.0874,192.924,134.329,86.2967,94.134,0.000129663,0.000119228,0.00044999
-13.1361,12.827,-297.611,4.04045,-1.22348,-0.68265,-0.00752326,-0.000115072,0.00154736,0.00019514,-0.00783347,1.37294,0.00793284,645.546,-83.9965,-37.1515,0.362621,-0.208243,-0.159472,0.00468355,216,394,106.402,27.0436,194.156,135.013,87.6438,94.8951,0.000125397,0.000116761,0.000434317
-12.8457,12.8134,-297.589,4.03792,-1.22138,-0.678976,-0.00756701,-8.57147e-05,0.00152911,0.000214753,-0.00786748,1.37677,0.00797703,645.503,-84.1503,-35.5288,0.352388,-0.194473,-0.18784,0.00448178,223,394,106.343,26.9978,195.346,135.696,88.9487,95.6536,0.00011916,0.000114883,0.000411772
-12.5556,12.8,-297.568,4.03545,-1.21928,-0.675018,-0.00760278,-5.40823e-05,0.00151033,0.000236886,-0.00789375,1.38048,0.00801481,645.512,-84.2062,-34.0507,0.354157,-0.180925,-0.210508,0.00438682,230,394,106.284,26.9517,196.518,136.376,90.2313,96.4082,0.000114569,0.00011245,0.000394455
-12.2656,12.7865,-297.546,4.03303,-1.21716,-0.670924,-0.00762646,-2.00688e-05,0.0014858,0.000259861,-0.00790639,1.38458,0.00803947,645.523,-84.3632,-32.4379,0.36512,-0.169215,-0.226588,0.004304,237,394,106.225,26.9042,197.694,137.054,91.5143,97.1602,0.000108368,0.000111155,0.000372538
-11.9756,12.7733,-297.524,4.03054,-1.21497,-0.66692,-0.00763849,1.44335e-05,0.00145698,0.000282433,-0.00790649,1.38889,0.00805142,645.448,-84.6796,-30.8302,0.381286,-0.159739,-0.236632,0.00431779,244,394,106.166,26.8558,198.866,137.716,92.7949,97.9,0.000107357,0.000112963,0.000369173
-11.6854,12.7602,-297.501,4.02803,-1.21272,-0.663131,-0.00763427,4.92964e-05,0.00142815,0.000306161,-0.00789113,1.39284,0.00804858,645.421,-85.0823,-29.134,0.398475,-0.15266,-0.240276,0.00438567,251,394,106.108,26.8041,200.047,138.377,94.0868,98.6373,0.000111169,0.000115565,0.000382183
-11.3933,12.7471,-297.471,4.02534,-1.21022,-0.659168,-0.00761188,8.37383e-05,0.00140098,0.000330851,-0.00785899,1.39621,0.00802953,645.387,-85.3832,-27.6428,0.415264,-0.147424,-0.2351,0.00454901,258,394,106.047,26.7461,201.327,139.028,95.4774,99.3716,0.000118799,0.000119415,0.000408437
-11.0977,12.7337,-297.429,4.02227,-1.20739,-0.655055,-0.00756355,0.000115734,0.00137687,0.000355138,-0.00780295,1.39864,0.00798645,645.288,-85.6016,-26.2679,0.43225,-0.142463,-0.22128,0.00483549,265,394,105.979,26.6798,202.779,139.685,97.0468,100.12,0.000128035,0.00012469,0.000440587
-10.8004,12.7198,-297.382,4.01897,-1.20421,-0.651026,-0.00749201,0.000144496,0.00135527,0.000377884,-0.0077254,1.40026,0.00792111,645.015,-85.5961,-24.9799,0.44902,-0.137582,-0.203216,0.00515235,272,394,105.909,26.6057,204.318,140.358,98.7081,100.893,0.000135316,0.000131944,0.00046616
-10.504,12.7056,-297.336,4.01569,-1.20096,-0.646719,-0.00740802,0.000171333,0.00133609,0.000399963,-0.00763665,1.40132,0.00784428,644.736,-85.6502,-22.5713,0.464534,-0.132641,-0.184947,0.00546392,279,394,105.836,26.5319,205.809,141.045,100.318,101.684,0.000140491,0.000141452,0.00048497
-10.2092,12.6917,-297.295,4.01305,-1.19796,-0.641115,-0.0073134,0.000197905,0.00132063,0.000423333,-0.00753883,1.40173,0.00775916,644.487,-85.7236,-20.286,0.472266,-0.128482,-0.169334,0.00575377,286,394,105.769,26.4617,207.252,141.723,101.853,102.458,0.000142328,0.000149685,0.000492304
-9.91819,12.6784,-297.266,4.01067,-1.19522,-0.634896,-0.0072074,0.000225274,0.00130658,0.000448265,-0.00743039,1.40176,0.00766436,644.389,-85.8723,-17.6833,0.474217,-0.125467,-0.155926,0.00594078,293,394,105.7,26.3966,208.509,142.377,103.191,103.201,0.000144484,0.000154563,0.000500744
-9.62687,12.6646,-297.236,4.00829,-1.19231,-0.628991,-0.00708901,0.000253839,0.00129199,0.000474536,-0.00730971,1.40161,0.00755816,644.323,-85.9954,-15.655,0.474458,-0.124617,-0.145363,0.00602524,300,394,105.634,26.3306,209.781,143.049,104.545,103.968,0.000149554,0.000156674,0.000518436
-9.33396,12.6512,-297.199,4.00567,-1.18921,-0.623676,-0.00696609,0.000284865,0.00127541,0.000502663,-0.00718388,1.40166,0.00744795,644.34,-86.1732,-13.7937,0.472467,-0.125322,-0.138661,0.00595065,307,394,105.569,26.2616,211.129,143.697,105.985,104.719,0.000150989,0.000154595,0.000523295
-9.04039,12.6374,-297.16,4.00301,-1.18598,-0.618611,-0.00685022,0.000319186,0.00125833,0.000533625,-0.00706466,1.402,0.00734602,644.349,-86.3105,-12.117,0.469187,-0.127143,-0.13668,0.00571395,314,394,105.506,26.1929,212.511,144.356,107.46,105.486,0.000150106,0.000147226,0.000519978
-8.74661,12.6237,-297.12,4.00032,-1.18287,-0.613234,-0.0067435,0.000358397,0.00124015,0.000568727,-0.00695383,1.4028,0.00725493,644.322,-86.4608,-10.3645,0.466297,-0.129342,-0.141262,0.00553789,321,394,105.441,26.1211,213.909,145.015,108.949,106.244,0.000146112,0.00014085,0.000505891
-8.452,12.6099,-297.076,3.99735,-1.17963,-0.607982,-0.00664219,0.000402288,0.0012201,0.000607625,-0.00684753,1.40406,0.00717067,644.237,-86.5201,-8.90917,0.462492,-0.131736,-0.151844,0.00538442,328,394,105.371,26.0451,215.345,145.682,110.483,107.013,0.000142224,0.000137352,0.00049222
-8.15528,12.596,-297.024,3.99409,-1.17617,-0.602483,-0.00655061,0.000446656,0.0011997,0.000646634,-0.00675058,1.40563,0.00709603,644.09,-86.5241,-7.86275,0.457906,-0.135197,-0.163762,0.00526239,335,394,105.295,25.9661,216.893,146.343,112.132,107.783,0.000139508,0.000133205,0.000482722
-7.8578,12.582,-296.97,3.99087,-1.17249,-0.59722,-0.00647674,0.000488466,0.00118093,0.000683241,-0.00667152,1.40733,0.00703805,643.85,-86.575,-6.92755,0.45471,-0.138159,-0.17259,0.00514872,342,394,105.223,25.8847,218.485,147.004,113.824,108.562,0.000137931,0.000130113,0.000477566
-7.56024,12.568,-296.914,3.98799,-1.16881,-0.591533,-0.00642883,0.000526699,0.00116178,0.00071562,-0.00661775,1.40959,0.00700304,643.686,-86.7352,-5.51355,0.453779,-0.139808,-0.177034,0.00521778,349,394,105.156,25.803,220.099,147.663,115.524,109.337,0.000139562,0.000130279,0.000483772
-7.26352,12.5541,-296.861,3.98527,-1.16516,-0.585705,-0.00640992,0.000561473,0.00113985,0.000743109,-0.00659156,1.41277,0.00699279,643.524,-86.8524,-4.11731,0.456157,-0.139508,-0.177893,0.00532905,356,394,105.093,25.724,221.678,148.315,117.184,110.107,0.000141153,0.000130363,0.000489893
-6.96779,12.5402,-296.81,3.98248,-1.16159,-0.580052,-0.00641042,0.000593385,0.00111703,0.000767224,-0.00658426,1.41641,0.00699948,643.358,-86.9597,-2.91866,0.461301,-0.137426,-0.176721,0.00542988,363,394,105.028,25.6432,223.204,148.974,118.794,110.879,0.000143692,0.000130859,0.000498768
-6.67337,12.5263,-296.762,3.97961,-1.15802,-0.574424,-0.00642808,0.000623706,0.00109464,0.000789717,-0.00659409,1.42029,0.00702233,643.215,-87.1298,-1.31583,0.467927,-0.133034,-0.174541,0.00537724,370,394,104.961,25.5601,224.661,149.632,120.337,111.648,0.00014319,0.000129117,0.000496718
-6.37975,12.5126,-296.717,3.97687,-1.15446,-0.568268,-0.00646066,0.000651799,0.00107198,0.000809853,-0.00661871,1.42441,0.00705857,643.056,-87.3345,0.403166,0.475888,-0.125772,-0.171341,0.00529397,377,394,104.893,25.4728,226.087,150.288,121.841,112.411,0.000141391,0.000126252,0.000490229
-6.08695,12.4989,-296.674,3.97424,-1.15084,-0.561925,-0.00651099,0.000676805,0.00105126,0.000827403,-0.00666159,1.42851,0.00711148,642.906,-87.4767,2.6347,0.486725,-0.115172,-0.166545,0.00522192,384,394,104.826,25.3841,227.476,150.937,123.303,113.169,0.000139233,0.00012381,0.000482896
-5.79464,12.4852,-296.632,3.97161,-1.1471,-0.555218,-0.00658518,0.00070015,0.00103252,0.000843658,-0.00672868,1.43269,0.00718774,642.76,-87.5165,4.90975,0.503671,-0.102491,-0.159255,0.00520293,391,394,104.756,25.2956,228.845,151.578,124.742,113.926,0.000138423,0.000122668,0.000480487
-5.50257,12.4716,-296.59,3.96874,-1.14342,-0.548831,-0.00667171,0.000725073,0.00101609,0.000862114,-0.00680875,1.43673,0.0072782,642.636,-87.5807,6.7994,0.523588,-0.0899229,-0.153601,0.00521429,398,394,104.683,25.2113,230.197,152.218,126.171,114.682,0.000138196,0.00012232,0.00048053
-5.21038,12.4578,-296.547,3.96566,-1.13983,-0.542261,-0.00675732,0.000753981,0.00100116,0.000885132,-0.00688847,1.44054,0.00737101,642.467,-87.6586,8.73965,0.545218,-0.0788139,-0.151563,0.0052216,405,394,104.604,25.1297,231.555,152.866,127.61,115.443,0.000138807,0.000124009,0.000483085
-4.91786,12.444,-296.502,3.96245,-1.13628,-0.535952,-0.00682588,0.000788326,0.000987237,0.000914246,-0.0069518,1.44393,0.00745111,642.34,-87.8152,10.1008,0.570307,-0.0693179,-0.154238,0.00524628,412,394,104.525,25.0509,232.929,153.514,129.071,116.206,0.000139864,0.000124591,0.000486629
-4.62506,12.4302,-296.455,3.95928,-1.13261,-0.529488,-0.00687028,0.000828592,0.000974508,0.000950029,-0.00699172,1.44682,0.00751192,642.087,-88.0082,11.4817,0.59279,-0.0611303,-0.158377,0.00524641,419,394,104.447,24.9681,234.326,154.163,130.55,116.971,0.000139385,0.000126368,0.000484946
-4.3315,12.4162,-296.405,3.95614,-1.12881,-0.523073,-0.00688979,0.000873709,0.000959813,0.000990612,-0.00700669,1.4496,0.00755089,641.968,-88.1971,12.8406,0.605988,-0.0546148,-0.15988,0.00537066,426,394,104.371,24.8822,235.771,154.815,132.074,117.742,0.000139336,0.000130048,0.000485483
-4.03688,12.4021,-296.351,3.95292,-1.12492,-0.51613,-0.00688221,0.000923881,0.000939749,0.00103542,-0.00699375,1.45266,0.00756479,641.837,-88.3901,14.1049,0.615417,-0.049546,-0.161064,0.00560479,433,394,104.291,24.7925,237.282,155.476,133.661,118.523,0.00014004,0.000136172,0.000489154
-3.74168,12.3884,-296.294,3.94958,-1.12072,-0.50934,-0.00685586,0.00097909,0.00091582,0.00108472,-0.00696149,1.45597,0.00756242,641.761,-88.5174,15.605,0.625906,-0.0450398,-0.165874,0.00570518,440,394,104.21,24.6953,238.828,156.104,135.286,119.28,0.000139322,0.000137701,0.000487394
-3.44588,12.3748,-296.234,3.94601,-1.11644,-0.502578,-0.00681241,0.00103671,0.000889811,0.00113631,-0.00691202,1.45932,0.00754463,641.731,-88.5769,16.6034,0.636385,-0.0418887,-0.17395,0.00557434,447,394,104.124,24.592,240.408,156.734,136.949,120.036,0.000136921,0.000136189,0.000478747
-3.14996,12.3611,-296.173,3.94245,-1.112,-0.495684,-0.00675012,0.00109326,0.000864264,0.00118736,-0.00684423,1.46234,0.00750865,641.654,-88.6838,18.0353,0.640981,-0.0402483,-0.182273,0.0055067,454,394,104.038,24.4812,242.002,157.361,138.625,120.792,0.000140761,0.000131718,0.000492654
-2.85262,12.3472,-296.106,3.93878,-1.10733,-0.488595,-0.00666871,0.00114689,0.000839639,0.00123607,-0.0067579,1.46497,0.00745321,641.527,-88.7405,19.7831,0.632816,-0.0407936,-0.185397,0.00555291,461,394,103.951,24.3672,243.682,157.994,140.385,121.561,0.000143851,0.000129311,0.000504505
-2.55508,12.3329,-296.037,3.93503,-1.10244,-0.481506,-0.00656429,0.00119734,0.000811021,0.00128118,-0.00664813,1.46779,0.00737269,641.359,-88.9044,21.9351,0.618118,-0.043341,-0.183786,0.00549126,468,394,103.861,24.2525,245.379,158.636,142.162,122.349,0.000142605,0.000124826,0.0005
-2.25676,12.3183,-295.965,3.93103,-1.09756,-0.474579,-0.00643239,0.00124382,0.000776073,0.00132149,-0.00651006,1.47104,0.00726156,641.009,-88.9978,23.7006,0.602864,-0.0485103,-0.180121,0.00529642,475,394,103.769,24.1413,247.12,159.29,143.99,123.152,0.000137806,0.000122673,0.00048226
-1.95784,12.3037,-295.89,3.92706,-1.09279,-0.466749,-0.00627109,0.00128756,0.000739346,0.0013592,-0.00634273,1.4742,0.0071203,640.624,-89.0064,24.9326,0.584426,-0.0560445,-0.176552,0.004994,482,394,103.672,24.0338,248.911,159.95,145.857,123.958,0.000131242,0.000119437,0.000458014
-1.65959,12.2893,-295.816,3.92324,-1.08803,-0.45832,-0.00608143,0.00133028,0.000704048,0.00139657,-0.00614772,1.47692,0.00695202,640.415,-89.1218,26.7782,0.558006,-0.0663691,-0.17287,0.00508052,489,394,103.575,23.9226,250.682,160.603,147.695,124.753,0.000134105,0.000119109,0.000468399
-1.3612,12.275,-295.741,3.91931,-1.08302,-0.450364,-0.00587489,0.00137277,0.000675889,0.00143526,-0.00593738,1.4786,0.00677009,640.255,-89.2949,28.4233,0.523933,-0.07833,-0.168595,0.00538205,496,394,103.479,23.8074,252.463,161.239,149.548,125.54,0.000141627,0.000121635,0.00049594
-1.06145,12.2605,-295.661,3.91512,-1.07766,-0.44257,-0.00566035,0.0014155,0.000656915,0.00147597,-0.00572082,1.479,0.00658407,640.108,-89.4778,30.0691,0.486476,-0.0899227,-0.16053,0.00569281,503,394,103.379,23.685,254.324,161.877,151.487,126.34,0.000148822,0.000127271,0.000521779
-0.760158,12.2459,-295.573,3.91089,-1.07228,-0.434764,-0.00544023,0.00146064,0.000643836,0.0015202,-0.00549979,1.47856,0.00639683,639.891,-89.6935,31.3598,0.450891,-0.101367,-0.149721,0.00580763,510,394,103.281,23.559,256.282,162.527,153.522,127.149,0.000150317,0.000136658,0.000526392
-0.458076,12.2313,-295.482,3.90663,-1.06686,-0.426325,-0.00523422,0.00150805,0.000633737,0.0015671,-0.00529327,1.47789,0.00622652,639.465,-89.7784,32.6292,0.422163,-0.113131,-0.138384,0.00577926,517,394,103.179,23.4312,258.302,163.172,155.612,127.952,0.000147144,0.000143519,0.000512784
-0.156238,12.2165,-295.391,3.90273,-1.06142,-0.41739,-0.00505576,0.0015569,0.000624594,0.00161538,-0.00511424,1.47744,0.00608492,638.985,-89.883,33.9034,0.404672,-0.125418,-0.127538,0.00570916,524,394,103.084,23.3058,260.332,163.828,157.696,128.77,0.0001439,0.000147471,0.000499245
0.143304,12.2018,-295.307,3.89917,-1.0561,-0.408447,-0.00487597,0.00161051,0.000629203,0.00167098,-0.00493644,1.47498,0.00595058,638.634,-89.9504,35.7563,0.387551,-0.137908,-0.11534,0.00574613,531,394,102.995,23.1813,262.248,164.481,159.658,129.58,0.000145323,0.000147371,0.000504056
0.439453,12.1877,-295.234,3.89607,-1.05104,-0.400575,-0.00474644,0.00166895,0.000642669,0.00173269,-0.00481019,1.47193,0.00587152,638.334,-90.0951,37.2098,0.37092,-0.150055,-0.0992657,0.00579641,538,394,102.922,23.0607,263.98,165.109,161.434,130.358,0.000150601,0.000144163,0.000523608
0.73353,12.1742,-295.168,3.89307,-1.04619,-0.393534,-0.00467024,0.00173094,0.000657618,0.0017978,-0.0047371,1.46947,0.0058471,638.092,-90.2768,38.3048,0.359057,-0.161713,-0.0804088,0.00581622,545,394,102.856,22.9439,265.594,165.71,163.099,131.102,0.000152795,0.000141098,0.000531803
1.0265,12.1605,-295.104,3.88991,-1.04146,-0.386804,-0.00466238,0.0017952,0.000668427,0.00186367,-0.00473085,1.46873,0.0058882,637.913,-90.4096,38.8204,0.365189,-0.171657,-0.0635952,0.00584107,552,394,102.787,22.8266,267.144,166.329,164.706,131.857,0.000152654,0.000140684,0.000531763
1.31862,12.1469,-295.043,3.88684,-1.03677,-0.380047,-0.00475465,0.00185936,0.000672535,0.00192705,-0.00482234,1.47048,0.00602174,637.733,-90.412,39.8612,0.397509,-0.180303,-0.0518275,0.00590948,559,394,102.719,22.7144,268.654,166.942,166.27,132.61,0.000154857,0.000144327,0.000538115
1.60909,12.1327,-294.988,3.88389,-1.03219,-0.372314,-0.00497027,0.00192225,0.000666592,0.00198613,-0.00503415,1.47526,0.00626784,637.587,-90.467,41.614,0.453063,-0.189248,-0.0421192,0.00596404,566,394,102.648,22.603,270.085,167.585,167.744,133.387,0.000156389,0.00014459,0.000541819
1.89826,12.1189,-294.936,3.88095,-1.02783,-0.363617,-0.00527764,0.00198539,0.000631275,0.00203985,-0.0053321,1.48474,0.0065931,637.387,-90.612,43.6092,0.53809,-0.19942,-0.028014,0.00606082,573,394,102.569,22.4994,271.455,168.215,169.147,134.148,0.000157389,0.000141434,0.000544056
0,0,0,0,0,0,0,0,0,0,0,0,0,0,0,0,0,0,0,-1,580,394,0,0,0,0,0,0,0,0,0
0,0,0,0,0,0,0,0,0,0,0,0,0,0,0,0,0,0,0,-1,587,394,0,0,0,0,0,0,0,0,0
0,0,0,0,0,0,0,0,0,0,0,0,0,0,0,0,0,0,0,-1,594,394,0,0,0,0,0,0,0,0,0
0,0,0,0,0,0,0,0,0,0,0,0,0,0,0,0,0,0,0,-1,601,394,0,0,0,0,0,0,0,0,0
0,0,0,0,0,0,0,0,0,0,0,0,0,0,0,0,0,0,0,-1,62,401,0,0,0,0,0,0,0,0,0
0,0,0,0,0,0,0,0,0,0,0,0,0,0,0,0,0,0,0,-1,69,401,0,0,0,0,0,0,0,0,0
0,0,0,0,0,0,0,0,0,0,0,0,0,0,0,0,0,0,0,-1,76,401,0,0,0,0,0,0,0,0,0
-18.5936,12.803,-297.734,4.0825,-1.24796,-0.712442,-0.00797585,0.0013008,0.000709547,0.00135475,-0.00802981,1.4949,0.00878587,644.876,-80.7127,-72.734,0.127946,-0.29578,-0.079421,0.00824432,83,401,107.209,27.5371,174.505,122.894,65.4714,81.7725,0.000225242,0.000226903,0.00074018
-18.3163,12.7907,-297.759,4.08042,-1.2476,-0.712379,-0.00784548,0.00116822,0.000760035,0.00123185,-0.00790912,1.48726,0.00859153,644.942,-80.9371,-71.6404,0.193356,-0.27868,-0.0821243,0.00728999,90,401,107.169,27.5356,175.059,123.562,66.1776,82.476,0.000194723,0.000193423,0.000653309
-18.0371,12.7782,-297.777,4.07846,-1.2472,-0.712027,-0.00770748,0.00103911,0.000823799,0.00111602,-0.00778439,1.4777,0.0083982,645.083,-81.1902,-70.2654,0.229353,-0.269931,-0.090628,0.00543165,97,401,107.133,27.5334,175.71,124.237,66.9737,83.1865,0.00013893,0.000138034,0.000492647
-17.7561,12.7657,-297.79,4.07609,-1.24676,-0.712041,-0.00757407,0.000911061,0.000896929,0.00100483,-0.00766785,1.46662,0.00821648,645.268,-81.4549,-68.374,0.243804,-0.26468,-0.100909,0.00493252,104,401,107.091,27.5271,176.427,124.916,67.8483,83.8989,0.000127034,0.000125302,0.000452771
-17.4742,12.7532,-297.799,4.07372,-1.24612,-0.711818,-0.00745301,0.00078293,0.000977395,0.000897332,-0.00756741,1.45428,0.00805366,645.383,-81.7381,-66.2334,0.251068,-0.261227,-0.10798,0.00487266,111,401,107.048,27.5155,177.189,125.593,68.7644,84.6142,0.00012643,0.000124361,0.000450117
-17.1904,12.7405,-297.803,4.07169,-1.24533,-0.711302,-0.00735366,0.000656622,0.00105964,0.000794425,-0.00749146,1.44147,0.00791862,645.489,-82.007,-63.7623,0.262926,-0.259604,-0.109438,0.00481668,118,401,107.013,27.5005,178.052,126.274,69.769,85.3369,0.000123849,0.000123102,0.000440889
-16.9049,12.7275,-297.802,4.06986,-1.24432,-0.710129,-0.00728355,0.000534965,0.00113673,0.000696881,-0.00744546,1.42931,0.00781724,645.547,-82.23,-61.2552,0.279634,-0.259965,-0.104835,0.00477833,125,401,106.98,27.4827,179.006,126.958,70.8521,86.0709,0.000121648,0.000122102,0.000432265
-16.6186,12.7146,-297.798,4.06803,-1.24332,-0.708603,-0.00723973,0.00041932,0.00120728,0.000605114,-0.00742553,1.4181,0.00774583,645.572,-82.466,-59.0081,0.29911,-0.262218,-0.0949135,0.0047996,132,401,106.946,27.4654,180.001,127.646,71.9717,86.807,0.000122238,0.000122796,0.000433109
-16.3326,12.7016,-297.794,4.06609,-1.2423,-0.706738,-0.00720722,0.000309605,0.00127032,0.000518481,-0.0074161,1.40783,0.00768846,645.546,-82.7643,-57.2779,0.323527,-0.26423,-0.0809128,0.00501831,139,401,106.907,27.4465,180.979,128.33,73.0748,87.5392,0.000128948,0.000126902,0.000452716
-16.0483,12.6887,-297.795,4.06426,-1.24131,-0.704371,-0.0071907,0.000207945,0.00133191,0.000440411,-0.00742317,1.398,0.00765288,645.546,-83.0653,-55.9856,0.348096,-0.266694,-0.0657676,0.00536042,146,401,106.864,27.4254,181.876,129.015,74.0906,88.2697,0.00013869,0.000134046,0.000482458
-15.7635,12.676,-297.794,4.06224,-1.24017,-0.701928,-0.00718427,0.000115675,0.00138933,0.000371151,-0.00743975,1.38894,0.0076321,645.568,-83.2564,-54.3674,0.369323,-0.268212,-0.0526268,0.00545914,153,401,106.818,27.4016,182.792,129.688,75.1281,88.9925,0.000140844,0.000136466,0.000488567
-15.4788,12.663,-297.794,4.0602,-1.2389,-0.69963,-0.00718328,3.54091e-05,0.00143617,0.000310645,-0.00745851,1.38145,0.00761859,645.682,-83.366,-52.5688,0.386134,-0.26867,-0.0431422,0.00545225,160,401,106.772,27.3764,183.697,130.366,76.1564,89.7258,0.00014215,0.000135843,0.000493875
-15.1932,12.6501,-297.79,4.05796,-1.23753,-0.697689,-0.00719404,-3.22958e-05,0.00147042,0.000257849,-0.00748418,1.37598,0.00761638,645.896,-83.432,-50.3271,0.398389,-0.26639,-0.0367641,0.00527038,167,401,106.726,27.3499,184.64,131.038,77.2291,90.4566,0.000138177,0.000132387,0.000480398
-14.9066,12.6371,-297.783,4.05556,-1.23619,-0.695961,-0.00721612,-8.6695e-05,0.00149327,0.000213437,-0.00751625,1.37245,0.00762521,646.04,-83.5414,-47.9541,0.406372,-0.260667,-0.0336255,0.00503656,174,401,106.678,27.3224,185.624,131.716,78.3478,91.1907,0.000134094,0.000126746,0.000467157
-14.6182,12.624,-297.77,4.05317,-1.23465,-0.693422,-0.00723968,-0.000127486,0.00150568,0.000178138,-0.0075453,1.37054,0.00763593,646.114,-83.6391,-45.6471,0.409702,-0.250951,-0.0364869,0.00495217,181,401,106.627,27.2885,186.705,132.395,79.5547,91.9289,0.000131452,0.000126536,0.000459683
-14.3281,12.6108,-297.751,4.05092,-1.23289,-0.690444,-0.00725756,-0.000155422,0.00151149,0.000152875,-0.00756585,1.36959,0.00764344,646.062,-83.6986,-43.8139,0.406598,-0.237942,-0.0488341,0.00495345,188,401,106.578,27.2481,187.882,133.072,80.8482,92.6698,0.000131843,0.000126342,0.000461955
-14.0364,12.5977,-297.727,4.04865,-1.23092,-0.68674,-0.00726886,-0.000169844,0.00151168,0.000138652,-0.00757735,1.36949,0.00764762,646.002,-83.6868,-41.9931,0.399644,-0.22268,-0.0708387,0.00497533,195,401,106.525,27.2058,189.141,133.738,82.2174,93.4061,0.00013154,0.000126827,0.000460253
-13.743,12.5843,-297.697,4.04635,-1.22875,-0.682723,-0.00728059,-0.00017157,0.00150572,0.000134197,-0.00758636,1.37045,0.00765434,645.923,-83.6974,-39.7989,0.390795,-0.206105,-0.0987587,0.00489524,202,401,106.47,27.1591,190.486,134.419,83.6694,94.1641,0.000130052,0.000122078,0.000454078
-13.4499,12.5707,-297.668,4.0439,-1.22647,-0.678838,-0.00730232,-0.000161086,0.00149386,0.000138818,-0.00760222,1.37267,0.00767257,645.727,-83.7817,-38.2516,0.378561,-0.18947,-0.130589,0.00472932,209,401,106.414,27.112,191.814,135.098,85.1074,94.9249,0.000125997,0.000117982,0.000437942
-13.1579,12.5573,-297.641,4.04145,-1.22431,-0.675225,-0.00733583,-0.00014192,0.00147838,0.000150044,-0.00762779,1.37582,0.00770391,645.576,-84.0029,-36.6795,0.360913,-0.174195,-0.162883,0.00459435,216,401,106.359,27.068,193.083,135.772,86.4894,95.6781,0.000122802,0.000116347,0.000424428
-12.8672,12.5439,-297.618,4.03912,-1.22223,-0.671445,-0.00737357,-0.000118914,0.00146276,0.000164919,-0.0076574,1.37914,0.00774118,645.494,-84.1177,-35.1123,0.346098,-0.161277,-0.191329,0.00445192,223,401,106.304,27.0229,194.295,136.451,87.8094,96.4308,0.000116128,0.000115972,0.000399717
-12.5774,12.5305,-297.598,4.03671,-1.22021,-0.667764,-0.00740195,-9.32838e-05,0.00144598,0.000182399,-0.00767763,1.3824,0.00777044,645.489,-84.2351,-33.6434,0.344273,-0.149965,-0.214468,0.00437209,230,401,106.249,26.9782,195.455,137.127,89.0804,97.1795,0.000110826,0.000114382,0.00037989
-12.288,12.5172,-297.578,4.03434,-1.21808,-0.66405,-0.00741969,-6.50127e-05,0.00142356,0.000200915,-0.00768562,1.38612,0.00778802,645.517,-84.3943,-32.1099,0.352671,-0.141302,-0.230796,0.0043183,237,401,106.194,26.9314,196.596,137.798,90.3301,97.9254,0.000106117,0.000113874,0.000363107
-11.9983,12.504,-297.557,4.0319,-1.21588,-0.660139,-0.00743016,-3.57973e-05,0.00139674,0.000219241,-0.0076852,1.39019,0.00779713,645.49,-84.7197,-30.3968,0.366721,-0.13534,-0.240675,0.00425465,244,401,106.136,26.8818,197.749,138.461,91.5914,98.6651,0.000104613,0.000113294,0.000358527
-11.7078,12.4908,-297.533,4.02941,-1.21357,-0.656431,-0.00742929,-5.11789e-06,0.00136948,0.000239445,-0.00767385,1.39408,0.00779633,645.476,-85.0716,-28.5752,0.382789,-0.131791,-0.244162,0.00424912,251,401,106.08,26.829,198.947,139.122,92.8995,99.4042,0.000107322,0.000113189,0.000368152
-11.4151,12.4777,-297.501,4.02668,-1.21104,-0.652688,-0.00741361,2.62711e-05,0.00134393,0.000261592,-0.00764893,1.39745,0.00778303,645.385,-85.3159,-27.0306,0.399849,-0.130146,-0.239363,0.00438264,258,401,106.02,26.7702,200.253,139.774,94.3189,100.14,0.000113572,0.000116058,0.000390239
-11.1198,12.4645,-297.461,4.02375,-1.20824,-0.648688,-0.00737448,5.59874e-05,0.00132221,0.000284255,-0.00760275,1.39984,0.00774878,645.22,-85.4801,-25.6581,0.418646,-0.128583,-0.225993,0.00461234,265,401,105.957,26.7041,201.693,140.424,95.8732,100.879,0.000122407,0.000120724,0.000421062
-10.8228,12.4508,-297.415,4.02069,-1.20512,-0.644595,-0.00731487,8.32492e-05,0.00130389,0.000306329,-0.00753795,1.40135,0.00769569,644.961,-85.5482,-24.2038,0.43889,-0.126889,-0.207969,0.00499355,272,401,105.891,26.6314,203.217,141.089,97.5129,101.642,0.000129796,0.000129298,0.000446866
-10.5272,12.4368,-297.372,4.0178,-1.20206,-0.639721,-0.00724509,0.000109556,0.00128824,0.000328676,-0.00746421,1.40232,0.00763386,644.727,-85.6327,-21.7764,0.458377,-0.124765,-0.188959,0.00540202,279,401,105.823,26.5607,204.682,141.776,99.0822,102.427,0.000136442,0.000139947,0.000470709
-10.2342,12.4231,-297.337,4.01532,-1.19923,-0.634133,-0.00716496,0.00013669,0.00127598,0.000353248,-0.00738152,1.40268,0.00756433,644.55,-85.7385,-19.1656,0.468818,-0.123013,-0.171899,0.00570675,286,401,105.759,26.4926,206.031,142.452,100.52,103.192,0.000140926,0.000148248,0.000487147
-9.94206,12.4097,-297.304,4.01285,-1.19639,-0.627855,-0.00707392,0.000165884,0.00126472,0.000380459,-0.0072885,1.40274,0.00748598,644.398,-85.9435,-16.7137,0.471816,-0.121804,-0.156543,0.00593672,293,401,105.689,26.4267,207.347,143.108,101.918,103.939,0.000144566,0.000154442,0.000500851
-9.64877,12.3959,-297.267,4.01021,-1.19332,-0.622177,-0.00696948,0.000197062,0.00125247,0.000409647,-0.00718207,1.40267,0.0073954,644.252,-86.0407,-14.8073,0.472175,-0.122242,-0.143626,0.00597716,300,401,105.62,26.3602,208.712,143.775,103.373,104.709,0.000149725,0.000155354,0.000519045
-9.35344,12.3824,-297.223,4.00738,-1.18998,-0.616728,-0.00685604,0.000230455,0.00123802,0.000440511,-0.00706609,1.40273,0.00729633,644.137,-86.2484,-13.3058,0.470251,-0.123664,-0.134979,0.00595316,307,401,105.552,26.2885,210.184,144.414,104.939,105.458,0.000152277,0.000154477,0.000527913
-9.05709,12.3685,-297.175,4.00446,-1.18652,-0.611428,-0.00674399,0.000266254,0.00122284,0.000473439,-0.00695117,1.40296,0.00719957,644.111,-86.3886,-11.6966,0.467633,-0.125639,-0.131984,0.00577601,314,401,105.484,26.2152,211.708,145.075,106.559,106.233,0.000151558,0.000147825,0.000525178
-8.76074,12.3548,-297.126,4.00155,-1.18311,-0.605818,-0.00663634,0.000306049,0.00120641,0.000509716,-0.00684001,1.40355,0.00710859,644.144,-86.5407,-9.87869,0.465104,-0.127252,-0.1363,0.005643,321,401,105.414,26.1354,213.238,145.736,108.181,107,0.000148603,0.000142213,0.000514643
-8.46428,12.3408,-297.076,3.99845,-1.17971,-0.600296,-0.00653214,0.00035013,0.00118916,0.000549807,-0.00673182,1.40443,0.00702288,644.125,-86.535,-8.31777,0.460469,-0.128466,-0.147032,0.00557771,328,401,105.34,26.0536,214.772,146.412,109.813,107.778,0.000146706,0.000141407,0.00050786
-8.16637,12.3269,-297.021,3.99511,-1.17605,-0.594944,-0.00643737,0.000394913,0.0011729,0.000590656,-0.00663312,1.40543,0.0069473,643.958,-86.5351,-7.04795,0.453537,-0.130034,-0.159647,0.00555533,335,401,105.265,25.9716,216.38,147.068,111.525,108.55,0.000145681,0.000143382,0.000504132
-7.86862,12.313,-296.966,3.99199,-1.17225,-0.589861,-0.00635993,0.000437867,0.00115854,0.000629893,-0.00655195,1.40654,0.00688853,643.653,-86.594,-6.0702,0.447579,-0.130411,-0.170158,0.00535426,342,401,105.196,25.8891,217.989,147.718,113.232,109.323,0.000142244,0.000138622,0.000492558
-7.5714,12.2992,-296.911,3.98917,-1.16859,-0.5844,-0.00630633,0.000477559,0.00114345,0.000665107,-0.00649388,1.40822,0.00685069,643.383,-86.7211,-4.83608,0.444495,-0.128958,-0.176857,0.00534287,349,401,105.133,25.8088,219.585,148.369,114.914,110.09,0.000142563,0.000137699,0.000494021
-7.27494,12.2854,-296.859,3.98667,-1.16506,-0.578238,-0.00628169,0.000513921,0.00112519,0.00069538,-0.00646315,1.4109,0.00683741,643.166,-86.8319,-3.47716,0.445099,-0.125357,-0.17979,0.00531903,356,401,105.073,25.73,221.159,149.024,116.56,110.857,0.00014055,0.000133567,0.000487882
-6.97963,12.2716,-296.809,3.98395,-1.1615,-0.572576,-0.00628044,0.000547627,0.00110571,0.000722219,-0.00645503,1.41419,0.00684478,643.042,-86.9368,-1.95599,0.449454,-0.119947,-0.18025,0.00530195,363,401,105.01,25.6498,222.665,149.678,118.148,111.624,0.000139263,0.000131717,0.000483546
-6.68531,12.2579,-296.762,3.98123,-1.15799,-0.566639,-0.00630129,0.000580501,0.00108624,0.000747884,-0.00646867,1.4179,0.0068732,642.921,-87.0596,-0.3739,0.456238,-0.112514,-0.179543,0.00524861,370,401,104.944,25.5671,224.123,150.335,119.686,112.388,0.000139331,0.000130618,0.000483364
-6.39183,12.2442,-296.717,3.97844,-1.15449,-0.560944,-0.00634008,0.000611534,0.00106652,0.000771479,-0.00650003,1.42194,0.0069181,642.843,-87.2494,1.38634,0.465102,-0.102352,-0.177718,0.00526139,377,401,104.878,25.4822,225.536,150.989,121.182,113.148,0.000140405,0.000129826,0.000486832
-6.09932,12.2306,-296.675,3.97582,-1.15101,-0.55477,-0.00639626,0.000639122,0.0010484,0.00079203,-0.00654917,1.42597,0.00697897,642.708,-87.4486,3.38501,0.476806,-0.0898252,-0.17375,0.00532686,384,401,104.812,25.3959,226.908,151.639,122.629,113.902,0.000142014,0.000127437,0.000492638
-5.80721,12.2171,-296.634,3.97312,-1.14734,-0.54835,-0.00647526,0.00066481,0.00103108,0.000810724,-0.00662118,1.43021,0.00706153,642.602,-87.5127,5.48822,0.494929,-0.0761328,-0.166256,0.00536929,391,401,104.743,25.3094,228.262,152.278,124.057,114.655,0.000142927,0.000125926,0.000496188
-5.51522,12.2035,-296.592,3.97028,-1.14367,-0.541833,-0.00656457,0.000691382,0.00101443,0.000830536,-0.00670373,1.43447,0.00715524,642.472,-87.5988,7.31868,0.516456,-0.0634479,-0.159254,0.00535816,398,401,104.67,25.2259,229.611,152.915,125.482,115.408,0.000142326,0.00012354,0.000494837
-5.22292,12.1899,-296.548,3.96719,-1.14013,-0.535526,-0.00665153,0.000721006,0.000997648,0.000853622,-0.00678415,1.43864,0.00724875,642.248,-87.6583,9.12917,0.539665,-0.0530157,-0.15541,0.00541911,405,401,104.593,25.1458,230.973,153.557,126.927,116.161,0.000144443,0.000125123,0.000502622
-4.93004,12.1762,-296.502,3.96401,-1.1366,-0.529244,-0.00672218,0.000755463,0.000980288,0.000881839,-0.00684855,1.44259,0.00732937,642.058,-87.7925,10.3568,0.565944,-0.0450196,-0.15608,0.00542625,412,401,104.515,25.0683,232.368,154.202,128.407,116.919,0.000144792,0.000127086,0.000503467
-4.63708,12.1625,-296.455,3.9609,-1.13297,-0.522665,-0.00676879,0.000795652,0.000963288,0.000916394,-0.00688954,1.4461,0.00739047,641.889,-87.9689,11.993,0.588197,-0.0389412,-0.158244,0.00533642,419,401,104.438,24.9867,233.777,154.849,129.895,117.681,0.000142127,0.000129194,0.00049392
-4.34361,12.1487,-296.406,3.95781,-1.12913,-0.515931,-0.00678986,0.000841011,0.000943987,0.000956054,-0.00690491,1.44953,0.00742921,641.811,-88.2126,13.3513,0.601348,-0.0345913,-0.158504,0.00526646,426,401,104.361,24.8989,235.221,155.495,131.414,118.447,0.000139907,0.000130498,0.000486969
-4.04924,12.1347,-296.352,3.95459,-1.12519,-0.508841,-0.00678232,0.000890794,0.000919357,0.00099941,-0.00689093,1.4532,0.00744115,641.71,-88.4142,14.6114,0.612116,-0.030956,-0.159671,0.00538545,433,401,104.28,24.8064,236.719,156.151,132.988,119.222,0.000138908,0.000135219,0.000484784
-3.75374,12.121,-296.294,3.95121,-1.12096,-0.502075,-0.0067548,0.000944882,0.000891358,0.00104672,-0.00685664,1.45704,0.00743547,641.581,-88.5271,16.0298,0.624428,-0.0277937,-0.164863,0.00543793,440,401,104.198,24.7059,238.281,156.786,134.629,119.983,0.00013706,0.000136659,0.000478963
-3.45755,12.1074,-296.233,3.94769,-1.11656,-0.495421,-0.00671152,0.00100187,0.000862181,0.00109707,-0.00680672,1.46083,0.00741636,641.432,-88.5894,17.3253,0.635414,-0.0262721,-0.173023,0.00539942,447,401,104.115,24.6006,239.883,157.41,136.314,120.738,0.000138272,0.000136058,0.000483543
-3.1613,12.0938,-296.171,3.94432,-1.11214,-0.487939,-0.00665199,0.00105879,0.000834216,0.00114801,-0.00674121,1.46425,0.00738246,641.238,-88.6943,18.9453,0.638481,-0.0269564,-0.1806,0.00540321,454,401,104.031,24.491,241.507,158.037,138.008,121.492,0.000141118,0.000132955,0.000493921
-2.86374,12.0799,-296.103,3.9406,-1.10758,-0.48104,-0.00657381,0.00111371,0.000807378,0.00119759,-0.00665769,1.46728,0.00733023,641.136,-88.7715,20.7155,0.628279,-0.0301683,-0.182249,0.00541903,461,401,103.944,24.38,243.197,158.675,139.781,122.262,0.000141899,0.000130486,0.00049723
-2.56579,12.0659,-296.033,3.93679,-1.10271,-0.474023,-0.00647136,0.00116591,0.000776742,0.00124411,-0.00654955,1.47046,0.00725209,640.966,-88.8451,22.5411,0.612311,-0.0352965,-0.178827,0.00536458,468,401,103.854,24.2671,244.915,159.302,141.581,123.037,0.000140144,0.000125287,0.00049065
-2.26664,12.0515,-295.958,3.93266,-1.09768,-0.467355,-0.0063404,0.00121406,0.000740291,0.00128592,-0.00641226,1.47403,0.00714258,640.686,-88.8714,24.2188,0.596898,-0.0429992,-0.17306,0.0052147,475,401,103.761,24.1525,246.698,159.946,143.455,123.833,0.000136086,0.000122131,0.000475469
-1.96653,12.037,-295.879,3.92858,-1.09274,-0.459479,-0.0061812,0.00125935,0.000702707,0.00132513,-0.00624699,1.47745,0.00700421,640.41,-88.8456,25.436,0.577742,-0.0531805,-0.167081,0.00506965,482,401,103.663,24.0404,248.555,160.6,145.391,124.636,0.000132797,0.000119353,0.000463422
-1.66642,12.0225,-295.799,3.9246,-1.08774,-0.450804,-0.00599643,0.00130307,0.000668076,0.00136371,-0.00605707,1.48028,0.00684163,640.192,-89.0038,27.1837,0.550241,-0.0660514,-0.161078,0.00517426,489,401,103.562,23.9252,250.432,161.257,147.334,125.442,0.000136019,0.00011939,0.000474839
-1.36641,12.008,-295.718,3.92057,-1.0826,-0.442828,-0.00579613,0.00134572,0.000642111,0.00140299,-0.0058534,1.48184,0.00666656,639.97,-89.1712,28.8213,0.516132,-0.0806263,-0.154917,0.00540136,496,401,103.465,23.808,252.305,161.904,149.28,126.244,0.000141991,0.000121215,0.000496947
-1.0659,11.9936,-295.634,3.91637,-1.07724,-0.434861,-0.00558731,0.00138869,0.000625802,0.00144438,-0.00564301,1.48203,0.00648694,639.762,-89.3919,30.4963,0.479901,-0.0946335,-0.145666,0.00568855,503,401,103.365,23.6869,254.212,162.542,151.263,127.044,0.000148949,0.000128101,0.000521766
-0.764603,11.979,-295.547,3.91219,-1.07181,-0.427116,-0.0053725,0.00143468,0.000616223,0.00149001,-0.00542784,1.48124,0.00630628,639.489,-89.511,31.6986,0.446064,-0.107813,-0.134426,0.00584069,510,401,103.269,23.5638,256.173,163.185,153.299,127.851,0.000152338,0.000137518,0.00053353
-0.462675,11.9645,-295.456,3.9081,-1.06642,-0.418298,-0.00517145,0.00148369,0.000610913,0.0015393,-0.00522707,1.48001,0.0061431,639.062,-89.5524,32.9422,0.41797,-0.120844,-0.123507,0.00589089,517,401,103.169,23.4376,258.193,163.832,155.381,128.656,0.000151377,0.000145329,0.000528655
-0.161576,11.9499,-295.368,3.9043,-1.06102,-0.409505,-0.00499706,0.00153433,0.00060713,0.00159029,-0.00505301,1.47889,0.00600814,638.696,-89.5945,34.3898,0.400882,-0.134503,-0.113482,0.00581993,524,401,103.076,23.3114,260.184,164.485,157.425,129.467,0.000147265,0.000148938,0.000511546
0.138177,11.9356,-295.283,3.90063,-1.05572,-0.400932,-0.00482314,0.00158971,0.000617301,0.00164859,-0.00488203,1.4757,0.00588222,638.362,-89.7793,36.2456,0.385153,-0.148102,-0.102375,0.00580047,531,401,102.987,23.1871,262.108,165.121,159.401,130.259,0.000147126,0.000149114,0.000509661
0.434835,11.9218,-295.208,3.89743,-1.05064,-0.393303,-0.00469759,0.0016518,0.000636332,0.00171494,-0.00476073,1.47189,0.0058112,638.008,-89.9207,37.78,0.370374,-0.161166,-0.0881563,0.00592409,538,401,102.914,23.0648,263.866,165.738,161.208,131.023,0.000152846,0.000148309,0.000530622
0.730053,11.9082,-295.138,3.89428,-1.04563,-0.386485,-0.00462111,0.00171976,0.000656774,0.00178708,-0.00468842,1.46866,0.00579254,637.704,-90.0864,38.7642,0.361409,-0.17274,-0.0727088,0.00595293,545,401,102.847,22.9448,265.544,166.341,162.94,131.774,0.000155955,0.000147002,0.000541297
1.02443,11.8946,-295.069,3.89092,-1.0407,-0.380005,-0.00460658,0.00179217,0.000672774,0.00186214,-0.00467655,1.46716,0.0058349,637.455,-90.2195,39.3651,0.370584,-0.181823,-0.0604955,0.00600369,552,401,102.776,22.8253,267.171,166.956,164.63,132.533,0.000157082,0.000147063,0.000545712
1.31816,11.881,-295.002,3.88779,-1.03586,-0.372956,-0.00468438,0.00186684,0.000681154,0.00193691,-0.00475445,1.46828,0.00596368,637.241,-90.281,40.3064,0.403903,-0.189817,-0.0534575,0.00603763,559,401,102.708,22.7095,268.78,167.566,166.291,133.286,0.00015843,0.000147996,0.000548799
1.61006,11.8669,-294.941,3.885,-1.0313,-0.364835,-0.00487403,0.00194226,0.000677145,0.00200888,-0.00494065,1.47273,0.00619441,637.09,-90.3382,42.0016,0.456634,-0.199537,-0.0474156,0.00605318,566,401,102.639,22.5968,270.306,168.214,167.85,134.064,0.000159443,0.00014474,0.000550759
1.89948,11.8532,-294.888,3.8822,-1.02695,-0.355985,-0.00514173,0.00201844,0.000641784,0.00207551,-0.0051988,1.48211,0.00649041,636.87,-90.4186,43.9297,0.536628,-0.212168,-0.036244,0.00607275,573,401,102.564,22.4883,271.699,168.842,169.272,134.819,0.00015922,0.000139977,0.000549213
0,0,0,0,0,0,0,0,0,0,0,0,0,0,0,0,0,0,0,-1,580,401,0,0,0,0,0,0,0,0,0
0,0,0,0,0,0,0,0,0,0,0,0,0,0,0,0,0,0,0,-1,587,401,0,0,0,0,0,0,0,0,0
0,0,0,0,0,0,0,0,0,0,0,0,0,0,0,0,0,0,0,-1,594,401,0,0,0,0,0,0,0,0,0
0,0,0,0,0,0,0,0,0,0,0,0,0,0,0,0,0,0,0,-1,601,401,0,0,0,0,0,0,0,0,0
0,0,0,0,0,0,0,0,0,0,0,0,0,0,0,0,0,0,0,-1,62,408,0,0,0,0,0,0,0,0,0
0,0,0,0,0,0,0,0,0,0,0,0,0,0,0,0,0,0,0,-1,69,408,0,0,0,0,0,0,0,0,0
0,0,0,0,0,0,0,0,0,0,0,0,0,0,0,0,0,0,0,-1,76,408,0,0,0,0,0,0,0,0,0
-18.621,12.5326,-297.779,4.08332,-1.24935,-0.705499,-0.00785391,0.00139435,0.000716349,0.00144951,-0.00790907,1.49395,0.0087246,645.002,-80.8104,-71.8922,0.102859,-0.297408,-0.0921608,0.00824606,83,408,107.157,27.5739,173.165,123.715,64.0638,82.6075,0.000227142,0.000228365,0.000745465
-18.3437,12.5202,-297.803,4.0813,-1.24898,-0.7053,-0.0077513,0.00125422,0.000761055,0.00131808,-0.00781517,1.48708,0.00855074,645.192,-81.0543,-70.4579,0.172505,-0.285549,-0.0930312,0.00732687,90,408,107.118,27.5695,173.72,124.385,64.7683,83.3116,0.000194596,0.000195571,0.000652146
-18.065,12.5078,-297.823,4.07932,-1.24858,-0.704954,-0.00763234,0.00111667,0.000820639,0.00119297,-0.00770865,1.47808,0.00836915,645.301,-81.237,-69.341,0.213606,-0.279602,-0.100848,0.00536929,97,408,107.081,27.5651,174.343,125.058,65.5378,84.0184,0.00013657,0.000136601,0.00048554
-17.7845,12.4953,-297.838,4.0769,-1.2481,-0.705128,-0.007509,0.000980253,0.000890702,0.0010727,-0.00760145,1.46738,0.00819065,645.404,-81.4676,-67.6857,0.232619,-0.275912,-0.11164,0.00493886,104,408,107.038,27.558,175.033,125.735,66.3882,84.7309,0.000127201,0.000126011,0.000452834
-17.5028,12.4827,-297.848,4.07452,-1.24748,-0.704913,-0.00739027,0.000844649,0.000968304,0.000956975,-0.00750259,1.45531,0.00802399,645.491,-81.748,-65.6238,0.242902,-0.273103,-0.119892,0.00490121,111,408,106.995,27.5466,175.783,126.413,67.2929,85.4454,0.000128166,0.000125553,0.000454741
-17.2193,12.4701,-297.853,4.07246,-1.24668,-0.704558,-0.00728724,0.000711903,0.00104719,0.000846722,-0.00742206,1.44276,0.00787961,645.532,-82.0103,-63.3998,0.256572,-0.271322,-0.122372,0.004903,118,408,106.961,27.5326,176.626,127.088,68.2787,86.163,0.000127789,0.000125848,0.00045268
-16.9339,12.4572,-297.852,4.0706,-1.24568,-0.703684,-0.00720888,0.000584678,0.0011201,0.000742466,-0.00736667,1.43085,0.00776457,645.597,-82.288,-60.9009,0.273934,-0.270721,-0.118239,0.0049027,125,408,106.93,27.5155,177.573,127.767,69.3578,86.8915,0.000126325,0.0001256,0.000447483
-16.6474,12.4444,-297.847,4.0688,-1.2446,-0.702235,-0.00715373,0.000464217,0.00118508,0.000644315,-0.00733383,1.41998,0.00767629,645.604,-82.4971,-58.6443,0.293342,-0.271291,-0.108388,0.00502801,132,408,106.897,27.4974,178.579,128.442,70.4878,87.6178,0.000128354,0.000127867,0.000454536
-16.3615,12.4315,-297.844,4.06686,-1.2436,-0.700333,-0.00711035,0.00035026,0.00124161,0.000551466,-0.00731156,1.41014,0.00760231,645.591,-82.7848,-56.5765,0.318351,-0.271534,-0.0946149,0.0053105,139,408,106.857,27.4789,179.546,129.124,71.5804,88.3469,0.000134902,0.000131932,0.000475595
-16.0774,12.4187,-297.846,4.06493,-1.24259,-0.698192,-0.00708122,0.000244636,0.00129598,0.000467142,-0.00730372,1.40076,0.00754814,645.584,-83.0619,-54.9566,0.345442,-0.270885,-0.0794777,0.00558551,146,408,106.814,27.4579,180.428,129.804,72.5853,89.0731,0.000141036,0.000137651,0.000495043
-15.7929,12.406,-297.847,4.0629,-1.24143,-0.695801,-0.00706128,0.000148832,0.00134587,0.000391867,-0.00730431,1.39214,0.00750792,645.632,-83.3062,-53.2234,0.370472,-0.268169,-0.0659436,0.00569704,153,408,106.767,27.433,181.329,130.471,73.609,89.7906,0.000144111,0.00014024,0.000503558
-15.5088,12.3931,-297.848,4.06091,-1.24016,-0.693202,-0.00704704,6.53483e-05,0.0013859,0.000325857,-0.00730755,1.38499,0.00747581,645.722,-83.4702,-51.4146,0.390367,-0.263332,-0.0559543,0.00572354,160,408,106.72,27.4077,182.208,131.142,74.6078,90.5168,0.000145781,0.000140408,0.000508615
-15.2231,12.3803,-297.844,4.05887,-1.23885,-0.69079,-0.00704566,-5.6077e-06,0.00141415,0.000267836,-0.00731911,1.37979,0.00745663,645.963,-83.5922,-49.1955,0.403767,-0.255353,-0.0490672,0.00538161,167,408,106.675,27.3818,183.16,131.807,75.6797,91.2378,0.000136492,0.000134726,0.000476169
-14.9362,12.3674,-297.836,4.05666,-1.23754,-0.688728,-0.00705766,-6.3263e-05,0.0014316,0.00021841,-0.00733933,1.37652,0.00745094,646.126,-83.6672,-47.0045,0.411804,-0.243927,-0.0451554,0.00505745,174,408,106.63,27.3559,184.169,132.481,76.816,91.9671,0.000131012,0.000127938,0.000457272
-14.6471,12.3542,-297.821,4.05428,-1.23605,-0.686289,-0.00707415,-0.00010772,0.00143953,0.000178022,-0.00735989,1.37485,0.00745049,646.234,-83.7637,-44.8728,0.415197,-0.228851,-0.0468357,0.00497969,181,408,106.581,27.3239,185.282,133.168,78.0549,92.7116,0.000129591,0.000126684,0.000453354
-14.3559,12.3409,-297.799,4.05194,-1.23422,-0.683318,-0.00708843,-0.000139965,0.00144194,0.000147382,-0.00737578,1.3741,0.00745056,646.228,-83.841,-43.08,0.412666,-0.211243,-0.0575988,0.00496713,188,408,106.531,27.284,186.505,133.848,79.397,93.4576,0.000129749,0.000126951,0.000454926
-14.0627,12.3277,-297.771,4.04954,-1.23212,-0.679754,-0.00709881,-0.000159406,0.00143993,0.000127516,-0.00738573,1.37411,0.00745031,646.181,-83.8137,-41.1782,0.405601,-0.192348,-0.0778895,0.00494296,195,408,106.477,27.2388,187.836,134.52,80.8408,94.2044,0.000129208,0.000126394,0.000452694
-13.7677,12.3142,-297.736,4.04718,-1.22972,-0.675788,-0.00710999,-0.000166839,0.00143303,0.000117302,-0.00739413,1.37506,0.00745347,646.064,-83.7871,-39.2135,0.394995,-0.17337,-0.10387,0.00483048,202,408,106.424,27.1877,189.261,135.194,82.3732,94.9618,0.000128444,0.000122568,0.000449413
-13.4732,12.3007,-297.702,4.04484,-1.22732,-0.671557,-0.00713037,-0.000162484,0.00142176,0.000116451,-0.00740931,1.37707,0.00746821,645.916,-83.8221,-37.6563,0.380008,-0.155867,-0.133566,0.00468975,209,408,106.368,27.1357,190.663,135.869,83.8787,95.7194,0.000125196,0.000118898,0.000435662
-13.1805,12.2874,-297.674,4.04253,-1.22505,-0.66772,-0.00716043,-0.000149773,0.0014083,0.000122549,-0.00743275,1.37978,0.00749477,645.718,-83.992,-36.315,0.358905,-0.141416,-0.16405,0.00453683,216,408,106.316,27.0888,191.977,136.539,85.2995,96.4693,0.000121259,0.00011628,0.000419457
-12.8893,12.2741,-297.649,4.04021,-1.22299,-0.66416,-0.00719142,-0.000132837,0.0013951,0.000132896,-0.00745716,1.38258,0.00752449,645.613,-84.1118,-34.9215,0.34045,-0.130604,-0.191603,0.00442374,223,408,106.264,27.0431,193.208,137.212,86.639,97.2153,0.00011475,0.000115915,0.000394523
-12.5995,12.2609,-297.629,4.03792,-1.22098,-0.660573,-0.00721143,-0.000112773,0.00138069,0.000146314,-0.00747052,1.3853,0.00754474,645.597,-84.259,-33.4331,0.335408,-0.12254,-0.214614,0.00434583,230,408,106.212,26.9991,194.367,137.88,87.9066,97.9544,0.000109586,0.00011445,0.000374568
-12.3104,12.2478,-297.611,4.03557,-1.21887,-0.657134,-0.00722214,-8.93784e-05,0.00136124,0.000161574,-0.00747309,1.38849,0.00755517,645.595,-84.4468,-31.8835,0.341135,-0.117748,-0.230868,0.00425421,237,408,106.159,26.9536,195.49,138.542,89.1403,98.6924,0.000105751,0.000113739,0.000360702
-12.0208,12.2346,-297.59,4.03314,-1.21665,-0.653526,-0.00722977,-6.44187e-05,0.00133765,0.000177155,-0.00747134,1.39213,0.00756148,645.545,-84.7508,-30.0594,0.352982,-0.11585,-0.24068,0.00416911,244,408,106.104,26.904,196.64,139.204,90.3999,99.4312,0.000104855,0.000112466,0.000358165
-11.7299,12.2214,-297.564,4.03074,-1.21437,-0.649656,-0.00723108,-3.6926e-05,0.00131344,0.00019537,-0.00746338,1.39575,0.00756296,645.489,-85.0596,-28.1708,0.367914,-0.116182,-0.244297,0.00416249,251,408,106.05,26.8517,197.86,139.869,91.726,100.173,0.000105979,0.000111041,0.000362891
-11.4372,12.2082,-297.533,4.02812,-1.21182,-0.645814,-0.00722156,-7.88205e-06,0.00129114,0.000216248,-0.00744569,1.39892,0.00755614,645.358,-85.2318,-26.5021,0.385221,-0.118432,-0.240248,0.00431173,258,408,105.993,26.7934,199.169,140.523,93.1449,100.911,0.000109885,0.000112666,0.000377539
-11.1424,12.1951,-297.494,4.02533,-1.20911,-0.641871,-0.00719193,2.02633e-05,0.00127349,0.000238524,-0.00741019,1.40106,0.00753229,645.172,-85.3989,-25.0251,0.405711,-0.120482,-0.227798,0.00448391,265,408,105.933,26.7301,200.584,141.17,94.6709,101.645,0.000116942,0.000117002,0.000402639
-10.8464,12.1818,-297.451,4.02257,-1.20607,-0.637575,-0.00714493,4.65061e-05,0.00126021,0.000260949,-0.00735937,1.40225,0.00749326,644.921,-85.4599,-23.4228,0.429014,-0.121969,-0.210154,0.00480953,272,408,105.872,26.6612,202.065,141.821,96.2574,102.393,0.000125345,0.000125254,0.000431876
-10.5517,12.168,-297.411,4.01994,-1.20315,-0.63247,-0.00708959,7.24047e-05,0.00124962,0.000284175,-0.00730136,1.40292,0.00744751,644.752,-85.5976,-21.0747,0.451733,-0.122397,-0.190623,0.00527233,279,408,105.809,26.5914,203.494,142.498,97.7829,103.161,0.000134576,0.000136267,0.000464493
-10.2583,12.1543,-297.375,4.01745,-1.20031,-0.626857,-0.00702336,9.97161e-05,0.00124164,0.000309945,-0.00723359,1.40307,0.00739344,644.684,-85.7758,-18.3143,0.464319,-0.122454,-0.17219,0.00560299,286,408,105.744,26.5234,204.862,143.175,99.2396,103.927,0.000141574,0.000145221,0.000489805
-9.96437,12.1407,-297.337,4.01478,-1.19744,-0.620759,-0.00694612,0.000130119,0.00123379,0.000339068,-0.00715507,1.40303,0.00733049,644.46,-85.9678,-15.9708,0.467937,-0.122183,-0.154922,0.00585435,293,408,105.672,26.4561,206.26,143.844,100.726,104.687,0.000146825,0.000152183,0.000508847
-9.6693,12.1268,-297.295,4.0119,-1.19411,-0.615126,-0.00685474,0.000163219,0.00122406,0.000370589,-0.00706211,1.40298,0.00725451,644.21,-86.1523,-14.3099,0.468282,-0.122967,-0.139631,0.00588311,300,408,105.6,26.3878,207.712,144.505,102.272,105.461,0.000151108,0.00015273,0.000523957
-9.37145,12.1131,-297.242,4.00881,-1.19057,-0.609745,-0.00675051,0.000198495,0.00121143,0.000403631,-0.00695564,1.40305,0.00716599,644.052,-86.3377,-12.8316,0.466919,-0.124063,-0.128999,0.0058708,307,408,105.528,26.3141,209.308,145.156,103.968,106.229,0.000152541,0.000151722,0.000528612
-9.07255,12.0992,-297.186,4.00569,-1.18697,-0.604369,-0.00664211,0.000235449,0.00119716,0.000437879,-0.00684454,1.40329,0.00707365,643.944,-86.4385,-11.3288,0.465551,-0.125082,-0.124743,0.00577231,314,408,105.457,26.2367,210.962,145.814,105.721,107.002,0.000150157,0.000148997,0.000520022
-8.77351,12.0855,-297.128,4.00256,-1.18329,-0.598904,-0.00653368,0.000275802,0.00118098,0.000474807,-0.00673268,1.40386,0.00698221,643.91,-86.4747,-9.6305,0.463612,-0.124923,-0.128393,0.00566996,321,408,105.386,26.1505,212.629,146.47,107.485,107.771,0.000145026,0.000147007,0.00050223
-8.47506,12.0717,-297.072,3.9993,-1.17956,-0.593325,-0.00642683,0.000320158,0.0011647,0.000515555,-0.00662223,1.40458,0.00689448,643.917,-86.2958,-7.85089,0.458268,-0.123874,-0.138751,0.00567847,328,408,105.31,26.0628,214.266,147.128,109.222,108.542,0.000144237,0.000147116,0.000499524
-8.17603,12.0578,-297.013,3.99597,-1.17568,-0.587987,-0.00632853,0.000365578,0.00115056,0.000557812,-0.00652077,1.40525,0.00681681,643.779,-86.1982,-6.21051,0.449578,-0.122727,-0.151673,0.0058457,335,408,105.236,25.9789,215.936,147.781,110.994,109.319,0.000149725,0.000153707,0.000518171
-7.87771,12.0439,-296.956,3.99313,-1.17192,-0.582286,-0.00624639,0.000409728,0.00113906,0.000599258,-0.00643592,1.40592,0.00675551,643.392,-86.3512,-5.27549,0.441583,-0.120009,-0.163645,0.00569484,342,408,105.171,25.8945,217.589,148.436,112.731,110.092,0.000151542,0.000145877,0.000524727
-7.58051,12.0301,-296.901,3.99029,-1.16832,-0.576904,-0.00618598,0.000451026,0.00112699,0.000637171,-0.00637212,1.4071,0.00671343,643.1,-86.5586,-4.21816,0.436416,-0.115328,-0.172591,0.00565056,349,408,105.108,25.8148,219.183,149.09,114.413,110.859,0.000150769,0.00014442,0.000521648
-7.2845,12.0165,-296.85,3.9878,-1.16485,-0.571,-0.00615485,0.000489086,0.00111187,0.000670221,-0.00633599,1.40931,0.0066963,642.871,-86.8087,-3.04884,0.43485,-0.108656,-0.177694,0.00534801,356,408,105.05,25.7363,220.731,149.741,116.035,111.619,0.000143454,0.000134216,0.000497191
-6.9897,12.0029,-296.802,3.98528,-1.16142,-0.564807,-0.0061511,0.000524857,0.00109541,0.000700001,-0.00632624,1.41225,0.00670371,642.77,-86.9203,-1.44309,0.437978,-0.100442,-0.18,0.00512582,363,408,104.987,25.6564,222.22,150.395,117.596,112.379,0.000136611,0.000129011,0.000473952
-6.69557,11.9893,-296.756,3.98258,-1.15794,-0.559027,-0.00617444,0.000560515,0.00107873,0.000729075,-0.006343,1.41579,0.00673719,642.733,-87.0451,0.358224,0.444537,-0.0907945,-0.18114,0.00513402,370,408,104.923,25.5732,223.667,151.048,119.124,113.137,0.000137038,0.000129888,0.000475284
-6.40229,11.9757,-296.712,3.9799,-1.15453,-0.553053,-0.00621915,0.000594692,0.00106209,0.000756404,-0.00638087,1.4197,0.00679074,642.641,-87.1724,2.07287,0.453882,-0.0788912,-0.181174,0.00523193,377,408,104.858,25.4896,225.074,151.704,120.61,113.895,0.000139628,0.000131934,0.000484239
-6.10993,11.9621,-296.67,3.97725,-1.15104,-0.547038,-0.00628123,0.000625362,0.0010467,0.000780504,-0.00643638,1.42365,0.00686001,642.529,-87.3219,4.12107,0.465943,-0.0657336,-0.178431,0.00535547,384,408,104.793,25.4048,226.437,152.351,122.049,114.647,0.000142405,0.000131481,0.000494228
-5.81801,11.9487,-296.63,3.97454,-1.14744,-0.540791,-0.0063651,0.000654197,0.00103089,0.000802466,-0.00651337,1.42795,0.00694944,642.408,-87.4622,6.12003,0.484571,-0.0526352,-0.171129,0.00542963,391,408,104.725,25.3205,227.78,152.986,123.468,115.394,0.000144087,0.000129376,0.000500443
-5.5261,11.9353,-296.588,3.97166,-1.14384,-0.534552,-0.00645701,0.000683148,0.00101397,0.000824349,-0.00659821,1.43243,0.00704664,642.214,-87.5361,7.75862,0.507279,-0.0415072,-0.163021,0.00543095,398,408,104.653,25.238,229.121,153.621,124.888,116.141,0.000144026,0.000126806,0.000500873
-5.23376,11.9218,-296.545,3.96858,-1.14024,-0.528528,-0.00654449,0.000714144,0.000995114,0.000848096,-0.00667844,1.43699,0.00714036,641.977,-87.5534,9.5543,0.531846,-0.0331963,-0.157509,0.00544891,405,408,104.578,25.1579,230.484,154.255,126.336,116.89,0.000144928,0.000128189,0.000504211
-4.94076,11.9082,-296.498,3.96546,-1.13669,-0.522257,-0.00661626,0.000749236,0.000973761,0.000875798,-0.00674282,1.44155,0.00722066,641.786,-87.6732,10.7823,0.559255,-0.0279048,-0.156116,0.00548018,412,408,104.503,25.0778,231.887,154.902,127.823,117.648,0.000146109,0.000132431,0.000508015
-4.64767,11.8945,-296.45,3.96243,-1.13297,-0.515733,-0.00666484,0.000789704,0.000951704,0.000909288,-0.00678442,1.4458,0.00728177,641.695,-87.796,12.4118,0.58194,-0.0249693,-0.156183,0.00542449,419,408,104.428,24.9947,233.306,155.541,129.318,118.405,0.000144249,0.000133536,0.000501275
-4.35427,11.881,-296.401,3.95937,-1.12919,-0.508942,-0.00668788,0.000835186,0.000926971,0.000947722,-0.00680042,1.44999,0.00732044,641.655,-88.0553,13.9037,0.596577,-0.0238482,-0.155109,0.00529658,426,408,104.351,24.9063,234.748,156.177,130.834,119.156,0.000140889,0.000130688,0.00049016
-4.06014,11.8674,-296.349,3.95619,-1.12519,-0.501844,-0.00668109,0.000884116,0.000897326,0.000989093,-0.00678607,1.45434,0.00733083,641.608,-88.3085,15.3914,0.610107,-0.022683,-0.156036,0.00520167,433,408,104.27,24.8135,236.235,156.812,132.395,119.913,0.000137927,0.000131243,0.000481082
-3.76451,11.8538,-296.29,3.95284,-1.12089,-0.494798,-0.00665282,0.000936142,0.00086479,0.00103344,-0.00675011,1.45876,0.00732174,641.432,-88.4771,16.8405,0.624573,-0.0216449,-0.161063,0.00532566,440,408,104.188,24.7119,237.808,157.441,134.044,120.671,0.000139484,0.000131073,0.000487755
-3.46841,11.8403,-296.229,3.94948,-1.11653,-0.487803,-0.00660907,0.000990984,0.000831827,0.00108096,-0.00669905,1.46305,0.00729981,641.217,-88.5946,18.2654,0.635705,-0.0223782,-0.168644,0.00543456,447,408,104.107,24.6076,239.413,158.064,135.724,121.423,0.000143131,0.00013151,0.000501232
-3.17257,11.8267,-296.168,3.94609,-1.1122,-0.480692,-0.00655092,0.0010464,0.000800993,0.00112993,-0.00663446,1.46689,0.00726562,640.968,-88.7182,19.7679,0.636706,-0.0256878,-0.175063,0.00540267,454,408,104.024,24.5019,241.009,158.695,137.396,122.179,0.000142688,0.000129733,0.000499448
-2.87514,11.8127,-296.101,3.94244,-1.10778,-0.473575,-0.00647487,0.00110075,0.000771975,0.00117861,-0.00655274,1.47027,0.00721462,640.82,-88.8365,21.5808,0.624054,-0.0313371,-0.175516,0.00538024,461,408,103.938,24.3945,242.695,159.345,139.161,122.957,0.000142308,0.00013086,0.000497784
-2.57728,11.7988,-296.032,3.93862,-1.10306,-0.46688,-0.00637425,0.00115305,0.000739894,0.00122509,-0.00644629,1.47374,0.00713811,640.686,-88.8844,23.2123,0.606352,-0.0382592,-0.170943,0.0053056,468,408,103.85,24.2853,244.405,159.979,140.956,123.734,0.000139726,0.000129164,0.000487741
-2.27746,11.7845,-295.954,3.93447,-1.098,-0.459946,-0.0062451,0.00120136,0.000702939,0.00126713,-0.00631088,1.4775,0.00703061,640.511,-88.8737,24.6918,0.590092,-0.0473396,-0.163913,0.00522339,475,408,103.756,24.1694,246.229,160.618,142.868,124.524,0.000137162,0.000126506,0.000478186
-1.97635,11.7702,-295.872,3.93032,-1.09287,-0.451997,-0.00608967,0.0012471,0.000665414,0.00130696,-0.00614953,1.48108,0.00689652,640.321,-88.8805,26.0482,0.569782,-0.0585802,-0.156536,0.00523463,482,408,103.656,24.0516,248.143,161.266,144.86,125.325,0.00013736,0.000122852,0.000479027
-1.67439,11.7556,-295.785,3.92609,-1.08762,-0.443466,-0.00591225,0.00129125,0.000632114,0.00134629,-0.0059673,1.48393,0.00674203,640.069,-88.9961,27.4882,0.540891,-0.0720931,-0.149353,0.00538541,489,408,103.552,23.9304,250.118,161.921,146.909,126.135,0.000141473,0.000121809,0.000494014
-1.37226,11.7411,-295.697,3.92186,-1.08225,-0.435461,-0.00572058,0.0013341,0.000608269,0.00138616,-0.00577264,1.48541,0.00657622,639.773,-89.2115,29.1719,0.506685,-0.0871846,-0.142338,0.00552708,496,408,103.453,23.8085,252.109,162.566,148.975,126.941,0.00014544,0.000121746,0.00050899
-1.07003,11.7268,-295.607,3.91751,-1.07672,-0.427035,-0.00551974,0.00137774,0.000593781,0.00142848,-0.00557048,1.48555,0.00640532,639.456,-89.3555,30.7952,0.47211,-0.101682,-0.132938,0.00571169,503,408,103.348,23.686,254.117,163.197,151.057,127.74,0.000150287,0.000127675,0.000525773
-0.767734,11.7125,-295.516,3.91337,-1.07128,-0.418975,-0.00531272,0.00142506,0.000586244,0.00147569,-0.00536335,1.48465,0.0062336,639.147,-89.451,32.2937,0.440686,-0.115103,-0.121846,0.00585302,510,408,103.252,23.5641,256.143,163.828,153.153,128.535,0.000153565,0.000136952,0.000537532
-0.465708,11.6982,-295.425,3.90927,-1.06573,-0.410452,-0.00511858,0.00147546,0.000583892,0.00152676,-0.00516989,1.48316,0.00607881,638.658,-89.4163,33.505,0.413735,-0.128307,-0.111435,0.00592994,517,408,103.153,23.4369,258.168,164.462,155.242,129.333,0.000153775,0.000144937,0.000537897
-0.164422,11.6837,-295.336,3.90534,-1.06022,-0.402136,-0.00494923,0.00152682,0.000583366,0.00157895,-0.00500136,1.48167,0.00595009,638.27,-89.4542,34.8552,0.397087,-0.142442,-0.101915,0.00585331,524,408,103.061,23.3074,260.164,165.111,157.298,130.144,0.000150211,0.000148128,0.000523142
0.135432,11.6693,-295.25,3.90168,-1.05494,-0.393656,-0.00478101,0.00158275,0.000596092,0.0016381,-0.00483636,1.4782,0.00583063,638.039,-89.5708,36.8634,0.383052,-0.156667,-0.0912719,0.0058134,531,408,102.973,23.1814,262.095,165.76,159.282,130.945,0.000148971,0.00014627,0.000516488
0.433364,11.6554,-295.171,3.89835,-1.04978,-0.38596,-0.00465801,0.00164619,0.000616841,0.00170598,-0.0047178,1.47417,0.00576337,637.666,-89.6438,38.2921,0.370549,-0.170756,-0.0779178,0.00588969,538,408,102.898,23.0574,263.927,166.385,161.164,131.719,0.000152555,0.000145336,0.000528919
0.729764,11.6417,-295.096,3.89512,-1.04466,-0.378609,-0.00457896,0.00171658,0.000638726,0.00178072,-0.00464311,1.4707,0.00574435,637.287,-89.7877,39.4364,0.364616,-0.18301,-0.0644594,0.00594975,545,408,102.827,22.9356,265.678,166.998,162.966,132.482,0.000156033,0.000145382,0.000540041
1.0256,11.6281,-295.022,3.89167,-1.0396,-0.37215,-0.00455428,0.00179224,0.000655915,0.00185932,-0.00462136,1.46888,0.00577985,636.941,-90.0286,40.2159,0.375534,-0.192587,-0.0547597,0.00607877,552,408,102.756,22.816,267.392,167.606,164.744,133.24,0.000159055,0.000148472,0.000550129
1.32033,11.6146,-294.952,3.8886,-1.03471,-0.364806,-0.00461253,0.00187134,0.000664687,0.00193877,-0.00467997,1.46968,0.00589359,636.711,-90.0822,41.214,0.4065,-0.201734,-0.0496051,0.00614387,559,408,102.688,22.6994,269.068,168.216,166.465,133.992,0.000161512,0.000148488,0.000556828
1.61282,11.6007,-294.888,3.88597,-1.03021,-0.35667,-0.00477112,0.00195224,0.000659507,0.00201632,-0.0048352,1.47393,0.00609869,636.541,-90.1292,42.6347,0.451269,-0.2139,-0.0439787,0.00616214,566,408,102.624,22.5857,270.637,168.859,168.062,134.763,0.00016313,0.000143838,0.000561028
1.90264,11.587,-294.834,3.88321,-1.02587,-0.347957,-0.004997,0.00203386,0.000622802,0.0020886,-0.00505174,1.48312,0.00635873,636.418,-90.2604,44.3796,0.519842,-0.229853,-0.0321894,0.00612988,573,408,102.551,22.4765,272.057,169.495,169.51,135.521,0.0001618,0.00013894,0.000556603
0,0,0,0,0,0,0,0,0,0,0,0,0,0,0,0,0,0,0,-1,580,408,0,0,0,0,0,0,0,0,0
0,0,0,0,0,0,0,0,0,0,0,0,0,0,0,0,0,0,0,-1,587,408,0,0,0,0,0,0,0,0,0
0,0,0,0,0,0,0,0,0,0,0,0,0,0,0,0,0,0,0,-1,594,408,0,0,0,0,0,0,0,0,0
0,0,0,0,0,0,0,0,0,0,0,0,0,0,0,0,0,0,0,-1,601,408,0,0,0,0,0,0,0,0,0
0,0,0,0,0,0,0,0,0,0,0,0,0,0,0,0,0,0,0,-1,62,415,0,0,0,0,0,0,0,0,0
0,0,0,0,0,0,0,0,0,0,0,0,0,0,0,0,0,0,0,-1,69,415,0,0,0,0,0,0,0,0,0
0,0,0,0,0,0,0,0,0,0,0,0,0,0,0,0,0,0,0,-1,76,415,0,0,0,0,0,0,0,0,0
-18.6483,12.2617,-297.824,4.08405,-1.25086,-0.698529,-0.00773174,0.0014763,0.000754415,0.0015377,-0.00779314,1.48959,0.00866493,645.129,-80.8285,-70.8547,0.0893576,-0.296081,-0.0900495,0.00749255,83,415,107.104,27.6148,171.825,124.558,62.6586,83.4623,0.000206962,0.000202758,0.000685782
-18.3712,12.2494,-297.848,4.0819,-1.25051,-0.698774,-0.00765512,0.00133339,0.00079263,0.00140275,-0.00772448,1.48351,0.00851298,645.282,-81.0893,-69.5124,0.159969,-0.29042,-0.0925254,0.00676012,90,415,107.065,27.6118,172.366,125.221,63.3565,84.159,0.000181323,0.000178249,0.000612879
-18.0926,12.2372,-297.869,4.0798,-1.2501,-0.698762,-0.00755489,0.00119143,0.000845391,0.00127239,-0.00763585,1.47532,0.00834512,645.485,-81.169,-68.0111,0.204431,-0.287741,-0.102257,0.00549374,97,415,107.027,27.605,172.975,125.885,64.1171,84.8551,0.000143069,0.000141124,0.000502203
-17.8122,12.2248,-297.884,4.07771,-1.24954,-0.69816,-0.00744182,0.00104997,0.000908536,0.00114608,-0.00753794,1.4654,0.00817148,645.528,-81.4736,-66.5216,0.227042,-0.285528,-0.115536,0.00492553,104,415,106.986,27.5955,173.674,126.554,64.962,85.5611,0.000126373,0.000126246,0.000449763
-17.5307,12.2122,-297.895,4.07542,-1.24887,-0.697853,-0.00732582,0.000909691,0.000978971,0.00102446,-0.00744059,1.45409,0.00800216,645.635,-81.7165,-64.5593,0.239407,-0.282954,-0.126645,0.00495504,111,415,106.944,27.5823,174.415,127.226,65.8547,86.2712,0.000128615,0.000127439,0.000455206
-17.2473,12.1995,-297.9,4.07335,-1.24809,-0.697549,-0.00721929,0.000772926,0.00105037,0.000908663,-0.00735502,1.44228,0.0078489,645.679,-81.9813,-62.6145,0.253613,-0.280382,-0.131744,0.00503069,118,415,106.91,27.568,175.254,127.904,66.8376,86.9903,0.000129734,0.000129276,0.000458146
-16.9616,12.1867,-297.899,4.0714,-1.24707,-0.696843,-0.00713223,0.000642208,0.00111534,0.000799054,-0.00728907,1.43109,0.00771968,645.719,-82.3216,-60.2988,0.270307,-0.278156,-0.129704,0.00506258,125,415,106.879,27.5492,176.208,128.58,67.9263,87.7144,0.000129797,0.000129937,0.00045907
-16.6745,12.174,-297.892,4.06952,-1.24588,-0.695473,-0.00706498,0.00051883,0.0011716,0.000695702,-0.00724186,1.42096,0.00761358,645.725,-82.6013,-57.9644,0.288445,-0.27633,-0.1215,0.00521954,132,415,106.845,27.5286,177.236,129.246,69.0814,88.4347,0.000133044,0.000132645,0.000471399
-16.3884,12.1612,-297.888,4.06749,-1.24475,-0.693777,-0.00701061,0.000402541,0.00121911,0.000597881,-0.00720595,1.41192,0.00752273,645.724,-82.8868,-55.6349,0.312934,-0.274301,-0.109569,0.00551034,139,415,106.805,27.5082,178.215,129.918,70.1886,89.1586,0.000139211,0.000136793,0.000492132
-16.1039,12.1484,-297.889,4.0655,-1.2436,-0.691817,-0.00696966,0.000294801,0.00126415,0.000508501,-0.00718336,1.40333,0.00745063,645.706,-83.1114,-53.8863,0.341441,-0.270157,-0.0958691,0.00580142,146,415,106.762,27.4861,179.112,130.587,71.2108,89.8805,0.000145557,0.000142344,0.000512416
-15.8195,12.1359,-297.89,4.06348,-1.2424,-0.689537,-0.00693789,0.000197121,0.00130504,0.00042833,-0.0071691,1.39545,0.00739258,645.739,-83.3665,-52.1256,0.369317,-0.262987,-0.083037,0.00588147,153,415,106.717,27.4606,180.005,131.247,72.2273,90.5914,0.000146651,0.00014361,0.000514494
-15.5355,12.123,-297.892,4.06154,-1.24114,-0.686872,-0.0069125,0.000111785,0.00133728,0.000357763,-0.00715848,1.38889,0.0073439,645.766,-83.5199,-50.3234,0.391582,-0.253004,-0.073079,0.00581291,160,415,106.67,27.4348,180.876,131.919,73.2168,91.3174,0.000144693,0.000141356,0.000506204
-15.2496,12.1102,-297.888,4.05966,-1.23978,-0.684141,-0.00690083,3.88076e-05,0.00135905,0.00029547,-0.00715749,1.38414,0.00730971,646.003,-83.6421,-48.2393,0.405524,-0.239788,-0.0656677,0.00532276,167,415,106.627,27.4083,181.847,132.585,74.3008,92.04,0.000130899,0.000132235,0.000458085
-14.9626,12.0972,-297.88,4.05762,-1.23848,-0.681718,-0.00690436,-2.09454e-05,0.001371,0.000242071,-0.00716738,1.38126,0.00729143,646.212,-83.7603,-46.168,0.413326,-0.223446,-0.0605938,0.00499359,174,415,106.584,27.3825,182.864,133.262,75.4365,92.7718,0.000124998,0.00012581,0.000437281
-14.6737,12.0841,-297.865,4.05534,-1.23705,-0.679222,-0.00691533,-6.80842e-05,0.00137473,0.000197613,-0.00718103,1.37988,0.00728184,646.317,-83.802,-44.2114,0.416864,-0.204052,-0.0603986,0.00493966,181,415,106.536,27.3521,183.971,133.945,76.6666,93.5104,0.000126299,0.000126017,0.000442329
-14.3823,12.0709,-297.843,4.05293,-1.23529,-0.67643,-0.00692754,-0.000103657,0.0013742,0.000162683,-0.00719388,1.37935,0.00727658,646.316,-83.8493,-42.3772,0.415061,-0.182941,-0.0685813,0.00497114,188,415,106.487,27.3139,185.198,134.622,78.0158,94.2509,0.000128774,0.000127403,0.000451387
-14.0887,12.0577,-297.813,4.0505,-1.23314,-0.672991,-0.00693838,-0.0001272,0.00137034,0.000138161,-0.00720374,1.37952,0.0072738,646.282,-83.8112,-40.3816,0.408081,-0.16152,-0.0858859,0.00492361,195,415,106.433,27.2684,186.547,135.291,79.4798,94.9963,0.000129444,0.000125886,0.000453285
-13.7933,12.0443,-297.778,4.04818,-1.23069,-0.668937,-0.00695036,-0.000139458,0.00136258,0.000123021,-0.00721284,1.38049,0.00727513,646.208,-83.8177,-38.4079,0.396238,-0.141267,-0.108549,0.00486776,202,415,106.38,27.2161,187.99,135.96,81.0276,95.7493,0.000129516,0.00012341,0.000452751
-13.4979,12.0309,-297.741,4.04585,-1.22816,-0.664562,-0.00697019,-0.000140653,0.00135167,0.000117132,-0.00722798,1.38234,0.00728725,646.064,-83.8594,-37.0313,0.379443,-0.123808,-0.13482,0.00473072,209,415,106.326,27.1615,189.445,136.63,82.5839,96.5044,0.000125814,0.000120052,0.000437834
-13.204,12.0175,-297.709,4.04353,-1.2258,-0.660638,-0.0069968,-0.000134009,0.00133986,0.000118303,-0.00724911,1.38466,0.00730898,645.84,-83.9933,-35.9496,0.356153,-0.110729,-0.162351,0.00453105,216,415,106.274,27.1117,190.813,137.3,84.057,97.2568,0.000120837,0.000116608,0.000418296
-12.912,12.0042,-297.682,4.04123,-1.22365,-0.657105,-0.00702103,-0.000122806,0.00132889,0.000124341,-0.00726818,1.38692,0.00733114,645.732,-84.119,-34.6727,0.335284,-0.102219,-0.188266,0.00434639,223,415,106.223,27.0642,192.088,137.97,85.4395,98.0018,0.00011378,0.000113669,0.00039127
-12.6217,11.9912,-297.66,4.03899,-1.22165,-0.653486,-0.00703289,-0.000108024,0.0013172,0.00013406,-0.00727497,1.38904,0.00734292,645.678,-84.29,-33.2442,0.327721,-0.0972634,-0.2107,0.00424785,230,415,106.173,27.0198,193.276,138.634,86.7341,98.7353,0.000109532,0.000111995,0.000374304
-12.3324,11.9782,-297.641,4.03665,-1.21961,-0.650187,-0.00703665,-8.94835e-05,0.00130164,0.000146386,-0.00727252,1.39153,0.0073468,645.661,-84.4934,-31.4704,0.331029,-0.0959671,-0.22698,0.00417145,237,415,106.122,26.975,194.407,139.293,87.9761,99.4665,0.000109012,0.000111987,0.00037135
-12.0424,11.965,-297.62,4.03429,-1.21745,-0.646585,-0.00704111,-6.89455e-05,0.00128259,0.000159511,-0.00726956,1.39452,0.00735062,645.576,-84.7811,-29.5619,0.340799,-0.0975881,-0.237156,0.00413039,244,415,106.069,26.9257,195.574,139.955,89.2508,100.203,0.000109895,0.000112132,0.000374555
-11.7511,11.9518,-297.593,4.03191,-1.21513,-0.642726,-0.00704397,-4.51186e-05,0.00126273,0.000175735,-0.00726482,1.39765,0.00735426,645.493,-85.0307,-27.6901,0.35473,-0.101253,-0.241447,0.00418532,251,415,106.016,26.8729,196.815,140.617,90.5974,100.942,0.000109192,0.000111256,0.000373406
-11.4582,11.9387,-297.561,4.02941,-1.21255,-0.638691,-0.00704017,-1.89103e-05,0.00124495,0.000195299,-0.00725438,1.4004,0.00735398,645.381,-85.2007,-25.9578,0.372272,-0.106776,-0.238728,0.00438065,258,415,105.96,26.8134,198.136,141.271,92.0227,101.68,0.000111821,0.0001134,0.000384153
-11.1634,11.9256,-297.523,4.02678,-1.20971,-0.634343,-0.00702073,7.02707e-06,0.00123267,0.000216967,-0.00723067,1.4021,0.00734156,645.244,-85.3357,-24.2317,0.394041,-0.111908,-0.227871,0.00455408,265,415,105.902,26.7489,199.559,141.916,93.5492,102.417,0.000117136,0.000117779,0.000403779
-10.8675,11.9123,-297.48,4.0241,-1.20666,-0.630047,-0.00698713,3.15159e-05,0.00122546,0.00023933,-0.00719494,1.40281,0.00731754,644.994,-85.4123,-22.6031,0.419578,-0.116143,-0.211223,0.00477773,272,415,105.843,26.6804,201.036,142.564,95.13,103.163,0.000126189,0.000125298,0.000435495
-10.5726,11.8987,-297.44,4.02162,-1.20375,-0.62497,-0.00694573,5.62329e-05,0.00122052,0.000262884,-0.00715239,1.40307,0.00728739,644.838,-85.5765,-20.474,0.444413,-0.11862,-0.191594,0.00519413,279,415,105.784,26.6122,202.478,143.233,96.6636,103.924,0.0001365,0.000132879,0.000471631
-10.2785,11.8851,-297.401,4.01915,-1.20091,-0.619631,-0.00689183,8.30794e-05,0.00121652,0.000289168,-0.00709791,1.40298,0.00724683,644.678,-85.7482,-18.0054,0.458237,-0.119948,-0.172035,0.00551902,286,415,105.723,26.5461,203.885,143.904,98.1595,104.685,0.000143532,0.000141236,0.000497065
-9.98389,11.8715,-297.361,4.01645,-1.19796,-0.613878,-0.00682595,0.000114187,0.00121115,0.000319478,-0.00703124,1.40289,0.0071963,644.48,-85.9247,-15.6651,0.461877,-0.1202,-0.152879,0.00576309,293,415,105.653,26.4789,205.312,144.571,99.678,105.445,0.000148518,0.000149416,0.00051498
-9.68764,11.8576,-297.315,4.0134,-1.19467,-0.6084,-0.00674507,0.000148962,0.00120264,0.000352735,-0.00694885,1.40295,0.00713176,644.266,-86.1551,-13.8061,0.461967,-0.120906,-0.135132,0.00584892,300,415,105.58,26.4093,206.82,145.238,101.285,106.221,0.00015285,0.000151566,0.000530016
-9.3883,11.8438,-297.258,4.01015,-1.19108,-0.603108,-0.00664794,0.000186034,0.00119022,0.000387392,-0.0068493,1.40321,0.00705098,644.055,-86.3886,-12.2762,0.46126,-0.121369,-0.122226,0.00585069,307,415,105.506,26.332,208.489,145.895,103.058,106.993,0.000151891,0.000151544,0.000526238
-9.08756,11.83,-297.195,4.00684,-1.18727,-0.59765,-0.00654201,0.000224477,0.00117486,0.000422661,-0.0067402,1.40368,0.00696116,643.877,-86.4776,-10.6691,0.461345,-0.121073,-0.116204,0.00577825,314,415,105.432,26.2497,210.237,146.548,104.908,107.767,0.00014855,0.000150018,0.00051412
-8.78605,11.8162,-297.13,4.00358,-1.18331,-0.591825,-0.00643247,0.000266014,0.00115671,0.000460131,-0.00662659,1.40453,0.00686823,643.697,-86.4118,-9.08554,0.460382,-0.118919,-0.118531,0.00562107,321,415,105.358,26.1583,212.034,147.203,106.801,108.542,0.000143098,0.000146813,0.000495213
-8.48474,11.8023,-297.064,4.00019,-1.17932,-0.586104,-0.00632302,0.000311214,0.00113902,0.000501323,-0.00651313,1.40542,0.00677771,643.667,-86.1573,-7.06369,0.454888,-0.115534,-0.127734,0.00556059,328,415,105.281,26.0674,213.823,147.86,108.689,109.321,0.000142653,0.000144224,0.000493804
-8.18433,11.7885,-297.001,3.99693,-1.1754,-0.580504,-0.0062214,0.000357455,0.00112485,0.000544466,-0.00640841,1.40605,0.00669726,643.588,-86.0326,-5.1924,0.445248,-0.1119,-0.140351,0.0057818,335,415,105.208,25.9819,215.571,148.514,110.534,110.098,0.000150774,0.000147906,0.00052093
-7.88575,11.7747,-296.943,3.99411,-1.17156,-0.574928,-0.00613471,0.000402649,0.00111462,0.000587468,-0.00631953,1.40648,0.0066328,643.234,-86.1713,-4.28879,0.436268,-0.106605,-0.15323,0.00551666,342,415,105.145,25.8979,217.238,149.161,112.286,110.866,0.00014701,0.000139266,0.000508391
-7.58854,11.761,-296.888,3.99126,-1.16798,-0.569456,-0.00606755,0.000445235,0.00110495,0.000627594,-0.00624991,1.40723,0.00658617,642.905,-86.3918,-3.32278,0.429844,-0.0995163,-0.164033,0.00557145,349,415,105.081,25.8186,218.834,149.815,113.969,111.633,0.00014802,0.0001402,0.000511852
-7.29263,11.7476,-296.837,3.98882,-1.16458,-0.563396,-0.00603033,0.000484691,0.00109306,0.000663191,-0.00620883,1.40892,0.00656559,642.652,-86.6779,-2.37823,0.42636,-0.0907654,-0.171318,0.00544173,356,415,105.023,25.7406,220.38,150.459,115.587,112.382,0.000144977,0.00013365,0.000501838
-6.99848,11.7341,-296.792,3.98633,-1.16127,-0.557279,-0.00602439,0.000522165,0.00108012,0.000695772,-0.00619799,1.41143,0.00657355,642.572,-86.8425,-0.695646,0.428332,-0.0809591,-0.175702,0.00507278,363,415,104.961,25.662,221.834,151.112,117.114,113.135,0.000135866,0.00012567,0.000470883
-6.70453,11.7207,-296.746,3.98376,-1.15787,-0.551104,-0.00604993,0.000560061,0.00106704,0.000728043,-0.00621791,1.41465,0.00661207,642.495,-86.9797,0.900805,0.434828,-0.0702557,-0.179166,0.00508138,370,415,104.898,25.5791,223.28,151.764,118.633,113.888,0.000135873,0.000128722,0.000471071
-6.41133,11.7071,-296.702,3.98112,-1.15438,-0.545097,-0.00610023,0.000597131,0.00105456,0.000759258,-0.00626236,1.41825,0.00667446,642.424,-87.1164,2.72483,0.444524,-0.0579653,-0.181627,0.00519766,377,415,104.834,25.4957,224.685,152.412,120.115,114.642,0.000138627,0.000132914,0.000480761
-6.11914,11.6938,-296.661,3.9786,-1.15087,-0.538795,-0.00616817,0.000631081,0.00104299,0.000787476,-0.00632456,1.42196,0.00675282,642.313,-87.3156,4.83108,0.456327,-0.0457829,-0.180515,0.00534879,384,415,104.769,25.4107,226.045,153.051,121.545,115.387,0.000141936,0.000133846,0.000492772
-5.82756,11.6804,-296.621,3.97587,-1.14737,-0.532913,-0.0062565,0.000663517,0.0010299,0.000813542,-0.00640652,1.42614,0.00684963,642.118,-87.4642,6.61713,0.474391,-0.0349613,-0.17369,0.00543688,391,415,104.703,25.3268,227.366,153.688,122.946,116.13,0.000143253,0.000132203,0.000497775
-5.53592,11.6671,-296.581,3.97291,-1.14378,-0.527063,-0.00635031,0.000695487,0.00101373,0.000838441,-0.00649327,1.4307,0.00695052,641.874,-87.5102,8.33642,0.497246,-0.026839,-0.164722,0.00549568,398,415,104.632,25.2438,228.688,154.318,124.353,116.872,0.000144798,0.000131097,0.000503894
-5.24357,11.6537,-296.537,3.96988,-1.14017,-0.521013,-0.00643727,0.000728785,0.000993469,0.000863965,-0.00657245,1.43556,0.00704428,641.69,-87.4885,10.2333,0.522375,-0.021851,-0.157504,0.00548452,405,415,104.558,25.1621,230.053,154.951,125.801,117.619,0.00014547,0.000131617,0.000506206
-4.95034,11.6402,-296.49,3.96678,-1.13645,-0.514728,-0.00650886,0.000765584,0.00096845,0.000892306,-0.00663559,1.44068,0.00712378,641.563,-87.5338,11.706,0.550211,-0.0201088,-0.153808,0.00545811,412,415,104.483,25.0792,231.471,155.589,127.301,118.373,0.000145522,0.00013363,0.000505857
-4.65685,11.6267,-296.441,3.9638,-1.13276,-0.508222,-0.00655849,0.000807304,0.000941271,0.000925686,-0.00667688,1.44569,0.00718458,641.519,-87.6316,13.3104,0.573402,-0.0209818,-0.151266,0.00538983,419,415,104.41,24.9955,232.913,156.229,128.819,119.127,0.000143157,0.000133065,0.000497361
-4.36303,11.6132,-296.39,3.96068,-1.12893,-0.501742,-0.00658377,0.000853346,0.000910922,0.000963293,-0.00669372,1.45068,0.0072237,641.418,-87.8838,14.5913,0.590418,-0.0233691,-0.148243,0.00530729,426,415,104.335,24.9084,234.376,156.861,130.359,119.878,0.000140819,0.000131676,0.00048979
-4.06847,11.5998,-296.336,3.95757,-1.12499,-0.494432,-0.00657899,0.000901429,0.000876092,0.00100267,-0.00668023,1.45575,0.00723387,641.415,-88.1002,16.2733,0.607534,-0.02494,-0.147937,0.00521488,433,415,104.256,24.8173,235.892,157.491,131.944,120.627,0.000138585,0.000129081,0.000483066
-3.77255,11.5863,-296.277,3.95427,-1.1207,-0.486976,-0.00655079,0.000951344,0.000838665,0.00104396,-0.0066434,1.46081,0.00722219,641.188,-88.2795,17.7394,0.624583,-0.0261232,-0.151573,0.00539234,440,415,104.172,24.7184,237.487,158.115,133.61,121.381,0.000142978,0.000127795,0.000499738
-3.4763,11.5727,-296.215,3.95082,-1.11642,-0.480096,-0.00650664,0.00100337,0.000801295,0.00108792,-0.00659119,1.46568,0.00719708,640.994,-88.5243,19.4008,0.636067,-0.0289542,-0.157494,0.00553222,447,415,104.09,24.6187,239.097,158.742,135.299,122.137,0.000146754,0.000131844,0.00051392
-3.18037,11.5591,-296.154,3.94747,-1.11219,-0.472715,-0.00644944,0.00105614,0.000766886,0.0011337,-0.006527,1.47001,0.00716147,640.757,-88.7362,20.9765,0.635378,-0.0341664,-0.162244,0.00540641,454,415,104.007,24.5156,240.703,159.381,136.975,122.898,0.000143447,0.000131002,0.000501562
-2.8831,11.5453,-296.087,3.94381,-1.10778,-0.465599,-0.00637512,0.00110864,0.000735293,0.0011802,-0.00644668,1.47378,0.00711062,640.539,-88.8443,22.5032,0.62099,-0.0411777,-0.161697,0.00537622,461,415,103.92,24.4091,242.38,160.022,138.732,123.667,0.000142133,0.00013328,0.000496147
-2.5851,11.5314,-296.017,3.94007,-1.10309,-0.458541,-0.00627651,0.00115972,0.000701879,0.00122539,-0.00634217,1.47751,0.00703536,640.439,-88.9091,24.001,0.602103,-0.0484966,-0.156761,0.00533809,468,415,103.833,24.2992,244.105,160.659,140.537,124.443,0.000140149,0.000134218,0.000488226
-2.28491,11.5172,-295.939,3.93592,-1.09798,-0.451597,-0.00614964,0.00120744,0.000664508,0.00126697,-0.00620918,1.48144,0.00693008,640.308,-88.8976,25.3281,0.585089,-0.0572641,-0.149553,0.00532961,475,415,103.739,24.1808,245.95,161.3,142.469,125.235,0.000139802,0.000133737,0.000486757
-1.98324,11.503,-295.854,3.93175,-1.09269,-0.443908,-0.00599874,0.00125315,0.000626971,0.00130696,-0.00605255,1.48519,0.00680087,640.05,-88.9249,26.3596,0.563655,-0.0676013,-0.14203,0.00545375,482,415,103.641,24.0584,247.895,161.943,144.494,126.034,0.000142902,0.000132309,0.000498577
-1.68005,11.4886,-295.763,3.92749,-1.08724,-0.435462,-0.00582992,0.00129759,0.000594796,0.00134688,-0.00587922,1.48811,0.00665567,639.824,-89.0483,27.8414,0.533425,-0.0797999,-0.135088,0.0055662,489,415,103.538,23.9329,249.941,162.587,146.613,126.839,0.000146021,0.000128924,0.000510141
-1.37595,11.4743,-295.668,3.92317,-1.08169,-0.427284,-0.00564803,0.00134081,0.000572482,0.0013874,-0.00569461,1.4896,0.00650032,639.565,-89.1973,29.5829,0.499082,-0.0932579,-0.128693,0.00563539,496,415,103.437,23.8061,252.046,163.222,148.793,127.638,0.000148223,0.000125477,0.000518757
-1.07167,11.4601,-295.571,3.91858,-1.07599,-0.418787,-0.00545616,0.0013853,0.000558725,0.00143063,-0.00550149,1.48984,0.00633906,639.226,-89.3564,31.2995,0.465804,-0.106446,-0.120322,0.00571416,503,415,103.328,23.6803,254.169,163.848,150.994,128.436,0.000150606,0.000126831,0.000526459
-0.767738,11.446,-295.474,3.91409,-1.07033,-0.410703,-0.00525817,0.00143351,0.000551943,0.00147873,-0.00530339,1.48905,0.00617696,638.712,-89.3962,32.5806,0.436258,-0.118768,-0.110105,0.00578051,510,415,103.225,23.5554,256.283,164.47,153.185,129.229,0.000151525,0.00013328,0.000529511
-0.465108,11.4319,-295.381,3.90974,-1.06465,-0.402677,-0.00507217,0.0014842,0.000551166,0.00153021,-0.00511818,1.48751,0.00603069,638.268,-89.3759,33.7783,0.410198,-0.1313,-0.100254,0.00581287,517,415,103.125,23.4265,258.335,165.093,155.312,130.021,0.000150942,0.000139631,0.000527379
-0.163748,11.4174,-295.291,3.90579,-1.05913,-0.394562,-0.00490865,0.00153422,0.000552437,0.00158125,-0.00495568,1.48588,0.00590722,637.973,-89.3604,35.4669,0.393495,-0.145354,-0.0909228,0.00575448,524,415,103.033,23.2945,260.335,165.742,157.374,130.83,0.000148599,0.000142187,0.000517163
0.136615,11.4032,-295.204,3.90213,-1.05378,-0.386332,-0.00474577,0.0015884,0.000565547,0.0016385,-0.00479587,1.48244,0.00579164,637.693,-89.3022,37.3527,0.38051,-0.160032,-0.0800754,0.00569782,531,415,102.948,23.1669,262.297,166.388,159.389,131.629,0.000147914,0.000138636,0.000512729
0.435631,11.3893,-295.12,3.89881,-1.04854,-0.378412,-0.00462437,0.00164964,0.000585586,0.00170382,-0.00467856,1.47852,0.00572393,637.336,-89.4099,38.7615,0.370207,-0.175182,-0.0666342,0.00574417,538,415,102.873,23.042,264.198,167.015,161.337,132.407,0.00015021,0.000137673,0.000520026
0.733406,11.3755,-295.04,3.89552,-1.04337,-0.370827,-0.004542,0.00171729,0.000606652,0.00177554,-0.00460026,1.47506,0.00569937,636.856,-89.4769,40.0122,0.367345,-0.18862,-0.0536556,0.0058412,545,415,102.8,22.9193,266.034,167.634,163.221,133.177,0.000153814,0.000136829,0.000530723
1.0296,11.3618,-294.965,3.89224,-1.03827,-0.363895,-0.00450594,0.00178961,0.00062318,0.0018507,-0.00456704,1.47307,0.00572146,636.427,-89.7731,41.0168,0.379522,-0.199869,-0.0442783,0.00603204,552,415,102.731,22.7998,267.78,168.249,165.022,133.942,0.000158977,0.000139956,0.000547136
1.32429,11.3482,-294.894,3.88926,-1.03347,-0.356258,-0.00454267,0.00186491,0.000631103,0.00192648,-0.00460424,1.47355,0.00581208,636.196,-89.852,42.1914,0.407072,-0.211717,-0.0383902,0.00615594,559,415,102.664,22.6858,269.462,168.87,166.745,134.704,0.000162828,0.000141242,0.000558754
1.61672,11.3346,-294.831,3.88678,-1.02896,-0.347878,-0.00466929,0.00194182,0.000624564,0.00200031,-0.00472778,1.47743,0.00598416,636.138,-89.9416,43.529,0.442748,-0.22773,-0.0308114,0.00618886,566,415,102.603,22.5739,271.037,169.503,168.341,135.464,0.000164014,0.000140192,0.000562046
1.90669,11.3209,-294.776,3.8839,-1.02462,-0.339939,-0.00485685,0.0020182,0.00058874,0.00206825,-0.0049069,1.48598,0.00620516,636.019,-89.9914,44.8785,0.499075,-0.247788,-0.016645,0.00611591,573,415,102.532,22.4656,272.459,170.139,169.801,136.224,0.00016183,0.000136786,0.000555193
0,0,0,0,0,0,0,0,0,0,0,0,0,0,0,0,0,0,0,-1,580,415,0,0,0,0,0,0,0,0,0
0,0,0,0,0,0,0,0,0,0,0,0,0,0,0,0,0,0,0,-1,587,415,0,0,0,0,0,0,0,0,0
0,0,0,0,0,0,0,0,0,0,0,0,0,0,0,0,0,0,0,-1,594,415,0,0,0,0,0,0,0,0,0
0,0,0,0,0,0,0,0,0,0,0,0,0,0,0,0,0,0,0,-1,601,415,0,0,0,0,0,0,0,0,0
0,0,0,0,0,0,0,0,0,0,0,0,0,0,0,0,0,0,0,-1,62,422,0,0,0,0,0,0,0,0,0
0,0,0,0,0,0,0,0,0,0,0,0,0,0,0,0,0,0,0,-1,69,422,0,0,0,0,0,0,0,0,0
0,0,0,0,0,0,0,0,0,0,0,0,0,0,0,0,0,0,0,-1,76,422,0,0,0,0,0,0,0,0,0
-18.6763,11.9909,-297.87,4.08483,-1.25241,-0.691675,-0.00761208,0.0015383,0.000820818,0.00161135,-0.00768513,1.48204,0.00860472,645.188,-80.8037,-70.344,0.0844053,-0.297581,-0.0776699,0.00638967,83,422,107.051,27.6604,170.457,125.394,61.2251,84.3114,0.000173895,0.000161986,0.000590076
-18.3993,11.9786,-297.895,4.08259,-1.25201,-0.692035,-0.00755713,0.00139829,0.000849334,0.00147813,-0.00763697,1.47707,0.00847328,645.344,-81.2261,-68.8528,0.153896,-0.296342,-0.0839946,0.00541612,90,422,107.011,27.6567,170.982,126.052,61.9105,85.0051,0.00014357,0.000134719,0.000504553
-18.1206,11.9664,-297.916,4.08052,-1.25173,-0.691693,-0.00747284,0.00125653,0.000891491,0.00134665,-0.00756295,1.47006,0.00831843,645.532,-81.3414,-67.2401,0.200774,-0.295575,-0.0971927,0.00500178,97,422,106.971,27.649,171.598,126.719,62.6757,85.6958,0.000131185,0.000125731,0.000466976
-17.8401,11.954,-297.93,4.07846,-1.25111,-0.69109,-0.00736878,0.00111386,0.000943721,0.00121758,-0.0074725,1.46133,0.0081498,645.652,-81.519,-65.411,0.226679,-0.293719,-0.114019,0.00495032,104,422,106.932,27.6385,172.302,127.383,63.524,86.3984,0.000125897,0.000126195,0.00044778
-17.5579,11.9416,-297.939,4.07628,-1.25032,-0.69071,-0.00725541,0.000972099,0.00100312,0.00109264,-0.00737595,1.45121,0.00797858,645.786,-81.7171,-63.4474,0.240976,-0.290388,-0.128878,0.0050751,111,422,106.893,27.6229,173.083,128.045,64.4521,87.102,0.000128371,0.000130253,0.000454274
-17.274,11.929,-297.944,4.07421,-1.24945,-0.69042,-0.00714566,0.000834089,0.00106367,0.000973439,-0.00728501,1.44053,0.00781732,645.876,-81.9947,-61.5474,0.255319,-0.286186,-0.137561,0.00523415,118,422,106.86,27.6058,173.944,128.716,65.4566,87.8168,0.000130563,0.000134264,0.00046126
-16.9877,11.9162,-297.94,4.07215,-1.24835,-0.689838,-0.0070501,0.000702524,0.00111807,0.000860549,-0.00720812,1.43039,0.00767466,645.933,-82.3334,-59.2617,0.270662,-0.281708,-0.138801,0.00537102,125,422,106.827,27.5834,174.923,129.389,66.5746,88.5377,0.000133602,0.000137562,0.000473497
-16.7,11.9035,-297.932,4.07014,-1.24705,-0.688438,-0.00697104,0.000578776,0.00116369,0.000754071,-0.00714633,1.42128,0.00755166,645.929,-82.6613,-56.9494,0.286669,-0.277009,-0.133551,0.0055392,132,422,106.79,27.5591,175.98,130.053,67.7606,89.2584,0.000138845,0.000140962,0.000493321
-16.4128,11.8907,-297.925,4.06806,-1.24573,-0.686701,-0.00690628,0.000462748,0.0012009,0.000653517,-0.00709705,1.41326,0.00744535,645.855,-82.9587,-54.5336,0.30965,-0.272154,-0.124798,0.00577569,139,422,106.75,27.5355,177.006,130.716,68.9155,89.9789,0.000144465,0.000144342,0.000512463
-16.1274,11.8778,-297.923,4.066,-1.2445,-0.684949,-0.00685516,0.00035548,0.00123581,0.000561402,-0.00706108,1.40568,0.00735786,645.769,-83.1788,-52.6928,0.338285,-0.264157,-0.113758,0.00597333,146,422,106.708,27.5128,177.945,131.39,69.9831,90.7075,0.000148301,0.000147906,0.000524716
-15.8427,11.8652,-297.924,4.06401,-1.24326,-0.682779,-0.00681404,0.000258346,0.0012674,0.000478608,-0.0070343,1.39872,0.00728541,645.763,-83.4248,-50.8522,0.367489,-0.252523,-0.102572,0.00595218,153,422,106.665,27.4879,178.851,132.049,71.0116,91.421,0.000146107,0.000146227,0.000514974
-15.5581,11.8522,-297.924,4.06217,-1.24198,-0.68006,-0.00678017,0.00017339,0.0012919,0.000405652,-0.00701244,1.39291,0.00722381,645.755,-83.578,-49.144,0.390606,-0.237788,-0.0930809,0.00561311,160,422,106.621,27.4612,179.755,132.726,72.0296,92.1507,0.000137529,0.000137999,0.000483743
-15.2722,11.8393,-297.92,4.06035,-1.24057,-0.677425,-0.00676051,0.00010053,0.00130732,0.00034119,-0.00700117,1.38875,0.00717785,646.018,-83.6843,-47.236,0.403939,-0.220033,-0.0852513,0.00510036,167,422,106.58,27.4325,180.725,133.391,73.1127,92.8737,0.000125289,0.000127949,0.000440413
-14.9857,11.8265,-297.913,4.05845,-1.23924,-0.674625,-0.00675742,4.0574e-05,0.00131415,0.000285775,-0.00700262,1.38633,0.00714979,646.213,-83.7082,-45.3327,0.410813,-0.199737,-0.0789764,0.00486219,174,422,106.537,27.4054,181.722,134.062,74.2216,93.5984,0.000122498,0.00012349,0.000429934
-14.6976,11.8138,-297.901,4.05632,-1.23787,-0.672037,-0.00676455,-7.67998e-06,0.0013143,0.000238966,-0.00701119,1.38529,0.00713368,646.3,-83.7011,-43.3643,0.41409,-0.177167,-0.0766058,0.00488761,181,422,106.492,27.3754,182.793,134.725,75.4114,94.3146,0.000125804,0.000124743,0.000441398
-14.4069,11.801,-297.881,4.054,-1.23615,-0.66928,-0.00677612,-4.51926e-05,0.00131133,0.00020126,-0.00702258,1.38502,0.00712534,646.28,-83.746,-41.4597,0.412809,-0.153617,-0.0816269,0.00495799,188,422,106.444,27.3375,183.99,135.385,76.7283,95.0369,0.000130173,0.000126649,0.000455949
-14.1133,11.7878,-297.852,4.05162,-1.23404,-0.665768,-0.00678854,-7.16928e-05,0.00130592,0.000173276,-0.00703351,1.38537,0.00712173,646.293,-83.7544,-39.5311,0.406076,-0.130708,-0.095121,0.00491581,195,422,106.391,27.2921,185.334,136.054,78.1852,95.7796,0.000130623,0.000124922,0.00045692
-13.8181,11.7744,-297.817,4.04929,-1.23159,-0.661796,-0.00680229,-8.795e-05,0.00129738,0.000154018,-0.00704426,1.38641,0.00712252,646.261,-83.8423,-37.7117,0.393601,-0.110174,-0.113618,0.00485563,202,422,106.339,27.2401,186.771,136.723,79.7274,96.5325,0.000129659,0.000122365,0.000453114
-13.5222,11.761,-297.779,4.04694,-1.22899,-0.657483,-0.0068221,-9.43767e-05,0.00128683,0.000143359,-0.00705984,1.38811,0.0071326,646.188,-83.9063,-36.3826,0.3759,-0.0935558,-0.135612,0.00473172,209,422,106.285,27.1853,188.247,137.39,81.3052,97.2884,0.000125612,0.000119019,0.000437349
-13.2278,11.7476,-297.745,4.04464,-1.22659,-0.653477,-0.00684535,-9.3984e-05,0.00127658,0.000139334,-0.00707867,1.39002,0.00714935,646.032,-84.0417,-35.362,0.351896,-0.0822005,-0.159434,0.00448919,216,422,106.233,27.1349,189.641,138.063,82.8027,98.0442,0.000119832,0.000114598,0.000415375
-12.9356,11.7343,-297.718,4.04237,-1.22441,-0.649849,-0.00686324,-8.87961e-05,0.00126787,0.000140716,-0.00709275,1.39171,0.00716415,645.819,-84.156,-34.3854,0.330207,-0.0759356,-0.183219,0.00426577,223,422,106.183,27.0871,190.926,138.733,84.1941,98.7886,0.000113718,0.000110321,0.000391319
-12.645,11.7213,-297.695,4.04015,-1.22245,-0.646185,-0.00686795,-7.96532e-05,0.00125929,0.000146426,-0.00709403,1.39316,0.00716837,645.705,-84.33,-32.8585,0.321266,-0.0736763,-0.204803,0.00417599,230,422,106.134,27.043,192.128,139.395,85.5017,99.5187,0.000112136,0.000108293,0.000383098
-12.3551,11.7083,-297.674,4.03784,-1.22044,-0.642784,-0.00686553,-6.64213e-05,0.00124847,0.000155578,-0.00708753,1.39482,0.00716659,645.65,-84.5351,-30.8824,0.322813,-0.0753307,-0.221104,0.00413857,237,422,106.083,26.9983,193.292,140.056,86.7746,100.249,0.000113336,0.000109076,0.000385686
-12.0641,11.6951,-297.65,4.03549,-1.21824,-0.639201,-0.00686659,-5.08892e-05,0.00123489,0.000165954,-0.00708343,1.39697,0.00716785,645.579,-84.8122,-28.8589,0.330789,-0.0799374,-0.231809,0.00416428,244,422,106.032,26.9489,194.51,140.72,88.0996,100.988,0.000114729,0.00011074,0.000390347
-11.7718,11.682,-297.62,4.0331,-1.21588,-0.635386,-0.00687014,-3.12768e-05,0.00122003,0.000179855,-0.00708127,1.39944,0.00717289,645.522,-85.0395,-26.8747,0.34396,-0.0864619,-0.237061,0.0042469,251,422,105.98,26.8948,195.8,141.38,89.4945,101.726,0.000115176,0.000110858,0.000393107
-11.4778,11.6691,-297.585,4.03069,-1.21315,-0.631145,-0.00687168,-8.1831e-06,0.00120725,0.000197972,-0.00707783,1.40166,0.00717887,645.383,-85.1768,-25.2368,0.361798,-0.0945814,-0.235922,0.00443479,258,422,105.926,26.8327,197.18,142.02,90.9742,102.455,0.000117327,0.000112415,0.000402784
-11.1815,11.656,-297.542,4.02804,-1.21012,-0.626776,-0.00686252,1.50799e-05,0.00120057,0.000218631,-0.00706607,1.40285,0.00717789,645.195,-85.2903,-23.5918,0.384377,-0.102163,-0.226868,0.00463091,265,422,105.869,26.764,198.682,142.657,92.5787,103.187,0.000122798,0.000115148,0.000423594
-10.8843,11.6428,-297.495,4.02535,-1.20689,-0.62243,-0.00684219,3.7386e-05,0.00119903,0.000240373,-0.00704518,1.40309,0.00716839,645.004,-85.456,-21.6637,0.410954,-0.10863,-0.211372,0.0049443,272,422,105.811,26.6931,200.232,143.3,94.2301,103.935,0.000132223,0.000120935,0.000457372
-10.5883,11.6291,-297.451,4.02284,-1.20382,-0.617414,-0.00681335,6.06677e-05,0.00119846,0.000263623,-0.0070163,1.40304,0.00715176,644.82,-85.6658,-19.6289,0.436437,-0.112693,-0.191825,0.00518867,279,422,105.753,26.6237,201.724,143.967,95.8144,104.699,0.000139602,0.000126707,0.000483857
-10.2944,11.6156,-297.414,4.02051,-1.20094,-0.61214,-0.00676919,8.68726e-05,0.00119641,0.000289654,-0.00697198,1.4029,0.00712122,644.633,-85.8471,-17.3493,0.450435,-0.114907,-0.171278,0.00543321,286,422,105.695,26.5573,203.125,144.634,97.301,105.458,0.000145826,0.000135735,0.000506259
-10.0004,11.6021,-297.375,4.01783,-1.1981,-0.606882,-0.00671168,0.000118232,0.00119116,0.000320012,-0.00691346,1.40299,0.00707889,644.393,-85.9876,-15.2116,0.453484,-0.115572,-0.150405,0.00570761,293,422,105.63,26.492,204.516,145.298,98.7863,106.212,0.000151167,0.000145888,0.000525041
-9.70456,11.5884,-297.33,4.01473,-1.19501,-0.601672,-0.00663816,0.000153631,0.0011817,0.000353361,-0.00683789,1.40336,0.00702125,644.266,-86.1666,-13.2361,0.452848,-0.116038,-0.130363,0.00595833,300,422,105.557,26.4241,205.998,145.969,100.373,106.982,0.000156399,0.000152825,0.00054303
-9.40426,11.5746,-297.27,4.01143,-1.19143,-0.59625,-0.00654533,0.000191204,0.00116767,0.000387859,-0.00674198,1.40395,0.00694404,644.091,-86.3426,-11.4442,0.452539,-0.115688,-0.115255,0.00603469,307,422,105.482,26.3459,207.717,146.63,102.195,107.757,0.00015645,0.000155679,0.000542156
-9.10203,11.5608,-297.203,4.00794,-1.18747,-0.590913,-0.00644009,0.000229982,0.00114955,0.00042254,-0.00663265,1.40483,0.00685369,643.803,-86.3656,-9.99546,0.454073,-0.113858,-0.107471,0.00590268,314,422,105.406,26.2614,209.538,147.279,104.122,108.531,0.000150143,0.000153436,0.000519598
-8.79826,11.5469,-297.13,4.00455,-1.18328,-0.584955,-0.00632925,0.000271794,0.00112792,0.000459202,-0.00651666,1.40615,0.00675797,643.547,-86.2337,-8.434,0.454086,-0.109759,-0.108293,0.00572532,321,422,105.329,26.1687,211.454,147.937,106.135,109.318,0.000143173,0.000149929,0.00049529
-8.49455,11.5329,-297.057,4.00105,-1.17913,-0.57918,-0.00621786,0.000316575,0.00110767,0.000499235,-0.00640052,1.40736,0.00666417,643.377,-85.9971,-6.51169,0.448846,-0.104288,-0.115946,0.00568432,328,422,105.252,26.0766,213.368,148.594,108.149,110.102,0.000142033,0.000148379,0.000491786
-8.1933,11.5191,-296.991,3.99786,-1.17513,-0.573261,-0.00611381,0.000362137,0.00109275,0.000541558,-0.00629323,1.40806,0.00658074,643.283,-85.8737,-4.68326,0.439355,-0.0986412,-0.127855,0.00583305,335,422,105.18,25.9905,215.167,149.244,110.039,110.878,0.000152634,0.00015114,0.000527679
-7.89457,11.5054,-296.932,3.99514,-1.17128,-0.567616,-0.00602376,0.000406887,0.00108349,0.000584536,-0.00620141,1.40828,0.00651338,642.984,-86.0069,-3.72535,0.43071,-0.0915307,-0.141417,0.00560206,342,422,105.119,25.9058,216.846,149.893,111.799,111.647,0.000149888,0.000139539,0.000518311
-7.59708,11.4917,-296.876,3.99229,-1.16762,-0.562145,-0.00595152,0.000449788,0.00107652,0.000625978,-0.00612771,1.40857,0.00646347,642.703,-86.2416,-2.69616,0.424254,-0.0829754,-0.153838,0.00546427,349,422,105.056,25.8245,218.458,150.55,113.497,112.419,0.000145789,0.000133456,0.000504145
-7.3011,11.4785,-296.825,3.98989,-1.1643,-0.556107,-0.00590975,0.000490231,0.00106887,0.000664025,-0.00608355,1.40961,0.00644128,642.556,-86.5574,-1.44374,0.419724,-0.0733974,-0.163176,0.00552883,356,422,104.999,25.7453,220.01,151.192,115.12,113.16,0.000145721,0.000129227,0.000503618
-7.00654,11.4655,-296.778,3.98739,-1.16106,-0.549816,-0.00590251,0.000529138,0.00106059,0.000699517,-0.00607289,1.41151,0.00645115,642.412,-86.7409,0.0436902,0.421158,-0.0635998,-0.169664,0.00510836,363,422,104.937,25.6638,221.488,151.828,116.67,113.89,0.000135964,0.000121218,0.000470604
-6.71246,11.4521,-296.732,3.98476,-1.15758,-0.543615,-0.00593068,0.000569576,0.00105226,0.000735671,-0.00609677,1.41424,0.00649592,642.288,-86.9249,1.6492,0.428132,-0.053377,-0.175567,0.00501614,370,422,104.872,25.58,222.941,152.473,118.197,114.638,0.00013347,0.000126413,0.000462369
-6.41931,11.4386,-296.689,3.98223,-1.15406,-0.537249,-0.0059867,0.000610306,0.00104511,0.000771914,-0.00614831,1.41738,0.00656837,642.211,-87.1074,3.51554,0.438194,-0.0423969,-0.180373,0.00514341,377,422,104.808,25.4971,224.35,153.119,119.677,115.391,0.000135934,0.000132705,0.000471205
-6.12705,11.4253,-296.647,3.97966,-1.15052,-0.531097,-0.00606047,0.000648715,0.00103856,0.000805802,-0.00621756,1.42068,0.00665714,642.04,-87.3528,5.43296,0.449002,-0.0329058,-0.180667,0.0052551,384,422,104.744,25.4131,225.712,153.754,121.112,116.134,0.00013815,0.000135473,0.000479315
-5.83554,11.4121,-296.608,3.97705,-1.14705,-0.525079,-0.00615255,0.000685945,0.00102946,0.000837557,-0.00630416,1.42457,0.00676195,641.789,-87.492,7.23925,0.465253,-0.0257799,-0.174288,0.00534049,391,422,104.679,25.3307,227.035,154.387,122.51,116.873,0.000139274,0.000133853,0.000483626
-5.54416,11.3989,-296.568,3.97418,-1.14352,-0.519315,-0.00624668,0.000722219,0.00101525,0.000867111,-0.00639158,1.42904,0.00686632,641.552,-87.5039,9.08732,0.486847,-0.0216697,-0.164583,0.00547294,398,422,104.611,25.2476,228.345,155.015,123.903,117.609,0.000142455,0.000133897,0.000495512
-5.2521,11.3857,-296.525,3.97121,-1.13985,-0.513281,-0.00633116,0.000759336,0.000994243,0.000896112,-0.00646793,1.43409,0.00695939,641.408,-87.4399,11.0549,0.511365,-0.0205894,-0.155834,0.0055769,405,422,104.539,25.1652,229.697,155.636,125.336,118.346,0.000146296,0.000136142,0.000509134
-4.95882,11.3723,-296.478,3.96813,-1.13616,-0.507037,-0.0064005,0.000798964,0.000966051,0.000926339,-0.00652788,1.4397,0.00703693,641.317,-87.4569,12.5837,0.538818,-0.0226688,-0.149864,0.00556504,412,422,104.465,25.0811,231.119,156.27,126.84,119.094,0.00014759,0.000139584,0.00051349
-4.66491,11.359,-296.428,3.96505,-1.13237,-0.500781,-0.0064497,0.000842529,0.000934059,0.00096027,-0.00656744,1.4454,0.00709647,641.291,-87.5187,14.003,0.562167,-0.0271676,-0.144783,0.0054356,419,422,104.392,24.996,232.581,156.9,128.381,119.842,0.000144513,0.000137723,0.00050259
-4.37038,11.3456,-296.374,3.96189,-1.12854,-0.494086,-0.00647662,0.000889103,0.000898461,0.000997112,-0.00658463,1.45115,0.00713563,641.222,-87.72,15.2236,0.581628,-0.0322784,-0.139761,0.0053011,426,422,104.315,24.9083,234.084,157.533,129.961,120.591,0.000140774,0.000131233,0.000489644
-4.07497,11.332,-296.317,3.95875,-1.12454,-0.486612,-0.00647421,0.000936131,0.000858451,0.00103428,-0.00657236,1.45696,0.00714586,641.225,-87.9104,16.7942,0.602504,-0.0355437,-0.13788,0.00522484,433,422,104.235,24.8167,235.649,158.173,131.594,121.352,0.000138918,0.000123436,0.000484162
-3.77871,11.3183,-296.257,3.95538,-1.12026,-0.479178,-0.00644689,0.000983751,0.000815608,0.00107222,-0.00653536,1.46275,0.00713217,640.984,-88.1392,18.3301,0.622363,-0.0376395,-0.139614,0.00536836,440,422,104.151,24.7196,237.261,158.807,133.278,122.116,0.000142485,0.000121873,0.000497548
-3.48227,11.3047,-296.195,3.9519,-1.11603,-0.47219,-0.00640276,0.00103271,0.000772963,0.00111221,-0.00648227,1.4683,0.00710398,640.762,-88.3763,20.0315,0.634836,-0.0409961,-0.143368,0.00553404,447,422,104.067,24.6216,238.884,159.444,134.979,122.879,0.00014694,0.000128628,0.000513795
-3.18589,11.2912,-296.132,3.94844,-1.11175,-0.465106,-0.00634664,0.00108221,0.000733805,0.001154,-0.00641843,1.47327,0.00706646,640.48,-88.6074,21.4582,0.633584,-0.0463707,-0.146265,0.00548627,454,422,103.984,24.5193,240.511,160.073,136.682,123.634,0.000145271,0.000132489,0.000507295
-2.88843,11.2775,-296.065,3.94486,-1.10722,-0.45775,-0.00627438,0.00113168,0.00069865,0.00119701,-0.00633971,1.47756,0.00701523,640.27,-88.7667,23.1549,0.618735,-0.0527645,-0.144857,0.00542053,461,422,103.898,24.4108,242.205,160.709,138.45,124.402,0.000141898,0.000135757,0.000494191
-2.5892,11.2639,-295.99,3.94108,-1.10242,-0.45061,-0.00617828,0.00118046,0.000662925,0.0012397,-0.00623753,1.48167,0.00694091,640.121,-88.8312,24.5325,0.599576,-0.0584804,-0.139901,0.00533124,468,422,103.81,24.2972,244.001,161.332,140.325,125.164,0.000138063,0.000137364,0.000479957
-2.28755,11.25,-295.906,3.93696,-1.09721,-0.44326,-0.00605428,0.00122682,0.000624224,0.00127995,-0.00610741,1.48589,0.00683783,639.939,-88.8264,25.6679,0.582134,-0.0651721,-0.132857,0.00538482,475,422,103.716,24.1747,245.936,161.965,142.342,125.949,0.000139448,0.000137537,0.000485162
-1.98478,11.2357,-295.818,3.93277,-1.09172,-0.435521,-0.00590873,0.00127164,0.000586139,0.00131917,-0.00595626,1.48988,0.00671376,639.63,-88.8273,26.5227,0.559929,-0.0731301,-0.125481,0.00555055,482,422,103.619,24.048,247.946,162.606,144.431,126.752,0.000144283,0.000137633,0.000503586
-1.67997,11.2213,-295.721,3.92839,-1.08607,-0.427352,-0.00574943,0.00131545,0.000554606,0.00135872,-0.00579271,1.49293,0.00657816,639.466,-89.0126,28.1723,0.528756,-0.0828113,-0.119131,0.00565868,489,422,103.517,23.9199,250.081,163.249,146.643,127.562,0.000148395,0.000134944,0.000519103
-1.37429,11.2071,-295.62,3.92393,-1.08041,-0.419156,-0.00557763,0.00135811,0.000533113,0.00139885,-0.00561837,1.49453,0.00643289,639.191,-89.1674,29.9622,0.494246,-0.0939523,-0.11361,0.00569042,496,422,103.414,23.7908,252.277,163.885,148.916,128.363,0.000149706,0.000129456,0.00052443
-1.06862,11.1929,-295.518,3.9191,-1.07469,-0.411007,-0.00539499,0.00140217,0.000519498,0.00144165,-0.00543447,1.49495,0.00628064,638.834,-89.3234,31.7757,0.461703,-0.105539,-0.106404,0.00567064,503,422,103.303,23.6631,254.473,164.517,151.198,129.166,0.000149381,0.00012506,0.000522153
-0.763237,11.1787,-295.416,3.91429,-1.06894,-0.40319,-0.00520645,0.00144915,0.00051318,0.00148848,-0.00524578,1.49429,0.00612716,638.286,-89.3944,33.1252,0.433011,-0.116884,-0.0971103,0.0056288,510,422,103.195,23.5357,256.663,165.151,153.474,129.973,0.000147676,0.000126138,0.000514306
-0.460169,11.1646,-295.321,3.90989,-1.06329,-0.395509,-0.00502854,0.00149742,0.000513497,0.00153757,-0.00506869,1.49275,0.00598743,637.805,-89.3517,34.4327,0.406872,-0.129155,-0.0876468,0.0056663,517,422,103.097,23.4062,258.74,165.777,155.629,130.765,0.000147935,0.000131471,0.000514711
-0.1593,11.1505,-295.233,3.90606,-1.05772,-0.387377,-0.00487019,0.00154316,0.000516061,0.00158442,-0.00491145,1.49101,0.00586639,637.48,-89.2643,36.2041,0.38937,-0.143755,-0.0781304,0.00572117,524,422,103.008,23.2757,260.719,166.411,157.667,131.561,0.000149081,0.000132835,0.000517492
0.140165,11.1366,-295.149,3.9026,-1.05249,-0.379023,-0.0047111,0.00159223,0.000528645,0.00163626,-0.00475513,1.4877,0.00575059,637.192,-89.1679,37.9913,0.376646,-0.159752,-0.0669138,0.00569148,531,422,102.926,23.1498,262.638,167.045,159.633,132.344,0.000149072,0.000131056,0.000516311
0.438817,11.1228,-295.066,3.89933,-1.04732,-0.370925,-0.00458954,0.00164729,0.000546923,0.00169488,-0.00463714,1.48399,0.0056776,636.858,-89.1941,39.2773,0.367795,-0.176739,-0.0532676,0.0056446,538,422,102.851,23.025,264.523,167.67,161.563,133.117,0.000148776,0.000129185,0.000513994
0.736552,11.1091,-294.986,3.89604,-1.04217,-0.362962,-0.00450232,0.00170755,0.000566208,0.00175875,-0.00455352,1.48061,0.00564237,636.394,-89.3818,40.737,0.367043,-0.192135,-0.0402895,0.00570621,545,422,102.776,22.9026,266.363,168.291,163.448,133.887,0.000151137,0.000128688,0.000519708
1.03281,11.0956,-294.911,3.89282,-1.03715,-0.355768,-0.00445318,0.0017713,0.000581258,0.00182511,-0.004507,1.47848,0.00564534,635.944,-89.6488,41.941,0.379155,-0.205791,-0.0303545,0.00589242,552,422,102.707,22.7857,268.121,168.905,165.255,134.649,0.00015655,0.000132492,0.000536093
1.32723,11.082,-294.841,3.88997,-1.03246,-0.347249,-0.00446595,0.00183704,0.000587812,0.00189139,-0.0045203,1.4786,0.00570615,635.829,-89.7086,43.2882,0.40184,-0.220842,-0.0226176,0.00610213,559,422,102.637,22.676,269.801,169.53,166.964,135.411,0.000162304,0.000135166,0.000555251
1.62007,11.0686,-294.776,3.88724,-1.02795,-0.339338,-0.00455896,0.00190327,0.00058027,0.00195496,-0.00461065,1.48195,0.00583897,635.734,-89.765,44.2859,0.427178,-0.240639,-0.0120957,0.00619314,566,422,102.574,22.5669,271.394,170.151,168.589,136.163,0.000164509,0.000136168,0.00056296
1.91106,11.0551,-294.717,3.88427,-1.02352,-0.331838,-0.00470984,0.0019668,0.000546666,0.00201127,-0.0047543,1.48964,0.00601754,635.628,-89.8114,45.3783,0.469766,-0.263729,0.00521151,0.00611083,573,422,102.505,22.4614,272.874,170.774,170.111,136.915,0.000162034,0.000134844,0.000554542
0,0,0,0,0,0,0,0,0,0,0,0,0,0,0,0,0,0,0,-1,580,422,0,0,0,0,0,0,0,0,0
0,0,0,0,0,0,0,0,0,0,0,0,0,0,0,0,0,0,0,-1,587,422,0,0,0,0,0,0,0,0,0
0,0,0,0,0,0,0,0,0,0,0,0,0,0,0,0,0,0,0,-1,594,422,0,0,0,0,0,0,0,0,0
0,0,0,0,0,0,0,0,0,0,0,0,0,0,0,0,0,0,0,-1,601,422,0,0,0,0,0,0,0,0,0
0,0,0,0,0,0,0,0,0,0,0,0,0,0,0,0,0,0,0,-1,62,429,0,0,0,0,0,0,0,0,0
0,0,0,0,0,0,0,0,0,0,0,0,0,0,0,0,0,0,0,-1,69,429,0,0,0,0,0,0,0,0,0
0,0,0,0,0,0,0,0,0,0,0,0,0,0,0,0,0,0,0,-1,76,429,0,0,0,0,0,0,0,0,0
-18.7043,11.7199,-297.916,4.0855,-1.2543,-0.684702,-0.00748954,0.00158747,0.000904354,0.00167669,-0.00757877,1.47245,0.00854145,645.179,-80.8762,-69.7132,0.0881902,-0.300967,-0.0573168,0.00522514,83,429,106.996,27.7052,169.079,126.251,59.7855,85.1621,0.000138392,0.000123524,0.000489044
-18.4278,11.7078,-297.943,4.0833,-1.25395,-0.685026,-0.00745096,0.00145609,0.000920174,0.00155016,-0.00754503,1.46892,0.00842772,645.391,-81.1871,-67.9574,0.154254,-0.301634,-0.0703712,0.00502228,90,429,106.956,27.7017,169.582,126.9,60.4474,85.8449,0.000132033,0.000119745,0.000469452
-18.149,11.6957,-297.964,4.08115,-1.25341,-0.685022,-0.00738003,0.00131912,0.000948679,0.00142137,-0.00748229,1.46342,0.00828493,645.572,-81.4387,-66.1405,0.202165,-0.300652,-0.0888775,0.0048532,97,429,106.917,27.6946,170.196,127.548,61.2143,86.5311,0.000125125,0.00011886,0.000446602
-17.8684,11.6833,-297.978,4.07913,-1.25271,-0.684577,-0.00728453,0.00117901,0.000987124,0.00129262,-0.00739814,1.45621,0.00812196,645.686,-81.5768,-64.2031,0.230798,-0.297673,-0.110305,0.00497457,104,429,106.88,27.6841,170.906,128.208,62.0678,87.233,0.000122976,0.000125266,0.000438101
-17.5854,11.6706,-297.985,4.07707,-1.25182,-0.684009,-0.00717477,0.001039,0.00103292,0.0011669,-0.00730267,1.4476,0.0079506,645.814,-81.7636,-62.1919,0.246987,-0.292687,-0.12946,0.00520113,111,429,106.843,27.6659,171.725,128.878,63.0294,87.9468,0.000126452,0.000132178,0.000448688
-17.3003,11.658,-297.986,4.07497,-1.25079,-0.683497,-0.00706346,0.000902721,0.0010805,0.00104667,-0.00720741,1.43835,0.00778371,645.97,-81.98,-60.2171,0.261459,-0.28644,-0.142016,0.00544807,118,429,106.809,27.6447,172.645,129.543,64.0912,88.6588,0.000131385,0.000138875,0.000465623
-17.0129,11.6453,-297.979,4.07278,-1.24954,-0.682748,-0.00696108,0.000773159,0.00112285,0.000932875,-0.0071208,1.4295,0.00763013,646.036,-82.2629,-58.0832,0.275357,-0.279672,-0.146793,0.00567625,125,429,106.772,27.6185,173.679,130.209,65.2651,89.3766,0.000138166,0.000144785,0.000491067
-16.7242,11.6325,-297.968,4.07053,-1.2481,-0.681559,-0.00687197,0.000651642,0.00115719,0.000825604,-0.00704593,1.42158,0.00749293,646.05,-82.587,-55.8517,0.288856,-0.272376,-0.14494,0.00582231,132,429,106.733,27.591,174.775,130.873,66.4982,90.1006,0.000144999,0.000147949,0.000516327
-16.436,11.6199,-297.958,4.06851,-1.24665,-0.679623,-0.00679848,0.000538416,0.00118391,0.000724726,-0.00698479,1.41471,0.00737391,645.992,-82.9134,-53.4846,0.309553,-0.264977,-0.139918,0.00587776,139,429,106.693,27.5644,175.857,131.525,67.7043,90.8139,0.000147696,0.000148342,0.000526435
-16.1492,11.607,-297.953,4.06649,-1.24529,-0.67783,-0.00673933,0.000433888,0.00120904,0.000632187,-0.00693763,1.40823,0.00727436,645.928,-83.1764,-51.4497,0.336985,-0.253664,-0.131919,0.00586156,146,429,106.653,27.5384,176.863,132.194,68.8365,91.5401,0.00014742,0.000147017,0.000524943
-15.8634,11.5943,-297.949,4.06465,-1.2439,-0.675536,-0.00669145,0.00033933,0.00123192,0.000548935,-0.00690105,1.40226,0.00719125,645.852,-83.4341,-49.8254,0.365799,-0.238498,-0.122534,0.00563508,153,429,106.614,27.5105,177.83,132.853,69.9203,92.2563,0.000141846,0.00014058,0.000502745
-15.5779,11.5813,-297.947,4.0629,-1.24254,-0.672929,-0.00665149,0.000256434,0.00124927,0.000475418,-0.00687047,1.39727,0.00712009,645.847,-83.5726,-48.2338,0.388202,-0.220206,-0.113483,0.00516882,160,429,106.574,27.4804,178.783,133.53,70.9848,92.9868,0.000130875,0.00013053,0.000462782
-15.2919,11.5684,-297.942,4.0611,-1.24112,-0.670253,-0.0066259,0.000185089,0.00125893,0.000410339,-0.00685115,1.39375,0.00706526,646.024,-83.6246,-46.5949,0.399912,-0.199369,-0.105165,0.00481948,167,429,106.534,27.4499,179.759,134.199,72.0721,93.7124,0.000123185,0.000123563,0.000434665
-15.0054,11.5557,-297.936,4.05923,-1.23979,-0.667302,-0.0066181,0.000125922,0.00126143,0.00035414,-0.00684632,1.39181,0.00703009,646.139,-83.6244,-44.7565,0.405157,-0.176865,-0.0976376,0.0047472,174,429,106.49,27.4225,180.755,134.862,73.1786,94.4294,0.000123816,0.000121536,0.000435611
-14.7178,11.5433,-297.926,4.05716,-1.23842,-0.664696,-0.00662289,7.72907e-05,0.00125888,0.000306011,-0.00685161,1.39107,0.00700963,646.185,-83.6346,-42.5925,0.407619,-0.15285,-0.0931264,0.00487643,181,429,106.446,27.3932,181.8,135.507,74.341,95.1273,0.000129394,0.000123094,0.000454003
-14.428,11.5308,-297.909,4.05501,-1.23678,-0.661753,-0.00663479,3.82045e-05,0.00125405,0.000266094,-0.00686268,1.39104,0.00699952,646.19,-83.665,-40.5744,0.406422,-0.128432,-0.0949521,0.00503949,188,429,106.4,27.3572,182.956,136.152,75.6112,95.8316,0.00013383,0.000125718,0.000468144
-14.1355,11.5177,-297.883,4.05267,-1.23475,-0.65842,-0.00664931,8.65378e-06,0.00124733,0.000234662,-0.00687531,1.39155,0.0069956,646.285,-83.6943,-38.6377,0.399794,-0.105324,-0.104478,0.00498667,195,429,106.349,27.3133,184.247,136.818,77.0165,96.5688,0.000133489,0.000124319,0.000466329
-13.841,11.5043,-297.85,4.05038,-1.23238,-0.654504,-0.00666531,-1.21891e-05,0.00123794,0.000210686,-0.00688819,1.39267,0.00699591,646.361,-83.8153,-36.8106,0.387059,-0.0855297,-0.118558,0.00485596,202,429,106.298,27.2624,185.644,137.494,78.5185,97.3262,0.000130546,0.000121037,0.00045639
-13.5455,11.4908,-297.813,4.04806,-1.22979,-0.650349,-0.00668581,-2.46817e-05,0.00122735,0.000194267,-0.00690476,1.39426,0.00700391,646.353,-83.9231,-35.5689,0.369309,-0.0705175,-0.136081,0.00467481,209,429,106.245,27.2078,187.099,138.166,80.0762,98.0862,0.000124966,0.000116471,0.000435803
-13.2514,11.4774,-297.781,4.04583,-1.22744,-0.646259,-0.00670653,-3.1333e-05,0.00121795,0.00018395,-0.00692182,1.39585,0.0070156,646.255,-84.0849,-34.4897,0.346066,-0.0613182,-0.156204,0.00441708,216,429,106.194,27.1579,188.479,138.838,81.557,98.8392,0.00011861,0.000110432,0.000411941
-12.9595,11.4644,-297.755,4.04361,-1.22528,-0.642599,-0.00671917,-3.28962e-05,0.00121084,0.000179624,-0.0069317,1.39705,0.00702323,645.986,-84.2391,-33.5701,0.325175,-0.0573952,-0.177774,0.0042284,223,429,106.145,27.1112,189.749,139.498,82.9313,99.5734,0.000114613,0.000106968,0.000394975
-12.6685,11.4514,-297.731,4.04137,-1.22327,-0.638791,-0.00671839,-2.99496e-05,0.00120488,0.000180481,-0.00692882,1.39789,0.0070208,645.794,-84.4194,-32.0591,0.315906,-0.0575568,-0.198425,0.00415264,230,429,106.095,27.0669,190.972,140.157,84.2587,100.301,0.000113257,0.00010598,0.000387265
-12.3775,11.4383,-297.707,4.03907,-1.22123,-0.635246,-0.00671118,-2.2139e-05,0.00119846,0.000186103,-0.00691942,1.39876,0.00701432,645.683,-84.6058,-30.1653,0.31619,-0.0615667,-0.214608,0.00421397,237,429,106.045,27.0212,192.189,140.824,85.5822,101.038,0.000115964,0.000107756,0.000395064
-12.0854,11.4251,-297.679,4.03672,-1.21898,-0.631697,-0.00670881,-1.1533e-05,0.00119,0.000193627,-0.00691397,1.40007,0.00701279,645.598,-84.8403,-28.2279,0.32245,-0.0683274,-0.225871,0.00430978,244,429,105.995,26.971,193.465,141.488,86.9651,101.778,0.000118923,0.00011082,0.000405206
-11.7918,11.4121,-297.645,4.03434,-1.21649,-0.628012,-0.00671162,4.34782e-06,0.00117979,0.000205572,-0.00691284,1.40186,0.00701789,645.514,-85.0508,-26.3258,0.334807,-0.0768823,-0.23229,0.00447024,251,429,105.946,26.9152,194.821,142.138,88.4249,102.51,0.000122932,0.000114622,0.000419845
-11.4961,11.3994,-297.604,4.03188,-1.21366,-0.624101,-0.00671772,2.46085e-05,0.00117192,0.000222497,-0.00691561,1.40352,0.0070295,645.385,-85.1754,-24.6604,0.352386,-0.086461,-0.232685,0.0047143,258,429,105.895,26.8491,196.291,142.767,89.9972,103.227,0.000128809,0.000117795,0.000441603
-11.1973,11.3865,-297.553,4.02908,-1.21039,-0.619981,-0.00671841,4.55602e-05,0.00117056,0.000242407,-0.00691526,1.40419,0.00703959,645.176,-85.3306,-22.7506,0.374605,-0.095404,-0.22526,0.00513867,265,429,105.838,26.7751,197.915,143.396,91.7279,103.959,0.000139724,0.000119571,0.000480576
-10.8989,11.3733,-297.503,4.02644,-1.20698,-0.615139,-0.00671015,6.59104e-05,0.00117395,0.000263534,-0.00690777,1.40402,0.00704324,644.885,-85.4702,-20.8229,0.400519,-0.102966,-0.210747,0.00534687,272,429,105.78,26.6997,199.532,144.033,93.4399,104.704,0.000144229,0.000122484,0.000498402
-10.6018,11.3597,-297.456,4.0239,-1.20375,-0.60972,-0.00669167,8.80345e-05,0.0011763,0.000286327,-0.00688996,1.40379,0.0070375,644.638,-85.7424,-18.6833,0.424922,-0.107467,-0.191447,0.00536623,279,429,105.718,26.6273,201.085,144.696,95.0816,105.469,0.00014412,0.000125342,0.000500423
-10.3073,11.346,-297.416,4.02158,-1.20078,-0.604407,-0.00665619,0.000113379,0.00117523,0.000311602,-0.00685441,1.4037,0.0070154,644.428,-85.9529,-16.5983,0.438131,-0.110053,-0.169831,0.00542187,286,429,105.662,26.5594,202.517,145.368,96.598,106.234,0.000145706,0.000133556,0.000507037
-10.0137,11.3326,-297.379,4.01887,-1.19789,-0.59963,-0.00660544,0.000143955,0.00116907,0.000340715,-0.0068022,1.40405,0.0069788,644.267,-86.095,-14.5717,0.440028,-0.110731,-0.14753,0.00555011,293,429,105.599,26.4937,203.882,146.03,98.0621,106.989,0.000146679,0.000142386,0.000510261
-9.7185,11.319,-297.336,4.01583,-1.19493,-0.594471,-0.00653783,0.00017806,0.00115789,0.000372088,-0.00673185,1.40477,0.0069254,644.237,-86.1492,-12.5024,0.438393,-0.110811,-0.125605,0.00581044,300,429,105.527,26.4257,205.332,146.698,99.6158,107.749,0.000148985,0.000149785,0.000518058
-9.41799,11.3054,-297.276,4.0125,-1.19142,-0.589068,-0.00644849,0.000213955,0.00114192,0.00040424,-0.00663878,1.40568,0.00684985,644.001,-86.1933,-10.9165,0.438478,-0.109608,-0.108819,0.0059257,307,429,105.453,26.3485,207.06,147.358,101.448,108.519,0.000149434,0.00015304,0.000518583
-9.11497,11.2918,-297.206,4.00906,-1.18746,-0.583606,-0.00634375,0.000250754,0.00112121,0.000436173,-0.00652916,1.40691,0.00675782,643.72,-86.2079,-9.32133,0.441646,-0.10637,-0.0996016,0.00584974,314,429,105.378,26.266,208.926,147.999,103.417,109.287,0.000145569,0.000152274,0.000504217
-8.81003,11.2779,-297.129,4.00554,-1.18324,-0.578028,-0.00623242,0.000290192,0.00109665,0.000469635,-0.00641186,1.4086,0.00665911,643.412,-86.141,-7.79742,0.443043,-0.100736,-0.0988992,0.00561402,321,429,105.302,26.177,210.898,148.653,105.491,110.073,0.000139323,0.000146936,0.000482168
-8.50537,11.2639,-297.053,4.00209,-1.17913,-0.572037,-0.00612105,0.000331939,0.00107437,0.000506112,-0.00629522,1.41008,0.00656293,643.142,-85.9983,-6.14387,0.438955,-0.0939297,-0.104955,0.0054135,328,429,105.226,26.0871,212.866,149.319,107.555,110.865,0.00013702,0.000141259,0.000474245
-8.20321,11.2499,-296.983,3.99885,-1.17516,-0.566204,-0.00601666,0.000374573,0.00105913,0.000545517,-0.00618761,1.41078,0.00647762,643.011,-85.8603,-4.35442,0.431318,-0.0872284,-0.115916,0.00546989,335,429,105.154,26.0008,214.712,149.983,109.493,111.652,0.0001432,0.000138995,0.000495125
-7.90406,11.2362,-296.923,3.99621,-1.17129,-0.560067,-0.00592478,0.000417125,0.00105102,0.000586769,-0.00609442,1.41077,0.00640799,642.793,-85.9514,-3.03614,0.424872,-0.0794206,-0.129898,0.00548391,342,429,105.093,25.917,216.42,150.633,111.276,112.424,0.000145541,0.000132626,0.000502761
-7.60694,11.2226,-296.869,3.99345,-1.16766,-0.554413,-0.00584867,0.000459367,0.00104691,0.000628579,-0.00601788,1.41055,0.00635552,642.601,-86.19,-1.82736,0.419944,-0.0706459,-0.143538,0.00526987,349,429,105.03,25.8339,218.016,151.288,112.955,113.19,0.00013909,0.000124156,0.000480458
-7.31108,11.2094,-296.819,3.99102,-1.16422,-0.548219,-0.00580347,0.000500329,0.0010439,0.0006687,-0.00597184,1.41088,0.00633273,642.435,-86.4304,-0.645041,0.415307,-0.0614171,-0.154409,0.00524183,356,429,104.971,25.7521,219.563,151.929,114.571,113.933,0.00013718,0.000124095,0.000473897
-7.01531,11.1966,-296.768,3.98842,-1.16077,-0.542212,-0.0057942,0.000540935,0.00104069,0.000707513,-0.00596078,1.41208,0.00634419,642.265,-86.6087,1.00857,0.416854,-0.0528385,-0.162526,0.00499867,363,429,104.91,25.6673,221.104,152.546,116.188,114.651,0.000132404,0.000118679,0.000458118
-6.72054,11.1835,-296.719,3.98583,-1.15724,-0.535871,-0.0058236,0.000584616,0.00103767,0.000748454,-0.00598744,1.4142,0.0063946,642.112,-86.8447,2.72971,0.424777,-0.0443158,-0.170283,0.00489848,370,429,104.846,25.5831,222.597,153.18,117.753,115.39,0.000129353,0.000122845,0.000447826
-6.42724,11.1701,-296.675,3.98324,-1.15372,-0.529656,-0.0058839,0.000630078,0.00103623,0.000790947,-0.00604477,1.41678,0.00647657,641.955,-87.0925,4.59176,0.435122,-0.0358988,-0.176562,0.00500098,377,429,104.781,25.5011,224.013,153.825,119.241,116.142,0.000130571,0.000127943,0.000452043
-6.13478,11.1568,-296.633,3.98067,-1.15017,-0.523358,-0.00596202,0.000673987,0.0010353,0.000831755,-0.00611979,1.41957,0.00657524,641.683,-87.3293,6.18076,0.444328,-0.0300983,-0.177359,0.00506427,384,429,104.717,25.4163,225.388,154.46,120.688,116.885,0.000133695,0.000131893,0.000463397
-5.84278,11.1435,-296.592,3.97802,-1.14661,-0.517325,-0.0060556,0.00071711,0.0010302,0.000870347,-0.00620883,1.42313,0.00668663,641.41,-87.4655,7.92649,0.457668,-0.0269436,-0.171175,0.00519347,391,429,104.652,25.3336,226.738,155.094,122.112,117.628,0.000135879,0.000132764,0.000471472
-5.55099,11.1304,-296.551,3.9753,-1.14302,-0.511157,-0.00614748,0.000758755,0.00101853,0.000905836,-0.00629456,1.42738,0.00679293,641.169,-87.4995,9.72301,0.476889,-0.0270866,-0.160872,0.00534407,398,429,104.585,25.2488,228.079,155.718,123.529,118.361,0.000138441,0.000133128,0.0004813
-5.25887,11.1174,-296.508,3.97243,-1.13942,-0.504985,-0.00622716,0.000800655,0.000997624,0.000939528,-0.00636603,1.43248,0.00688405,641.042,-87.4536,11.6287,0.499628,-0.0297711,-0.151121,0.00540166,405,429,104.515,25.1655,229.439,156.34,124.967,119.093,0.000141353,0.000135509,0.000491571
-4.96579,11.1042,-296.461,3.96934,-1.13568,-0.498926,-0.0062918,0.000843588,0.000967057,0.00097233,-0.00642054,1.43845,0.00695785,641,-87.4751,13.2007,0.525608,-0.0352854,-0.143537,0.00536453,412,429,104.442,25.0803,230.849,156.963,126.46,119.831,0.000142531,0.000137035,0.000495374
-4.67149,11.0909,-296.409,3.96623,-1.13192,-0.492605,-0.00633854,0.000888997,0.000930814,0.00100695,-0.00645649,1.44475,0.00701438,640.995,-87.5558,14.436,0.548627,-0.0427105,-0.136765,0.00530051,419,429,104.368,24.994,232.334,157.594,128.024,120.577,0.000140263,0.000132676,0.000487457
-4.37629,11.0775,-296.354,3.96306,-1.128,-0.485785,-0.00636622,0.000935963,0.000890341,0.00104295,-0.00647321,1.4512,0.00705276,640.962,-87.757,15.656,0.570368,-0.04952,-0.130719,0.00519351,426,429,104.291,24.9051,233.877,158.226,129.642,121.328,0.000137783,0.000125756,0.000479312
-4.07994,11.0639,-296.293,3.95976,-1.12393,-0.478743,-0.00636577,0.000981712,0.000845145,0.00107767,-0.00646173,1.45774,0.00706251,640.934,-87.9685,17.22,0.594854,-0.0531754,-0.128029,0.00511845,433,429,104.211,24.8127,235.488,158.868,131.327,122.093,0.000136069,0.000120265,0.000474515
-3.78296,11.0502,-296.23,3.95637,-1.11969,-0.471319,-0.00633915,0.00102682,0.000796412,0.00111194,-0.00642428,1.46432,0.00704636,640.716,-88.1662,18.8073,0.617426,-0.0547735,-0.128384,0.00522592,440,429,104.127,24.7167,237.141,159.508,133.053,122.862,0.000138478,0.000121346,0.000483751
-3.48585,11.0365,-296.166,3.9529,-1.11534,-0.464167,-0.00629514,0.00107248,0.00074761,0.00114758,-0.00637023,1.47068,0.00701478,640.479,-88.3691,20.583,0.631205,-0.0571747,-0.130236,0.0053768,447,429,104.044,24.6172,238.804,160.146,134.791,123.629,0.000142393,0.000127644,0.000497875
-3.18874,11.0232,-296.1,3.94939,-1.11087,-0.457114,-0.00624046,0.00111848,0.000702675,0.00118498,-0.00630695,1.47645,0.00697534,640.188,-88.5437,21.9845,0.630352,-0.0612455,-0.131477,0.00540172,454,429,103.961,24.5116,240.472,160.769,136.536,124.383,0.000142083,0.000134082,0.000495845
-2.89016,11.0097,-296.029,3.94565,-1.10621,-0.449725,-0.00617073,0.00116453,0.000662677,0.00122392,-0.00623012,1.48142,0.0069237,639.945,-88.6908,23.6757,0.616409,-0.0655712,-0.129535,0.00535308,461,429,103.871,24.4,242.229,161.395,138.37,125.144,0.000138059,0.000138397,0.000480261
-2.58918,10.9961,-295.949,3.94175,-1.10129,-0.442475,-0.00607774,0.00121082,0.000623234,0.00126373,-0.00613065,1.48611,0.0068505,639.718,-88.7144,25.0545,0.598009,-0.0684089,-0.124635,0.00535503,468,429,103.782,24.2824,244.124,162.022,140.344,125.912,0.000135486,0.00013909,0.000470442
-2.28559,10.982,-295.858,3.93749,-1.0958,-0.434897,-0.0059577,0.00125551,0.000582246,0.00130221,-0.00600439,1.49077,0.00675037,639.413,-88.7216,25.9905,0.580431,-0.0718507,-0.117572,0.00543203,475,429,103.685,24.157,246.17,162.655,142.473,126.707,0.000138838,0.000139203,0.000482649
-1.98113,10.9678,-295.763,3.93322,-1.09018,-0.42694,-0.00581859,0.00129908,0.000543172,0.00134029,-0.0058598,1.49507,0.00663231,639.174,-88.792,27.2519,0.55781,-0.0766697,-0.110102,0.00562321,482,429,103.586,24.0281,248.28,163.296,144.659,127.513,0.000144453,0.000140578,0.000504226
-1.67469,10.9535,-295.661,3.92872,-1.08434,-0.419006,-0.00566947,0.00134183,0.000512167,0.00137904,-0.00570669,1.49826,0.00650675,638.995,-88.9128,28.7004,0.526182,-0.0834935,-0.103995,0.00565237,489,429,103.485,23.8977,250.507,163.932,146.966,128.322,0.000147389,0.000138131,0.000515743
-1.36785,10.9393,-295.555,3.92408,-1.07863,-0.411284,-0.00550826,0.00138347,0.000491555,0.00141835,-0.00554314,1.49995,0.00637183,638.684,-89.0045,30.3153,0.491707,-0.0924467,-0.0988883,0.00557326,496,429,103.382,23.7671,252.764,164.575,149.308,129.132,0.000146645,0.000131835,0.000513123
-1.0612,10.9251,-295.45,3.9192,-1.07299,-0.403549,-0.00533538,0.00142608,0.000478702,0.0014598,-0.0053691,1.50047,0.00622865,638.283,-89.1576,31.9906,0.459591,-0.102774,-0.0925479,0.00549017,503,429,103.274,23.6385,255.016,165.216,151.649,129.937,0.000144663,0.000124059,0.000504674
-0.756344,10.9111,-295.349,3.91448,-1.06737,-0.395913,-0.00515643,0.00147014,0.00047357,0.00150381,-0.0051901,1.49981,0.00608305,637.68,-89.2818,33.6448,0.43099,-0.113691,-0.0840777,0.0054853,510,429,103.17,23.512,257.18,165.846,153.899,130.734,0.000144657,0.000121339,0.000502272
-0.454666,10.8975,-295.259,3.91039,-1.06186,-0.388234,-0.0049864,0.00151384,0.000475707,0.00154847,-0.00502103,1.49813,0.00594839,637.249,-89.2545,35.1717,0.403949,-0.126309,-0.0751461,0.0056537,517,429,103.078,23.3859,259.189,166.456,155.978,131.506,0.000149083,0.00012368,0.000517144
-0.155524,10.8837,-295.177,3.90687,-1.05655,-0.379947,-0.00483251,0.00155301,0.00048028,0.00158893,-0.00486843,1.49614,0.00582769,636.947,-89.1572,36.8586,0.384566,-0.141825,-0.0658394,0.00575012,524,429,102.994,23.2608,261.08,167.082,157.921,132.285,0.00015166,0.000125871,0.000525206
0.142433,10.8701,-295.098,3.90359,-1.05151,-0.371502,-0.00467544,0.00159436,0.000492905,0.00163287,-0.00471395,1.49282,0.00570832,636.717,-89.0844,38.8688,0.370921,-0.159699,-0.0549054,0.00567602,531,429,102.915,23.1402,262.92,167.706,159.803,133.054,0.000149893,0.000125257,0.00051802
0.440277,10.8565,-295.019,3.90028,-1.04649,-0.363234,-0.004552,0.00164012,0.000509912,0.00168183,-0.00459371,1.48918,0.00562641,636.355,-89.1696,40.1906,0.362193,-0.178894,-0.0420112,0.00552831,538,429,102.837,23.0192,264.761,168.332,161.689,133.823,0.000146234,0.000124547,0.000503906
0.73737,10.8428,-294.941,3.89686,-1.04143,-0.355175,-0.00445863,0.00168941,0.000527925,0.00173442,-0.00450364,1.48576,0.00557693,635.903,-89.3553,41.5353,0.361738,-0.196383,-0.0300991,0.00557135,545,429,102.757,22.8983,266.563,168.961,163.539,134.597,0.000147774,0.000126194,0.000506989
1.03343,10.8293,-294.866,3.89369,-1.0364,-0.347283,-0.00439512,0.00174062,0.00054215,0.00178816,-0.00444266,1.48334,0.00555688,635.557,-89.5641,43.0003,0.371335,-0.2122,-0.0206524,0.00577141,552,429,102.685,22.7806,268.319,169.576,165.337,135.359,0.000153479,0.000129853,0.000524162
1.32818,10.816,-294.795,3.89068,-1.03166,-0.339061,-0.00438234,0.00179257,0.000548322,0.00184089,-0.00443065,1.48291,0.00558353,635.433,-89.5991,44.0586,0.386243,-0.229743,-0.0121582,0.00600609,559,429,102.613,22.6693,270.014,170.19,167.068,136.111,0.000159704,0.000132195,0.00054544
1.62198,10.8027,-294.726,3.88772,-1.02704,-0.331361,-0.00444105,0.00184361,0.000541567,0.00188994,-0.00448737,1.48546,0.00567356,635.379,-89.6338,44.954,0.398478,-0.251926,-0.000142725,0.00611653,566,429,102.547,22.5621,271.659,170.799,168.751,136.857,0.000162365,0.000133687,0.000554883
1.91399,10.7892,-294.663,3.88456,-1.02244,-0.324323,-0.00455689,0.00189037,0.000512537,0.00193086,-0.00459738,1.49196,0.0058087,635.214,-89.6423,45.8595,0.42405,-0.275668,0.0183499,0.0060602,573,429,102.478,22.4579,273.195,171.419,170.337,137.616,0.000161,0.000133435,0.000549476
0,0,0,0,0,0,0,0,0,0,0,0,0,0,0,0,0,0,0,-1,580,429,0,0,0,0,0,0,0,0,0
0,0,0,0,0,0,0,0,0,0,0,0,0,0,0,0,0,0,0,-1,587,429,0,0,0,0,0,0,0,0,0
0,0,0,0,0,0,0,0,0,0,0,0,0,0,0,0,0,0,0,-1,594,429,0,0,0,0,0,0,0,0,0
0,0,0,0,0,0,0,0,0,0,0,0,0,0,0,0,0,0,0,-1,601,429,0,0,0,0,0,0,0,0,0
0,0,0,0,0,0,0,0,0,0,0,0,0,0,0,0,0,0,0,-1,62,436,0,0,0,0,0,0,0,0,0
0,0,0,0,0,0,0,0,0,0,0,0,0,0,0,0,0,0,0,-1,69,436,0,0,0,0,0,0,0,0,0
0,0,0,0,0,0,0,0,0,0,0,0,0,0,0,0,0,0,0,-1,76,436,0,0,0,0,0,0,0,0,0
-18.7325,11.4488,-297.963,4.0862,-1.25594,-0.677434,-0.00736718,0.00163137,0.000990425,0.0017391,-0.0074749,1.46246,0.00847928,645.212,-80.8922,-68.945,0.101465,-0.300633,-0.0320515,0.00524414,83,436,106.938,27.7485,167.695,127.1,58.3363,86.0167,0.000139832,0.000124029,0.000492136
-18.4567,11.437,-297.993,4.08399,-1.25563,-0.678051,-0.00733852,0.00151008,0.000992937,0.00162013,-0.00744857,1.46041,0.00837698,645.444,-81.2061,-66.9339,0.163075,-0.301103,-0.0554054,0.00501054,90,436,106.9,27.7449,168.162,127.734,58.965,86.682,0.000131921,0.000118727,0.000468762
-18.1779,11.4249,-298.013,4.08193,-1.25509,-0.678032,-0.00727745,0.00137979,0.00100693,0.00149537,-0.00739302,1.45652,0.00824307,645.644,-81.4822,-64.9195,0.210465,-0.29833,-0.0812641,0.00489362,97,436,106.863,27.7391,168.778,128.376,59.7304,87.3633,0.000124377,0.00012072,0.00044494
-17.8967,11.4123,-298.026,4.0799,-1.25434,-0.677836,-0.00718958,0.00124473,0.00103056,0.00136882,-0.00731367,1.45096,0.00808545,645.76,-81.6852,-62.9058,0.24053,-0.293443,-0.108097,0.0051271,104,436,106.828,27.7283,169.511,129.042,60.6095,88.0729,0.000122968,0.0001294,0.000440532
-17.6127,11.3994,-298.03,4.0778,-1.25331,-0.67745,-0.00708428,0.00110936,0.00106171,0.0012447,-0.00721962,1.44401,0.00791571,645.81,-81.8846,-61.1449,0.257784,-0.28677,-0.131527,0.0053841,111,436,106.793,27.7082,170.377,129.719,61.6192,88.7983,0.0001268,0.000136384,0.000452879
-17.3266,11.3869,-298.028,4.07565,-1.2521,-0.676813,-0.00697333,0.000977844,0.00109555,0.00112603,-0.00712151,1.43635,0.00774616,645.936,-82.0608,-59.2301,0.271831,-0.279001,-0.147493,0.00565574,118,436,106.758,27.6844,171.347,130.374,62.7296,89.5066,0.000133692,0.000143485,0.000476388
-17.0382,11.3743,-298.018,4.07339,-1.25071,-0.675749,-0.00686657,0.000853094,0.00112566,0.00101389,-0.00702736,1.42891,0.0075853,646.023,-82.2581,-57.0946,0.283956,-0.270857,-0.155182,0.00591026,125,436,106.718,27.6552,172.427,131.032,63.9491,90.2201,0.000142569,0.000149517,0.000507847
-16.7487,11.3615,-298.005,4.07109,-1.2492,-0.674273,-0.00677003,0.000736313,0.00114922,0.000908318,-0.00694203,1.42223,0.0074379,646.081,-82.4889,-54.9192,0.294586,-0.262165,-0.156164,0.00602014,132,436,106.676,27.6242,173.563,131.697,65.2204,90.9448,0.000149717,0.000151335,0.000533709
-16.4593,11.3489,-297.992,4.06903,-1.24766,-0.672387,-0.00668991,0.000627817,0.00116616,0.000809164,-0.00687126,1.41652,0.00730951,646.057,-82.7696,-52.6896,0.312237,-0.25353,-0.154623,0.00589145,139,436,106.637,27.5945,174.702,132.347,66.4844,91.6563,0.000149017,0.000148969,0.000533011
-16.1709,11.3362,-297.981,4.06716,-1.24617,-0.670354,-0.00662496,0.000527574,0.00118256,0.000718021,-0.00681541,1.41112,0.00720132,646.037,-83.0802,-50.4823,0.337091,-0.240523,-0.149343,0.00565593,146,436,106.601,27.5657,175.796,133.003,67.6969,92.373,0.000145405,0.000143639,0.000519702
-15.8836,11.3235,-297.973,4.06546,-1.24467,-0.668073,-0.00657255,0.00043692,0.00119795,0.000636002,-0.00677163,1.40612,0.007111,645.979,-83.3355,-48.7531,0.363884,-0.22367,-0.141394,0.00529109,153,436,106.566,27.5348,176.84,133.659,68.8537,93.0884,0.000137746,0.00013543,0.000490738
-15.5967,11.3105,-297.967,4.06375,-1.24322,-0.665634,-0.00652858,0.000356955,0.00120927,0.000563157,-0.00673478,1.4019,0.00703329,645.866,-83.4949,-47.3166,0.384316,-0.203785,-0.132472,0.00497442,160,436,106.53,27.5022,177.864,134.335,69.9883,93.8197,0.000127886,0.000127567,0.000454355
-15.3098,11.2977,-297.96,4.06194,-1.24173,-0.663114,-0.00649894,0.000287475,0.00121431,0.000498209,-0.00670968,1.39896,0.00697215,645.903,-83.5456,-45.9487,0.393725,-0.181837,-0.123394,0.00479429,167,436,106.492,27.4692,178.881,134.999,71.1174,94.5397,0.000123387,0.00012236,0.0004365
-15.0227,11.2851,-297.952,4.06004,-1.24027,-0.6601,-0.0064881,0.000229009,0.00121352,0.000441521,-0.00670062,1.39743,0.00693193,645.949,-83.5392,-44.2572,0.397012,-0.15898,-0.114547,0.00477277,174,436,106.448,27.4386,179.909,135.65,72.2554,95.2473,0.000126005,0.000120651,0.000443627
-14.735,11.2728,-297.941,4.05805,-1.23881,-0.657039,-0.00649158,0.000179857,0.00120909,0.000392224,-0.00670395,1.39693,0.00690841,645.959,-83.5717,-42.1988,0.398377,-0.135122,-0.108096,0.00493967,181,436,106.403,27.4068,180.968,136.287,73.4256,95.9398,0.000132243,0.000122063,0.000463474
-14.4454,11.2604,-297.925,4.05594,-1.23713,-0.653954,-0.00650403,0.000138952,0.00120286,0.000350047,-0.00671512,1.39707,0.00689681,646.022,-83.6518,-40.145,0.39705,-0.111172,-0.10701,0.00507835,188,436,106.356,27.3702,182.113,136.925,74.6827,96.6396,0.00013557,0.000123457,0.000473465
-14.1538,11.2476,-297.902,4.0537,-1.23514,-0.650567,-0.00652048,0.000106039,0.00119468,0.000314846,-0.00672929,1.39776,0.00689211,646.17,-83.762,-38.2767,0.390565,-0.0887007,-0.112819,0.00501489,195,436,106.307,27.3275,183.361,137.579,76.0417,97.3629,0.000134022,0.000121968,0.000467707
-13.8608,11.2342,-297.873,4.05144,-1.23291,-0.646921,-0.00653867,8.0353e-05,0.00118383,0.000285713,-0.00674403,1.39904,0.00689133,646.355,-83.9348,-36.4205,0.377836,-0.0700124,-0.122684,0.00481801,202,436,106.257,27.2799,184.684,138.258,77.4718,98.1189,0.000129142,0.000118296,0.000451631
-13.5666,11.2206,-297.841,4.04921,-1.23052,-0.643084,-0.00655999,6.15509e-05,0.00117207,0.000262894,-0.00676134,1.40067,0.00689654,646.445,-84.0452,-35.0137,0.360728,-0.0566501,-0.135942,0.00457163,209,436,106.208,27.2285,186.064,138.938,78.9559,98.8803,0.000122896,0.000113766,0.000429462
-13.2743,11.2073,-297.814,4.04709,-1.22835,-0.639302,-0.00657888,4.78126e-05,0.00116177,0.000245589,-0.00677666,1.40218,0.00690273,646.374,-84.1713,-33.7461,0.339278,-0.0495289,-0.152459,0.0044117,216,436,106.16,27.1818,187.357,139.612,80.3502,99.629,0.000118778,0.000109071,0.000413198
-12.9837,11.1945,-297.793,4.04505,-1.22638,-0.635375,-0.00658775,3.96581e-05,0.00115434,0.000234963,-0.00678305,1.40319,0.00690353,646.108,-84.3235,-32.551,0.320254,-0.0477307,-0.171821,0.0043744,223,436,106.113,27.1373,188.565,140.266,81.6564,100.35,0.000118446,0.000107921,0.000408724
-12.6923,11.1816,-297.768,4.04279,-1.22431,-0.631444,-0.00658343,3.67822e-05,0.00114911,0.000230566,-0.00677721,1.40373,0.00689539,645.818,-84.4663,-31.2419,0.311468,-0.0499141,-0.191456,0.00430792,230,436,106.061,27.0922,189.804,140.921,82.9991,101.076,0.000117847,0.000108638,0.000403145
-12.4001,11.1684,-297.74,4.0404,-1.22207,-0.627852,-0.00657303,3.94493e-05,0.00114532,0.000232206,-0.00676579,1.40406,0.00688483,645.646,-84.6224,-29.5079,0.31088,-0.0556921,-0.207437,0.00436097,237,436,106.01,27.0447,191.084,141.588,84.3868,101.82,0.000119548,0.000110684,0.000407947
-12.1063,11.1553,-297.706,4.03799,-1.21969,-0.624221,-0.00656764,4.57728e-05,0.00114042,0.000236904,-0.00675877,1.40474,0.00688029,645.602,-84.8615,-27.4848,0.315541,-0.0638354,-0.219317,0.0044995,244,436,105.96,26.9926,192.443,142.248,85.8525,102.559,0.000122391,0.000114022,0.000417642
-11.8107,11.1423,-297.666,4.03558,-1.21705,-0.620575,-0.00656918,5.86475e-05,0.00113359,0.000247167,-0.00675769,1.406,0.00688461,645.48,-85.1121,-25.6346,0.326976,-0.0736769,-0.227077,0.00472724,251,436,105.912,26.9342,193.905,142.894,87.4179,103.291,0.000127339,0.000118884,0.000435295
-11.5129,11.1295,-297.619,4.033,-1.21409,-0.616859,-0.00657935,7.61909e-05,0.00112971,0.00026272,-0.00676588,1.40716,0.006901,645.288,-85.2809,-24.0234,0.343726,-0.0839294,-0.228997,0.00516185,258,436,105.863,26.8647,195.475,143.528,89.0931,104.016,0.000138704,0.000125597,0.000475082
-11.2126,11.1166,-297.563,4.03012,-1.21068,-0.612599,-0.00658939,9.49465e-05,0.00113276,0.000281693,-0.00677614,1.40741,0.00692129,644.999,-85.4052,-21.9677,0.364453,-0.0935505,-0.223233,0.00565446,265,436,105.804,26.788,197.175,144.156,90.8988,104.75,0.000153244,0.000131434,0.000525854
-10.9139,11.1035,-297.512,4.02752,-1.20724,-0.607358,-0.00659168,0.000113589,0.00113978,0.000302037,-0.00678013,1.40694,0.00693608,644.686,-85.5271,-19.9586,0.388398,-0.101463,-0.209996,0.0056145,272,436,105.744,26.7108,198.811,144.787,92.6262,105.489,0.00015089,0.00013166,0.000520767
-10.6161,11.0901,-297.463,4.02485,-1.2039,-0.602009,-0.00658017,0.000134827,0.0011435,0.000324214,-0.00676956,1.40667,0.00693735,644.427,-85.7495,-17.7064,0.410684,-0.105732,-0.191367,0.00559862,279,436,105.681,26.6373,200.4,145.439,94.3077,106.246,0.000150201,0.000131378,0.000521151
-10.3202,11.0765,-297.419,4.02245,-1.20075,-0.596725,-0.00654917,0.000161212,0.00114169,0.000350137,-0.00673809,1.4068,0.00691981,644.252,-85.9733,-15.419,0.42259,-0.108014,-0.169513,0.00544941,286,436,105.624,26.5663,201.898,146.105,95.8903,107.012,0.000146436,0.000135724,0.000510366
-10.0265,11.063,-297.381,4.01976,-1.19775,-0.591987,-0.00650173,0.000191547,0.00113377,0.00037838,-0.00668857,1.40747,0.00688556,644.161,-86.1428,-13.5528,0.423483,-0.108305,-0.146592,0.00549941,293,436,105.562,26.4983,203.272,146.768,97.3634,107.769,0.000141364,0.000141486,0.000492709
-9.73094,11.0494,-297.337,4.01675,-1.19473,-0.586842,-0.00643717,0.000224795,0.00112053,0.000408217,-0.00662059,1.40854,0.00683385,644.136,-86.1716,-11.8696,0.421091,-0.107913,-0.123734,0.00565992,300,436,105.492,26.4276,204.742,147.438,98.9358,108.532,0.000141028,0.00014533,0.000491185
-9.43034,11.036,-297.276,4.01345,-1.1913,-0.581569,-0.00634918,0.000258547,0.00110284,0.000437752,-0.00652839,1.40971,0.00675791,643.963,-86.1163,-10.2857,0.421775,-0.106005,-0.106157,0.00570954,307,436,105.419,26.3498,206.476,148.093,100.774,109.292,0.000142775,0.000146424,0.00049613
-9.12705,11.0225,-297.206,4.01008,-1.1874,-0.575992,-0.00624351,0.000292966,0.00108042,0.000466919,-0.00641746,1.41116,0.00666321,643.588,-86.1037,-9.05758,0.426425,-0.101638,-0.0961783,0.00559224,314,436,105.345,26.2678,208.359,148.736,102.757,110.058,0.000140943,0.000144177,0.000488706
-8.82216,11.0087,-297.129,4.00657,-1.18321,-0.570444,-0.00613122,0.000329463,0.00105436,0.000497179,-0.00629894,1.41305,0.00656167,643.206,-86.0558,-7.68858,0.429312,-0.0948812,-0.0942415,0.00541491,321,436,105.271,26.1825,210.329,149.384,104.828,110.84,0.000139398,0.000139864,0.000482461
-8.51799,10.9947,-297.055,4.00318,-1.17921,-0.564615,-0.00602039,0.000367235,0.00103156,0.000529693,-0.00618285,1.41459,0.006464,642.872,-85.9605,-6.19847,0.426936,-0.0875167,-0.0986067,0.00524118,328,436,105.197,26.0969,212.271,150.054,106.867,111.633,0.000136503,0.00013487,0.000472316
-8.21569,10.9808,-296.985,4.00008,-1.17537,-0.558522,-0.00591692,0.00040571,0.00101722,0.000565336,-0.00607655,1.41514,0.00637804,642.664,-85.8929,-4.53579,0.422126,-0.0806995,-0.108268,0.00506735,335,436,105.127,26.0128,214.13,150.721,108.812,112.419,0.000133617,0.000130524,0.000462234
-7.91597,10.9673,-296.923,3.99733,-1.17159,-0.552329,-0.00582514,0.000444585,0.00101114,0.000603621,-0.00598417,1.41479,0.00630768,642.496,-85.976,-2.9546,0.41913,-0.0732783,-0.121905,0.00503395,342,436,105.063,25.9294,215.867,151.373,110.625,113.187,0.000132968,0.000128164,0.00045944
-7.6178,10.9538,-296.865,3.99468,-1.16779,-0.546536,-0.00574815,0.000484078,0.00101093,0.00064396,-0.00590803,1.41394,0.00625492,642.419,-86.1227,-1.28019,0.416579,-0.0653902,-0.135585,0.00495168,349,436,105.003,25.8422,217.525,152.016,112.36,113.945,0.000130861,0.000122291,0.000452243
-7.32069,10.9406,-296.811,3.99214,-1.16409,-0.540549,-0.0057028,0.000523379,0.00101396,0.000684346,-0.00586377,1.41336,0.00623418,642.254,-86.3105,0.0960231,0.412391,-0.0574458,-0.146612,0.00495779,356,436,104.945,25.7565,219.135,152.65,114.044,114.69,0.000130759,0.000122995,0.000452175
-7.0239,10.9279,-296.756,3.98957,-1.16044,-0.534465,-0.00569367,0.000563706,0.0010172,0.000724911,-0.00585487,1.41363,0.00624894,642.092,-86.4755,2.08068,0.414437,-0.0507663,-0.155108,0.00490255,363,436,104.885,25.6699,220.734,153.26,115.715,115.409,0.000130026,0.000117676,0.000450029
-6.72878,10.915,-296.707,3.98691,-1.1569,-0.528447,-0.0057251,0.000608487,0.00102097,0.000768998,-0.00588561,1.41486,0.00630538,641.927,-86.7319,4.00436,0.423426,-0.0445439,-0.163358,0.00483147,370,436,104.822,25.5868,222.243,153.886,117.3,116.14,0.000127998,0.00011802,0.000443085
-6.43555,10.9016,-296.663,3.9843,-1.15343,-0.522181,-0.00578974,0.000656641,0.00102651,0.000816152,-0.00594926,1.41664,0.0063965,641.686,-87.0092,5.66748,0.433895,-0.0392385,-0.169776,0.00486211,377,436,104.757,25.5059,223.655,154.528,118.785,116.888,0.000127643,0.000122626,0.000441693
-6.14291,10.8883,-296.62,3.98167,-1.1498,-0.515834,-0.0058722,0.000704112,0.00103225,0.000862331,-0.00603042,1.4187,0.0065046,641.38,-87.2583,7.01627,0.441369,-0.0374299,-0.170138,0.00491792,384,436,104.691,25.4206,225.04,155.166,120.242,117.636,0.000130553,0.000126653,0.00045224
-5.85014,10.8749,-296.576,3.97903,-1.14616,-0.509255,-0.00596608,0.000750445,0.00103229,0.000905522,-0.00612116,1.42169,0.00662053,641.097,-87.4189,8.53515,0.451466,-0.038386,-0.163728,0.00506149,391,436,104.623,25.3364,226.437,155.808,121.708,118.389,0.000133608,0.000129161,0.000463465
-5.5576,10.8619,-296.532,3.9763,-1.14248,-0.502965,-0.0060534,0.000796746,0.00102362,0.000946434,-0.00620309,1.42559,0.00672643,640.841,-87.4761,10.199,0.467794,-0.0425134,-0.153233,0.00520988,398,436,104.556,25.2498,227.822,156.426,123.167,119.118,0.000136543,0.000130556,0.000474283
-5.26496,10.8489,-296.488,3.9735,-1.13899,-0.496511,-0.00612533,0.000842985,0.00100326,0.000984553,-0.00626689,1.43061,0.00681274,640.706,-87.4769,12.0398,0.488401,-0.0486308,-0.143334,0.00526225,405,436,104.487,25.1654,229.216,157.053,124.634,119.848,0.000139125,0.000133478,0.000483346
-4.97218,10.8359,-296.442,3.97052,-1.13535,-0.490479,-0.00618228,0.000889754,0.00097071,0.00102057,-0.0063131,1.43684,0.00688039,640.641,-87.5721,13.632,0.512459,-0.0572128,-0.135341,0.00525664,412,436,104.416,25.0811,230.614,157.673,126.112,120.579,0.000138549,0.000133916,0.000481025
-4.67801,10.8228,-296.391,3.96746,-1.13162,-0.484038,-0.00622415,0.000937365,0.000930642,0.00105633,-0.00634311,1.44366,0.0069319,640.66,-87.6738,14.8284,0.534943,-0.0671247,-0.128328,0.00520338,419,436,104.343,24.9946,232.095,158.299,127.67,121.316,0.000136615,0.000130294,0.000474667
-4.3823,10.8095,-296.333,3.96413,-1.12756,-0.477698,-0.00625089,0.000985016,0.00088564,0.00109184,-0.00635771,1.45076,0.00696808,640.655,-87.9179,16.0988,0.558648,-0.0750633,-0.122776,0.00505912,426,436,104.266,24.9046,233.659,158.924,129.317,122.067,0.00013379,0.000124836,0.000465728
-4.08511,10.7958,-296.27,3.96072,-1.1234,-0.470825,-0.00625148,0.00103023,0.000835223,0.0011248,-0.00634605,1.45805,0.00697679,640.574,-88.0916,17.6436,0.586132,-0.0783904,-0.1205,0.00490743,433,436,104.186,24.8093,235.313,159.57,131.049,122.837,0.000130139,0.000121223,0.000454152
-3.78712,10.7822,-296.203,3.95723,-1.11906,-0.463572,-0.00622527,0.00107378,0.000780432,0.0011563,-0.00630779,1.46546,0.00695837,640.361,-88.2585,19.2595,0.610802,-0.0788023,-0.120259,0.0048962,440,436,104.102,24.7104,237.021,160.209,132.832,123.606,0.000128932,0.000122985,0.000450633
-3.48876,10.7687,-296.135,3.95368,-1.11451,-0.456379,-0.00618142,0.00111727,0.000725104,0.00118861,-0.00625276,1.47273,0.00692401,640.107,-88.4635,20.9668,0.625653,-0.0793748,-0.120718,0.00496925,447,436,104.017,24.6074,238.755,160.833,134.642,124.366,0.00012818,0.000127448,0.00044819
-3.18986,10.7555,-296.063,3.94998,-1.10977,-0.449428,-0.00612845,0.00116093,0.000673776,0.00122269,-0.00619021,1.4794,0.00688348,639.752,-88.5117,22.2637,0.62587,-0.0811804,-0.120668,0.00505063,454,436,103.932,24.4975,240.521,161.443,136.488,125.115,0.000126035,0.000132704,0.000439276
-2.88883,10.742,-295.983,3.94608,-1.10496,-0.441831,-0.00606184,0.00120475,0.000628027,0.00125863,-0.00611572,1.48522,0.00683253,639.499,-88.5901,24.028,0.613743,-0.0825139,-0.118454,0.00524188,461,436,103.84,24.3828,242.415,162.072,138.46,125.883,0.000126071,0.000136806,0.000438141
-2.58529,10.7281,-295.894,3.94195,-1.09978,-0.434356,-0.00597315,0.00124927,0.000584134,0.00129621,-0.00602008,1.49061,0.00676202,639.215,-88.5851,25.5433,0.596546,-0.081692,-0.113512,0.00528827,468,436,103.747,24.2607,244.454,162.715,140.58,126.673,0.000130725,0.00013752,0.000454357
-2.27959,10.7138,-295.795,3.93751,-1.09404,-0.426448,-0.00585886,0.0012929,0.000540479,0.00133351,-0.00589948,1.49579,0.00666702,638.838,-88.5286,26.7094,0.578971,-0.0810479,-0.106037,0.00540664,475,436,103.645,24.1312,246.622,163.36,142.829,127.488,0.000137219,0.000138171,0.000477224
-1.97281,10.6996,-295.692,3.93299,-1.08814,-0.418518,-0.00572809,0.00133535,0.000500793,0.00137068,-0.00576342,1.50037,0.0065571,638.562,-88.6089,28.159,0.556247,-0.0819605,-0.0979611,0.0055739,482,436,103.543,23.999,248.861,163.996,145.15,128.298,0.000143789,0.000139669,0.000501283
-1.66493,10.6854,-295.584,3.92836,-1.08233,-0.410719,-0.00559048,0.00137685,0.000470995,0.00140855,-0.00562217,1.5036,0.00644297,638.349,-88.7151,29.7391,0.52463,-0.0852382,-0.0915876,0.0056111,489,436,103.441,23.8663,251.171,164.638,147.543,129.109,0.000146263,0.000137452,0.000510815
-1.35766,10.6713,-295.477,3.92379,-1.07665,-0.403112,-0.00544043,0.00141705,0.00045214,0.00144673,-0.00547011,1.50524,0.00631893,637.969,-88.8165,30.9537,0.490605,-0.0914723,-0.0863787,0.00549963,496,436,103.342,23.7358,253.458,165.285,149.912,129.92,0.000144588,0.000132066,0.000504254
-1.05185,10.6573,-295.375,3.91917,-1.0711,-0.396007,-0.00527761,0.00145736,0.000441208,0.00148614,-0.00530639,1.50566,0.00618485,637.578,-88.9341,32.4615,0.459117,-0.100362,-0.0804183,0.00543103,503,436,103.244,23.6092,255.667,165.922,152.211,130.719,0.000143325,0.000126032,0.000498499
-0.750738,10.6441,-295.287,3.9151,-1.0658,-0.388316,-0.00510809,0.00149771,0.000438586,0.00152671,-0.00513708,1.50479,0.00604676,637.061,-89.0425,33.9201,0.430431,-0.110844,-0.0725604,0.00548169,510,436,103.151,23.4876,257.637,166.519,154.252,131.471,0.000144644,0.000121287,0.000500981
-0.452811,10.631,-295.21,3.91158,-1.06066,-0.380439,-0.00494527,0.00153618,0.000443745,0.00156642,-0.00497551,1.50276,0.00591634,636.703,-89.0403,35.7306,0.402264,-0.123915,-0.0643554,0.00570938,517,436,103.069,23.3703,259.449,167.11,156.12,132.215,0.000150925,0.000121843,0.000522137
-0.15605,10.6176,-295.137,3.9083,-1.05577,-0.372072,-0.00479471,0.00156851,0.000451328,0.00160036,-0.00482656,1.50034,0.00579492,636.416,-89.027,37.4952,0.380488,-0.140404,-0.0559834,0.0058001,524,436,102.989,23.2561,261.212,167.727,157.928,132.974,0.000153323,0.00012312,0.000530159
0.140588,10.6042,-295.062,3.90507,-1.05096,-0.363562,-0.0046379,0.00160194,0.000464922,0.00163639,-0.00467235,1.49683,0.00567049,636.186,-89.0266,39.4949,0.365176,-0.160398,-0.0462776,0.00571888,531,436,102.909,23.1429,262.978,168.349,159.737,133.735,0.000151121,0.000123725,0.000522098
0.437819,10.5905,-294.985,3.90159,-1.04606,-0.355291,-0.00451073,0.0016382,0.000481798,0.00167572,-0.00454825,1.49307,0.00557819,635.839,-89.1379,40.9163,0.355462,-0.182094,-0.0354742,0.00555192,538,436,102.826,23.0263,264.78,168.987,161.588,134.514,0.000146845,0.000124442,0.000506687
0.734787,10.5768,-294.908,3.89803,-1.041,-0.347273,-0.00440983,0.00167646,0.00049973,0.00171722,-0.00445059,1.48942,0.00551354,635.438,-89.3266,42.1371,0.353513,-0.202066,-0.0261979,0.00552465,545,436,102.744,22.9069,266.572,169.616,163.432,135.289,0.000145395,0.000127671,0.000499916
1.03109,10.5635,-294.832,3.89478,-1.03596,-0.339274,-0.00433074,0.0017153,0.000514446,0.00175876,-0.0043742,1.48652,0.00546992,635.229,-89.4638,43.3838,0.3581,-0.220586,-0.0190489,0.00570267,552,436,102.669,22.7867,268.344,170.226,165.247,136.044,0.000148604,0.000131796,0.00050823
1.32639,10.5504,-294.758,3.89158,-1.03109,-0.331182,-0.00429089,0.00175395,0.000521815,0.00179866,-0.0043356,1.48531,0.00546177,635.153,-89.4637,44.585,0.362425,-0.241222,-0.0121979,0.00590408,559,436,102.594,22.6719,270.068,170.831,167.012,136.789,0.000154237,0.000133558,0.000527552
1.62099,10.5373,-294.687,3.8884,-1.02623,-0.323917,-0.00431414,0.00179088,0.000518027,0.00183452,-0.00435778,1.48674,0.0055091,635.094,-89.4756,45.5256,0.35905,-0.266383,-0.00228477,0.00592985,566,436,102.525,22.5603,271.754,171.428,168.745,137.531,0.000155899,0.000133225,0.000532362
1.9139,10.5239,-294.62,3.88517,-1.02154,-0.316752,-0.00439552,0.0018228,0.000496567,0.0018622,-0.00443493,1.49161,0.00560313,634.927,-89.4918,46.2993,0.364281,-0.291327,0.0122249,0.00592739,573,436,102.455,22.4571,273.345,172.044,170.385,138.29,0.000156969,0.000132693,0.000534948
0,0,0,0,0,0,0,0,0,0,0,0,0,0,0,0,0,0,0,-1,580,436,0,0,0,0,0,0,0,0,0
0,0,0,0,0,0,0,0,0,0,0,0,0,0,0,0,0,0,0,-1,587,436,0,0,0,0,0,0,0,0,0
0,0,0,0,0,0,0,0,0,0,0,0,0,0,0,0,0,0,0,-1,594,436,0,0,0,0,0,0,0,0,0
0,0,0,0,0,0,0,0,0,0,0,0,0,0,0,0,0,0,0,-1,601,436,0,0,0,0,0,0,0,0,0
0,0,0,0,0,0,0,0,0,0,0,0,0,0,0,0,0,0,0,-1,62,443,0,0,0,0,0,0,0,0,0
0,0,0,0,0,0,0,0,0,0,0,0,0,0,0,0,0,0,0,-1,69,443,0,0,0,0,0,0,0,0,0
0,0,0,0,0,0,0,0,0,0,0,0,0,0,0,0,0,0,0,-1,76,443,0,0,0,0,0,0,0,0,0
-18.7601,11.1778,-298.009,4.08674,-1.25756,-0.670323,-0.00724281,0.00167374,0.00108061,0.00180283,-0.0073719,1.4519,0.00841934,645.395,-80.8223,-67.9119,0.129408,-0.28582,-0.00681716,0.00530991,83,443,106.879,27.7915,166.337,127.947,56.9179,86.8681,0.000142229,0.000126687,0.000498085
-18.4848,11.166,-298.04,4.08459,-1.25726,-0.670877,-0.00721765,0.00156135,0.001068,0.00168941,-0.00734571,1.45146,0.00832007,645.659,-81.1009,-65.6855,0.1844,-0.287719,-0.0427162,0.00510165,90,443,106.841,27.7869,166.779,128.573,57.5193,87.5248,0.000134653,0.000121996,0.000476178
-18.206,11.154,-298.06,4.08263,-1.25664,-0.670999,-0.00716318,0.00143817,0.00106549,0.00156819,-0.0072932,1.44937,0.00819067,645.751,-81.4438,-63.7245,0.228421,-0.284963,-0.0768361,0.00510094,97,443,106.808,27.7793,167.396,129.209,58.2848,88.2017,0.000129415,0.000127039,0.00046352
-17.9243,11.1412,-298.072,4.08062,-1.25578,-0.671104,-0.0070826,0.00131005,0.00107241,0.00144491,-0.00721746,1.44569,0.00803792,645.812,-81.7646,-61.8672,0.257217,-0.279955,-0.10905,0.00537353,104,443,106.777,27.7653,168.149,129.879,59.1837,88.9183,0.000128462,0.000136375,0.000464744
-17.6397,11.1283,-298.074,4.07846,-1.25465,-0.671013,-0.0069836,0.00118194,0.00108746,0.00132428,-0.00712595,1.44064,0.00787208,645.907,-82.0118,-60.019,0.273579,-0.273313,-0.136133,0.0056306,111,443,106.743,27.7446,169.043,130.551,60.2252,89.6428,0.000132469,0.000143104,0.000479737
-17.3528,11.1158,-298.07,4.07625,-1.25334,-0.670354,-0.006876,0.00105773,0.00110683,0.00120925,-0.00702752,1.43475,0.00770366,645.985,-82.1389,-58.3515,0.285945,-0.265719,-0.154612,0.00589701,118,443,106.706,27.7199,170.05,131.202,61.374,90.35,0.000139788,0.000149519,0.000503169
-17.0637,11.1032,-298.058,4.07398,-1.25189,-0.66896,-0.00676842,0.000940031,0.00112478,0.0011008,-0.00692919,1.42882,0.0075401,646.087,-82.2868,-56.3515,0.295596,-0.257742,-0.16423,0.00605595,125,443,106.665,27.6896,171.163,131.86,62.6235,91.0655,0.000146846,0.000152645,0.000524781
-16.7739,11.0904,-298.044,4.07168,-1.25034,-0.667195,-0.00666795,0.000829899,0.00113837,0.000998924,-0.00683697,1.42339,0.00738726,646.198,-82.4478,-54.1962,0.302929,-0.24908,-0.16712,0.0060426,132,443,106.621,27.6577,172.314,132.52,63.9078,91.7851,0.000151773,0.000150807,0.000541043
-16.4841,11.0778,-298.03,4.06971,-1.24878,-0.665083,-0.00658388,0.00072737,0.00114655,0.000902954,-0.00675946,1.41884,0.00725322,646.222,-82.6932,-51.943,0.31681,-0.240479,-0.168422,0.00581862,139,443,106.583,27.6272,173.476,133.169,65.1904,92.496,0.000150319,0.000146339,0.000537439
-16.1949,11.0653,-298.017,4.06802,-1.2473,-0.662856,-0.00651551,0.000632308,0.00115548,0.000814455,-0.00669766,1.41445,0.00713982,646.196,-83.0065,-49.6383,0.337958,-0.227252,-0.165316,0.00548969,146,443,106.55,27.5978,174.617,133.817,66.4427,93.2024,0.00014479,0.000139628,0.000518479
-15.9064,11.0527,-298.006,4.06643,-1.24582,-0.660526,-0.00646038,0.000546022,0.00116478,0.000734587,-0.00664894,1.4103,0.00704502,646.107,-83.277,-47.7748,0.361416,-0.210166,-0.158408,0.00522094,153,443,106.52,27.5664,175.722,134.472,67.6554,93.9144,0.000138304,0.00013232,0.000494214
-15.6177,11.0397,-297.993,4.06478,-1.24428,-0.658038,-0.00641391,0.000469094,0.00117157,0.000663045,-0.00660786,1.40674,0.0069631,645.921,-83.4298,-46.3493,0.378881,-0.190019,-0.149361,0.00503748,160,443,106.487,27.5325,176.839,135.146,68.8799,94.6452,0.000132685,0.000127809,0.000471476
-15.3285,11.0271,-297.979,4.0629,-1.24261,-0.655547,-0.00638159,0.000401393,0.00117336,0.000598631,-0.00657883,1.40426,0.00689765,645.831,-83.4538,-45.1934,0.385581,-0.168026,-0.139363,0.00489532,167,443,106.449,27.4966,177.97,135.798,70.1234,95.3597,0.000127969,0.000124587,0.000453063
-15.0393,11.0145,-297.965,4.06087,-1.2409,-0.652609,-0.00636854,0.000343551,0.00117024,0.000541729,-0.00656672,1.40304,0.00685366,645.79,-83.4627,-43.8337,0.386809,-0.14559,-0.129199,0.00486413,174,443,106.405,27.4605,179.098,136.443,71.3642,96.0672,0.000128653,0.00012352,0.00045356
-14.7506,11.002,-297.952,4.05888,-1.23919,-0.649144,-0.0063709,0.00029381,0.00116427,0.000491345,-0.00656843,1.40273,0.00682738,645.784,-83.5547,-41.8683,0.386986,-0.122487,-0.121,0.00497979,181,443,106.357,27.4235,180.211,137.086,72.5842,96.7729,0.000132781,0.000122832,0.000466245
-14.4607,10.9893,-297.934,4.05678,-1.23734,-0.645811,-0.00638312,0.000251153,0.00115651,0.000446981,-0.00657895,1.40306,0.00681344,645.841,-83.6636,-40.0928,0.385349,-0.0994907,-0.1173,0.00504215,188,443,106.31,27.3848,181.372,137.735,73.8549,97.4887,0.00013498,0.00012284,0.000472262
-14.1697,10.9764,-297.913,4.05456,-1.23534,-0.642426,-0.00640019,0.000215198,0.00114602,0.000408103,-0.0065931,1.40403,0.00680633,646.048,-83.8606,-38.2066,0.379028,-0.0780636,-0.119589,0.00495374,195,443,106.26,27.3425,182.591,138.388,75.1836,98.2133,0.000132917,0.000121387,0.000464563
-13.878,10.9632,-297.889,4.05238,-1.23327,-0.638959,-0.00641958,0.000185061,0.001132,0.000373691,-0.00660821,1.40568,0.00680276,646.271,-84.0443,-36.3378,0.366711,-0.0606724,-0.125252,0.00476605,202,443,106.213,27.2974,183.848,139.058,76.5482,98.9544,0.000127848,0.000118106,0.000447353
-13.5859,10.9501,-297.864,4.05028,-1.23113,-0.635565,-0.00644148,0.000160607,0.00111654,0.000344323,-0.0066252,1.40772,0.0068039,646.442,-84.1905,-34.6828,0.350698,-0.0490723,-0.134135,0.00456183,209,443,106.168,27.2497,185.121,139.726,77.9261,99.6948,0.000122654,0.000114454,0.000428407
-13.2953,10.9373,-297.842,4.04827,-1.22922,-0.632032,-0.00645947,0.000140793,0.00110225,0.000320005,-0.00663868,1.40962,0.00680433,646.362,-84.3073,-33.1763,0.331726,-0.0439083,-0.146759,0.00444326,216,443,106.124,27.2059,186.326,140.381,79.2329,100.415,0.000119592,0.000111539,0.000415839
-13.0052,10.9246,-297.822,4.04621,-1.22728,-0.628341,-0.00646658,0.000127132,0.00109142,0.000303094,-0.00664255,1.41095,0.00679916,646.095,-84.4129,-31.7279,0.315426,-0.043941,-0.163587,0.00448561,223,443,106.077,27.1617,187.506,141.028,80.514,101.127,0.000121384,0.000111798,0.000418754
-12.7135,10.9117,-297.796,4.04397,-1.22514,-0.624378,-0.00646131,0.000119271,0.0010843,0.00029333,-0.00663537,1.41163,0.00678679,645.845,-84.487,-30.1751,0.307694,-0.0479635,-0.181722,0.00443199,230,443,106.026,27.1152,188.762,141.684,81.8728,101.857,0.000121244,0.000112761,0.000415106
-12.4206,10.8985,-297.766,4.04163,-1.22277,-0.620522,-0.00644992,0.000117139,0.00108062,0.000290386,-0.00662317,1.41183,0.00677303,645.658,-84.6056,-28.6655,0.306647,-0.0553658,-0.197029,0.00455358,237,443,105.975,27.0652,190.083,142.346,83.2972,102.599,0.000124396,0.000115807,0.000425442
-12.125,10.8854,-297.727,4.03923,-1.22016,-0.616718,-0.00644265,0.000119616,0.00107705,0.000291867,-0.00661491,1.41221,0.00676556,645.554,-84.8373,-26.9071,0.310136,-0.0647898,-0.209201,0.00479542,244,443,105.926,27.0103,191.537,143,84.8534,103.341,0.00012796,0.000120377,0.000437716
-11.8272,10.8724,-297.68,4.03676,-1.21731,-0.613098,-0.00644339,0.000129638,0.00107155,0.000299913,-0.00661367,1.41321,0.00676861,645.349,-85.083,-25.1954,0.320837,-0.0758484,-0.218189,0.00521981,251,443,105.88,26.95,193.11,143.644,86.5301,104.077,0.000135382,0.000130047,0.000463368
-11.528,10.8594,-297.629,4.0341,-1.21432,-0.609466,-0.00645727,0.00014441,0.00107028,0.00031359,-0.00662645,1.41402,0.00678868,645.174,-85.2791,-23.3648,0.336705,-0.0866836,-0.221642,0.00558807,258,443,105.83,26.8821,194.745,144.29,88.2729,104.816,0.00014518,0.000137323,0.000497904
-11.2281,10.8463,-297.574,4.03127,-1.21108,-0.604937,-0.00647588,0.000161101,0.00107668,0.000331396,-0.00664618,1.41393,0.00681792,644.849,-85.386,-21.2902,0.355444,-0.0966816,-0.217855,0.00575231,265,443,105.771,26.8082,196.429,144.932,90.0593,105.557,0.000153823,0.000137835,0.000528367
-10.9294,10.8333,-297.523,4.02863,-1.20771,-0.599731,-0.00648682,0.000178512,0.00108609,0.000351022,-0.00665933,1.41328,0.00684159,644.631,-85.4502,-19.0441,0.376662,-0.104636,-0.206676,0.00554691,272,443,105.71,26.7322,198.062,145.565,91.7849,106.294,0.000148368,0.000132822,0.000512315
-10.6314,10.8201,-297.473,4.02588,-1.20435,-0.594521,-0.0064792,0.000199219,0.00109,0.000372618,-0.00665259,1.41304,0.00684651,644.327,-85.6457,-16.8391,0.396417,-0.108552,-0.189782,0.00546026,279,443,105.646,26.6573,199.658,146.207,93.476,107.042,0.000146225,0.00013046,0.000507234
-10.3353,10.8067,-297.428,4.02342,-1.20109,-0.589206,-0.00645012,0.00022766,0.00108708,0.000400169,-0.00662263,1.41342,0.00683151,644.141,-85.8607,-14.5947,0.407109,-0.110163,-0.168951,0.00528915,286,443,105.588,26.5839,201.17,146.864,95.0742,107.801,0.000141703,0.000134197,0.000493737
-10.0403,10.7932,-297.387,4.02069,-1.19797,-0.584099,-0.00640435,0.000261051,0.0010779,0.000431029,-0.00657433,1.41439,0.00680009,644.092,-86.0722,-12.9299,0.407381,-0.109438,-0.146835,0.00538484,293,443,105.524,26.5117,202.612,147.524,96.6116,108.558,0.000135719,0.000138544,0.000473194
-9.74282,10.7798,-297.337,4.01765,-1.19474,-0.578767,-0.0063417,0.000295336,0.00106414,0.000461779,-0.00650814,1.41564,0.00675089,644.035,-86.1543,-11.6103,0.404519,-0.108029,-0.124428,0.00545523,300,443,105.453,26.4361,204.185,148.184,98.2851,109.315,0.000136263,0.000139927,0.000474633
-9.44145,10.7666,-297.273,4.01434,-1.19119,-0.57354,-0.00625451,0.000328906,0.00104662,0.000491291,-0.0064169,1.41687,0.00667612,643.839,-86.1557,-10.2054,0.405638,-0.104884,-0.107416,0.00547507,307,443,105.382,26.3557,205.96,148.83,100.164,110.069,0.000139872,0.000138468,0.000486168
-9.13736,10.753,-297.2,4.01086,-1.18716,-0.56833,-0.00614764,0.000362796,0.00102441,0.000520183,-0.00630502,1.41835,0.00658055,643.412,-86.089,-9.04047,0.411245,-0.098927,-0.0977159,0.00538952,314,443,105.309,26.2723,207.88,149.473,102.189,110.839,0.0001403,0.000134944,0.000486485
-8.83209,10.7392,-297.122,4.00735,-1.18298,-0.562758,-0.00603468,0.000397885,0.00099912,0.000549497,-0.00618629,1.4202,0.00647854,643.024,-86.0064,-7.56663,0.414867,-0.0908664,-0.0950954,0.00537722,321,443,105.235,26.1864,209.87,150.129,104.28,111.627,0.000143082,0.000134869,0.000494884
-8.52843,10.7253,-297.049,4.00407,-1.179,-0.556979,-0.00592536,0.000432537,0.000977896,0.000579546,-0.00607237,1.42158,0.00638191,642.644,-85.8538,-6.26022,0.413796,-0.0829455,-0.0977427,0.00527005,328,443,105.164,26.1009,211.789,150.799,106.292,112.42,0.000141336,0.000134113,0.000488635
-8.22627,10.7114,-296.98,4.00106,-1.17527,-0.550923,-0.0058239,0.000466905,0.000965963,0.000611889,-0.00596888,1.42182,0.00629716,642.427,-85.8556,-4.57758,0.411915,-0.0761178,-0.105833,0.00506899,335,443,105.096,26.017,213.642,151.472,108.23,113.205,0.000135472,0.000132029,0.000468532
-7.92665,10.6979,-296.918,3.9983,-1.17156,-0.544693,-0.00573385,0.000501168,0.000963426,0.000646641,-0.00587932,1.42093,0.00622787,642.31,-85.987,-2.7746,0.412455,-0.0693461,-0.118346,0.00486745,342,443,105.032,25.9343,215.374,152.126,110.038,113.972,0.000129485,0.000130341,0.000447839
-7.62749,10.6847,-296.858,3.99569,-1.16774,-0.538939,-0.00565845,0.000535985,0.000968409,0.000683851,-0.00580632,1.41928,0.0061767,642.149,-86.0554,-0.984132,0.412208,-0.062744,-0.130876,0.00478538,349,443,104.975,25.8461,217.087,152.763,111.827,114.723,0.000126715,0.00012536,0.000438301
-7.32915,10.6718,-296.799,3.99309,-1.16391,-0.533132,-0.00561517,0.000570758,0.000978899,0.000721969,-0.00576639,1.41754,0.00615919,641.966,-86.2375,0.781,0.408688,-0.0566349,-0.140716,0.00483525,356,443,104.917,25.7597,218.763,153.377,113.577,115.454,0.000128439,0.000124012,0.000444499
-7.03232,10.6591,-296.744,3.99052,-1.16018,-0.527449,-0.00560773,0.000607615,0.000989679,0.000761398,-0.00576151,1.41664,0.0061775,641.812,-86.424,3.17723,0.411608,-0.0524301,-0.148567,0.00490074,363,443,104.86,25.6741,220.361,153.984,115.251,116.174,0.000130157,0.000120191,0.000450579
-6.73766,10.6463,-296.696,3.98801,-1.15666,-0.52127,-0.00564056,0.000649517,0.00100104,0.000804986,-0.00579603,1.41672,0.00623761,641.652,-86.6743,5.17863,0.42215,-0.0491516,-0.156376,0.00489004,370,443,104.8,25.5928,221.852,154.599,116.812,116.895,0.000130178,0.000117266,0.000450748
-6.44511,10.6333,-296.654,3.98541,-1.15324,-0.515164,-0.00570774,0.000696309,0.00101416,0.000853077,-0.00586451,1.41743,0.00633428,641.405,-86.9381,6.62148,0.433076,-0.0474196,-0.162122,0.00488711,377,443,104.736,25.5131,223.227,155.228,118.262,117.628,0.000130233,0.000120389,0.000450995
-6.1524,10.6199,-296.612,3.98282,-1.1496,-0.508384,-0.00579285,0.000743821,0.00102704,0.00090139,-0.00595042,1.41856,0.00644854,641.129,-87.162,7.76443,0.439063,-0.0496868,-0.161716,0.00499311,384,443,104.667,25.4279,224.621,155.87,119.723,118.38,0.000133267,0.000124432,0.00046186
-5.85847,10.6064,-296.564,3.98004,-1.14589,-0.501635,-0.0058845,0.000790064,0.0010321,0.000946016,-0.00604045,1.42083,0.00656478,640.811,-87.3423,8.89322,0.446453,-0.0549194,-0.155269,0.00507475,391,443,104.597,25.3421,226.08,156.518,121.252,119.14,0.000134976,0.000125698,0.000468241
-5.56469,10.5935,-296.516,3.97727,-1.14215,-0.494997,-0.00596409,0.00083742,0.00102616,0.000988867,-0.00611553,1.42427,0.00666521,640.557,-87.4207,10.4911,0.4604,-0.0630916,-0.145282,0.00519584,398,443,104.528,25.2537,227.535,157.138,122.779,119.871,0.000138285,0.00012799,0.000480205
-5.27108,10.5805,-296.468,3.97443,-1.13865,-0.488451,-0.00602518,0.000887297,0.00100621,0.00103079,-0.00616866,1.42915,0.00674341,640.406,-87.4615,12.2863,0.478967,-0.0726012,-0.136282,0.00520586,405,443,104.458,25.1683,228.983,157.766,124.299,120.6,0.000138413,0.000131012,0.000480587
-4.97826,10.5677,-296.422,3.97162,-1.13513,-0.482179,-0.00607146,0.000937769,0.000972113,0.00107009,-0.00620378,1.43551,0.00680225,640.296,-87.5504,13.7872,0.500866,-0.084242,-0.129082,0.00517354,412,443,104.391,25.0846,230.391,158.384,125.781,121.322,0.000135204,0.000132442,0.000469469
-4.68446,10.5547,-296.372,3.96855,-1.13133,-0.475943,-0.00610617,0.000987782,0.000929245,0.00110748,-0.00622588,1.44268,0.00684713,640.29,-87.7072,15.0088,0.522492,-0.0966698,-0.12322,0.0050659,419,443,104.318,24.9968,231.851,159.005,127.32,122.058,0.000131931,0.000131335,0.000458866
-4.38841,10.5413,-296.313,3.96522,-1.12718,-0.46965,-0.00613004,0.00103661,0.000880397,0.00114318,-0.00623661,1.45034,0.00687981,640.233,-87.8946,16.3139,0.547586,-0.105767,-0.119471,0.00492929,426,443,104.242,24.9045,233.435,159.632,128.986,122.812,0.00012858,0.000126162,0.00044838
-4.09029,10.5278,-296.247,3.96168,-1.12282,-0.462934,-0.00613027,0.0010822,0.000825102,0.00117538,-0.00622346,1.45833,0.0068868,640.172,-88.1174,18.014,0.576967,-0.108977,-0.118594,0.00479628,433,443,104.16,24.805,235.138,160.272,130.771,123.581,0.000124382,0.000123685,0.000434723
-3.79102,10.5143,-296.176,3.95808,-1.11831,-0.455931,-0.00610412,0.00112533,0.000764569,0.00120531,-0.00618409,1.46657,0.00686655,639.953,-88.2908,19.4673,0.602603,-0.108559,-0.118255,0.00477686,440,443,104.077,24.7027,236.914,160.901,132.626,124.345,0.000121746,0.000125188,0.000425892
-3.49096,10.501,-296.101,3.95437,-1.1136,-0.44892,-0.00606055,0.00116782,0.00070301,0.00123556,-0.00612829,1.47474,0.0068304,639.693,-88.3882,21.002,0.617905,-0.107615,-0.11758,0.00478406,447,443,103.992,24.5963,238.74,161.517,134.531,125.101,0.000117507,0.00012633,0.00041046
-3.19008,10.4878,-296.023,3.95053,-1.1087,-0.441873,-0.00600958,0.00120975,0.000645685,0.00126704,-0.00606688,1.48229,0.00678965,639.412,-88.4036,22.5408,0.619361,-0.107308,-0.116366,0.00485818,454,443,103.905,24.483,240.618,162.131,136.49,125.859,0.000116583,0.000127526,0.000406084
-2.88691,10.4741,-295.935,3.94651,-1.10366,-0.43416,-0.00594683,0.00125172,0.000594398,0.00130047,-0.00599558,1.48896,0.00674057,639.17,-88.4418,24.5399,0.609543,-0.105723,-0.11376,0.00494047,461,443,103.811,24.3633,242.634,162.768,138.583,126.638,0.000121419,0.00012865,0.000422224
-2.58108,10.4601,-295.837,3.94215,-1.09818,-0.426415,-0.00586387,0.00129456,0.000546278,0.00133601,-0.00590532,1.49507,0.00667437,638.803,-88.3912,26.2566,0.593865,-0.101331,-0.108405,0.00512825,468,443,103.713,24.237,244.802,163.41,140.834,127.439,0.000130528,0.000130925,0.000454161
-2.27301,10.4458,-295.731,3.93742,-1.09221,-0.418233,-0.00575807,0.00133706,0.000500487,0.00137219,-0.0057932,1.50072,0.00658737,638.407,-88.4258,27.775,0.576563,-0.0966684,-0.100077,0.00537722,475,443,103.604,24.1028,247.102,164.057,143.219,128.261,0.000139596,0.000132343,0.000485708
-1.96436,10.4318,-295.621,3.9327,-1.08623,-0.410203,-0.00563839,0.00137793,0.000461382,0.00140814,-0.0056686,1.50541,0.0064883,638.089,-88.455,29.3819,0.554425,-0.0935146,-0.0909166,0.0056312,482,443,103.499,23.9692,249.448,164.691,145.649,129.07,0.000147458,0.000136516,0.000513119
-1.65615,10.4178,-295.512,3.92806,-1.0804,-0.402343,-0.00551354,0.0014175,0.000433747,0.00144453,-0.00554057,1.50854,0.00638656,637.795,-88.5814,30.9362,0.523623,-0.0925994,-0.0836648,0.00572162,489,443,103.397,23.8375,251.782,165.328,148.065,129.877,0.000149336,0.000137437,0.000519799
-1.35038,10.4042,-295.41,3.92382,-1.07492,-0.394864,-0.00537511,0.00145553,0.000417471,0.00148095,-0.00540053,1.50998,0.00627351,637.367,-88.6894,31.7399,0.490451,-0.0950807,-0.0775763,0.0056423,496,443,103.306,23.713,253.995,165.951,150.354,130.66,0.000147964,0.000134511,0.000514349
-1.04904,10.3913,-295.323,3.91998,-1.06978,-0.387659,-0.00522253,0.00149306,0.000409279,0.00151791,-0.00524738,1.51015,0.00614851,636.938,-88.7707,32.6591,0.459865,-0.101317,-0.071158,0.0054994,503,443,103.222,23.5927,255.973,166.546,152.402,131.403,0.000145217,0.000131309,0.000503726
-0.752188,10.3784,-295.25,3.91647,-1.06483,-0.38034,-0.00506218,0.00152969,0.000409757,0.00155506,-0.00508755,1.50895,0.00601771,636.502,-88.8208,34.0121,0.431385,-0.11014,-0.0632716,0.005458,510,443,103.142,23.4781,257.711,167.134,154.203,132.136,0.000143733,0.000127141,0.000497363
-0.45723,10.3651,-295.184,3.91324,-1.06,-0.372514,-0.00490585,0.00156361,0.000418534,0.00159057,-0.00493281,1.50646,0.0058914,636.213,-88.8736,36.033,0.402438,-0.122414,-0.0554063,0.00564348,517,443,103.064,23.3675,259.358,167.744,155.902,132.891,0.000148385,0.000125955,0.000513049
-0.161772,10.3519,-295.115,3.91007,-1.05528,-0.364066,-0.0047577,0.00159027,0.000429751,0.00161923,-0.00478666,1.50351,0.00576929,636.007,-88.9031,38.0788,0.378463,-0.138794,-0.0480624,0.00576052,524,443,102.985,23.2589,261.05,168.358,157.636,133.644,0.000151598,0.000125116,0.000524331
0.134595,10.3383,-295.041,3.90679,-1.05059,-0.355544,-0.00460017,0.00161718,0.000444942,0.00164886,-0.00463185,1.49971,0.00564004,635.734,-88.9949,40.0155,0.361332,-0.159697,-0.0397037,0.00571087,531,443,102.904,23.1502,262.8,168.995,159.43,134.417,0.000150286,0.000125579,0.000519522
0.431564,10.3246,-294.965,3.90321,-1.04579,-0.347395,-0.00446855,0.00164549,0.000462648,0.0016803,-0.00450336,1.4957,0.00553811,635.42,-89.1075,41.5024,0.350176,-0.182838,-0.0314704,0.00558929,538,443,102.82,23.0367,264.584,169.635,161.267,135.194,0.000147528,0.000127276,0.000509675
0.728698,10.3111,-294.887,3.8996,-1.04077,-0.339676,-0.00435984,0.00167436,0.000481743,0.00171258,-0.00439806,1.49163,0.00545966,635.114,-89.2193,42.7947,0.345979,-0.20456,-0.0256081,0.00552102,545,443,102.738,22.9187,266.384,170.259,163.122,135.962,0.000143988,0.000132154,0.000495323
1.02543,10.298,-294.81,3.89625,-1.03568,-0.331636,-0.00426542,0.00170267,0.000498432,0.00174401,-0.00430676,1.48804,0.00539452,634.965,-89.3108,43.92,0.34472,-0.225564,-0.0219664,0.00567827,552,443,102.661,22.7985,268.18,170.86,164.964,136.71,0.000144597,0.000135742,0.000495102
1.32137,10.2851,-294.734,3.89298,-1.03061,-0.323585,-0.00419922,0.00172983,0.000509215,0.00177324,-0.00424264,1.48574,0.00535421,634.866,-89.3205,45.012,0.338101,-0.249578,-0.0188505,0.00575522,559,443,102.585,22.6799,269.942,171.45,166.768,137.448,0.000148806,0.000135748,0.000509752
1.61615,10.2723,-294.662,3.88965,-1.02564,-0.316277,-0.00418859,0.0017544,0.000511971,0.00179819,-0.00423237,1.48549,0.00536256,634.783,-89.352,45.9507,0.319854,-0.278619,-0.0146092,0.00570928,566,443,102.513,22.5655,271.637,172.038,168.513,138.182,0.000149451,0.000133279,0.000510159
1.90881,10.2591,-294.596,3.88641,-1.02095,-0.309002,-0.00423767,0.0017737,0.000503225,0.00181554,-0.00427951,1.48785,0.00542033,634.612,-89.4037,46.6615,0.305827,-0.306888,-0.00941329,0.00572762,573,443,102.442,22.4591,273.216,172.644,170.14,138.928,0.000151622,0.000132794,0.000516696
0,0,0,0,0,0,0,0,0,0,0,0,0,0,0,0,0,0,0,-1,580,443,0,0,0,0,0,0,0,0,0
0,0,0,0,0,0,0,0,0,0,0,0,0,0,0,0,0,0,0,-1,587,443,0,0,0,0,0,0,0,0,0
0,0,0,0,0,0,0,0,0,0,0,0,0,0,0,0,0,0,0,-1,594,443,0,0,0,0,0,0,0,0,0
0,0,0,0,0,0,0,0,0,0,0,0,0,0,0,0,0,0,0,-1,601,443,0,0,0,0,0,0,0,0,0
0,0,0,0,0,0,0,0,0,0,0,0,0,0,0,0,0,0,0,-1,62,450,0,0,0,0,0,0,0,0,0
0,0,0,0,0,0,0,0,0,0,0,0,0,0,0,0,0,0,0,-1,69,450,0,0,0,0,0,0,0,0,0
0,0,0,0,0,0,0,0,0,0,0,0,0,0,0,0,0,0,0,-1,76,450,0,0,0,0,0,0,0,0,0
-18.7869,10.9067,-298.052,4.08727,-1.25914,-0.663154,-0.00711946,0.00171942,0.0011737,0.00187262,-0.00727266,1.441,0.00836763,645.468,-80.7825,-67.0692,0.1693,-0.253128,0.0169884,0.0052237,83,450,106.819,27.8333,165.016,128.789,55.536,87.7152,0.000140197,0.00012627,0.000489899
-18.5115,10.895,-298.083,4.08512,-1.2588,-0.66368,-0.00709039,0.00161563,0.00114424,0.00176351,-0.00723827,1.44227,0.0082624,645.71,-81.0192,-64.8213,0.216822,-0.25902,-0.0315749,0.00517987,90,450,106.782,27.8272,165.46,129.411,56.1396,88.368,0.000137429,0.000125766,0.000483071
-18.2324,10.8828,-298.102,4.08319,-1.25814,-0.663962,-0.00703853,0.00150021,0.00112365,0.0016456,-0.00718392,1.44212,0.00813257,645.834,-81.3845,-62.6789,0.255311,-0.25899,-0.0736082,0.00523339,97,450,106.751,27.8182,166.092,130.051,56.9195,89.049,0.000134193,0.000131533,0.000481842
-17.9504,10.87,-298.113,4.08123,-1.2572,-0.664101,-0.00696454,0.00138014,0.00111251,0.00152591,-0.00711031,1.44051,0.0079834,645.908,-81.779,-60.744,0.280396,-0.256273,-0.11061,0.00552123,104,450,106.722,27.8026,166.862,130.719,57.8341,89.7662,0.000135751,0.000140652,0.000493932
-17.6657,10.8572,-298.116,4.0791,-1.25605,-0.664037,-0.00687372,0.00126023,0.00111058,0.00140914,-0.00702263,1.43751,0.00782297,645.984,-82.088,-58.9625,0.293927,-0.251749,-0.140601,0.00573679,111,450,106.689,27.7831,167.758,131.387,58.8759,90.4882,0.000139799,0.000146383,0.000510919
-17.3788,10.8447,-298.111,4.07686,-1.2547,-0.663627,-0.00677297,0.00114399,0.00111518,0.00129808,-0.00692706,1.43349,0.00765905,646.076,-82.2251,-57.2925,0.303248,-0.246162,-0.160834,0.00593504,118,450,106.654,27.7578,168.762,132.033,60.025,91.1924,0.000145895,0.000150335,0.00052866
-17.0898,10.8321,-298.1,4.07469,-1.25324,-0.662127,-0.00666866,0.00103379,0.00112122,0.00119369,-0.00682856,1.42914,0.00749702,646.168,-82.3363,-55.643,0.309649,-0.239967,-0.171697,0.00594436,125,450,106.614,27.7267,169.873,132.689,61.2686,91.9044,0.000148368,0.000148931,0.000531243
-16.8004,10.8196,-298.087,4.07253,-1.25178,-0.659978,-0.00656818,0.000930604,0.00112565,0.00109593,-0.00673351,1.42497,0.00734307,646.266,-82.482,-53.71,0.31337,-0.232767,-0.175875,0.00588315,132,450,106.57,27.6959,171.01,133.338,62.5317,92.6105,0.00015083,0.000145789,0.000535942
-16.5111,10.8071,-298.075,4.07068,-1.25029,-0.657708,-0.00648297,0.000834288,0.00112601,0.00100364,-0.00665232,1.42151,0.00720675,646.307,-82.7109,-51.5381,0.323027,-0.225441,-0.179463,0.00565002,139,450,106.533,27.6655,172.152,133.983,63.7904,93.3135,0.000148383,0.000141837,0.000528377
-16.2219,10.7946,-298.062,4.06904,-1.24879,-0.655468,-0.00641354,0.000744607,0.00112879,0.000918389,-0.00658732,1.41804,0.00709126,646.315,-82.998,-49.1671,0.339538,-0.21346,-0.178111,0.00542237,146,450,106.502,27.6368,173.291,134.631,65.0395,94.0206,0.000143511,0.000137164,0.000512174
-15.9328,10.7819,-298.049,4.06745,-1.24724,-0.653061,-0.00635746,0.000662743,0.0011335,0.000841225,-0.00653594,1.41462,0.00699459,646.201,-83.2487,-47.2362,0.358553,-0.197539,-0.171974,0.00525203,153,450,106.472,27.6036,174.428,135.291,66.2836,94.7384,0.000139224,0.000132067,0.00049629
-15.6424,10.769,-298.032,4.06578,-1.24557,-0.650459,-0.00630976,0.000589041,0.00113739,0.000771723,-0.00649244,1.41154,0.0069107,646.032,-83.4196,-45.6353,0.372262,-0.178385,-0.162738,0.00515806,160,450,106.439,27.5665,175.626,135.958,67.587,95.466,0.000137326,0.000128791,0.000486417
-15.3505,10.7564,-298.009,4.06391,-1.24365,-0.647793,-0.00627529,0.00052364,0.00113726,0.000708825,-0.00646047,1.40938,0.00684247,645.887,-83.4662,-44.4735,0.375947,-0.15729,-0.15181,0.00503875,167,450,106.403,27.5254,176.893,136.603,68.9632,96.1786,0.000133873,0.000125796,0.000472468
-15.0581,10.7438,-297.985,4.06186,-1.24161,-0.644741,-0.00625982,0.000467254,0.00113281,0.000652891,-0.00644546,1.40837,0.00679547,645.798,-83.4972,-43.1976,0.375067,-0.135902,-0.140352,0.00496479,174,450,106.36,27.4829,178.187,137.242,70.3667,96.8895,0.000132251,0.000124211,0.000465022
-14.7666,10.7313,-297.963,4.05973,-1.23967,-0.641405,-0.00626025,0.000417892,0.00112578,0.000602566,-0.00644493,1.4082,0.00676636,645.675,-83.5781,-41.6924,0.373923,-0.114104,-0.130402,0.00491936,181,450,106.313,27.4415,179.432,137.882,71.7219,97.5981,0.000131052,0.000121015,0.000460558
-14.476,10.7184,-297.944,4.05763,-1.23778,-0.637846,-0.00627039,0.000374627,0.00111627,0.000557131,-0.0064529,1.40874,0.00674873,645.726,-83.7238,-39.9888,0.371688,-0.0924986,-0.12407,0.00491817,188,450,106.265,27.4019,180.634,138.54,73.0311,98.3235,0.000131433,0.000119158,0.000460913
-14.185,10.7054,-297.923,4.05541,-1.23578,-0.634514,-0.0062852,0.000336888,0.0011026,0.000515648,-0.00646396,1.41007,0.0067366,645.922,-83.8927,-38.2939,0.365383,-0.072604,-0.122807,0.00488702,195,450,106.216,27.3612,181.85,139.199,74.3569,99.0556,0.000130893,0.000118414,0.000457735
-13.8942,10.6924,-297.902,4.05328,-1.23375,-0.631272,-0.00630302,0.000303477,0.00108382,0.000476737,-0.00647628,1.41228,0.00672733,646.171,-84.1099,-36.3494,0.353564,-0.0568542,-0.124171,0.00480067,202,450,106.171,27.3188,183.058,139.859,75.6732,99.7875,0.000128617,0.000116572,0.000449058
-13.6035,10.6795,-297.88,4.05121,-1.23173,-0.628235,-0.00632404,0.000274667,0.00106223,0.000441444,-0.00649082,1.41506,0.00672242,646.327,-84.2855,-34.5153,0.338824,-0.0470732,-0.128566,0.00468285,209,450,106.128,27.2732,184.265,140.513,76.9885,100.51,0.000124555,0.000114786,0.00043412
-13.3134,10.6671,-297.861,4.04917,-1.22978,-0.624887,-0.00634195,0.000250269,0.00104097,0.000410743,-0.00650242,1.41784,0.00671722,646.218,-84.4152,-32.8611,0.32269,-0.0434623,-0.137313,0.00460063,216,450,106.085,27.2281,185.439,141.151,78.2664,101.213,0.00012166,0.000114389,0.000422526
-13.0226,10.6545,-297.838,4.04707,-1.22779,-0.621165,-0.00635011,0.000232098,0.00102378,0.000387658,-0.00650567,1.42,0.0067079,645.916,-84.4569,-31.2269,0.309585,-0.0448336,-0.151388,0.00462656,223,450,106.038,27.1815,186.651,141.795,79.5797,101.922,0.000123434,0.000115508,0.00042581
-12.7301,10.6417,-297.81,4.04482,-1.22558,-0.617056,-0.00634715,0.000219801,0.00101216,0.000372264,-0.00649961,1.42129,0.00669351,645.65,-84.4896,-29.6772,0.303289,-0.0501343,-0.167769,0.0045878,230,450,105.986,27.1321,187.952,142.442,80.9815,102.642,0.000124158,0.000116276,0.000425804
-12.4357,10.6287,-297.775,4.0425,-1.22299,-0.612914,-0.00633763,0.000213111,0.00100594,0.000364105,-0.00648863,1.42181,0.00667813,645.514,-84.5387,-27.9797,0.302257,-0.0585702,-0.182263,0.00472517,237,450,105.935,27.0786,189.353,143.088,82.4814,103.376,0.000128979,0.000119208,0.000442189
-12.1386,10.6155,-297.732,4.04014,-1.22013,-0.608775,-0.00633056,0.000211659,0.00100142,0.000361514,-0.00648042,1.42226,0.00666853,645.385,-84.6807,-26.2384,0.305237,-0.0687147,-0.194761,0.00507997,244,450,105.886,27.0198,190.888,143.742,84.1149,104.125,0.0001346,0.000126633,0.000461582
-11.8403,10.6024,-297.684,4.03768,-1.21719,-0.605013,-0.00633211,0.000218275,0.000995491,0.000366223,-0.00648006,1.42326,0.00667071,645.172,-84.9334,-24.466,0.315828,-0.080586,-0.205262,0.00548437,251,450,105.839,26.9579,192.483,144.389,85.8113,104.869,0.000140851,0.000136592,0.000483654
-11.5418,10.5892,-297.634,4.03513,-1.21433,-0.601191,-0.00635095,0.00022956,0.000995744,0.000376933,-0.00649833,1.42386,0.00669476,644.96,-85.1277,-22.6457,0.331226,-0.0914665,-0.210666,0.00566827,258,450,105.79,26.8944,194.093,145.046,87.524,105.616,0.000145555,0.000140453,0.000500623
-11.2429,10.5763,-297.583,4.03237,-1.21126,-0.596814,-0.00637829,0.000243664,0.00100462,0.000392719,-0.00652735,1.4235,0.0067323,644.674,-85.3395,-20.578,0.348015,-0.101071,-0.209401,0.00570482,265,450,105.733,26.825,195.721,145.687,89.2552,106.351,0.000150708,0.000137913,0.000518623
-10.9447,10.5634,-297.533,4.02964,-1.20805,-0.592048,-0.00639681,0.00025943,0.00101586,0.000411017,-0.0065484,1.42267,0.00676328,644.449,-85.3602,-18.2751,0.366194,-0.10832,-0.201035,0.00553008,272,450,105.673,26.7525,197.327,146.323,90.9592,107.086,0.000147429,0.000132229,0.000509037
-10.6472,10.5503,-297.484,4.02694,-1.20482,-0.586589,-0.00639106,0.000278978,0.00101937,0.000431289,-0.00654337,1.42248,0.00676933,644.173,-85.5031,-15.9366,0.383334,-0.111121,-0.187018,0.00530804,279,450,105.609,26.6793,198.901,146.966,92.6257,107.828,0.000141754,0.000129442,0.000491526
-10.3509,10.5369,-297.439,4.02434,-1.20158,-0.581478,-0.00636138,0.000308793,0.00101441,0.000459654,-0.00651225,1.42316,0.00675381,644.012,-85.6957,-13.9959,0.393476,-0.111306,-0.168704,0.00515161,286,450,105.549,26.6067,200.415,147.62,94.2311,108.584,0.000135995,0.000132233,0.000473282
-10.0547,10.5235,-297.394,4.02162,-1.19839,-0.575901,-0.00631582,0.000346251,0.00100489,0.000494526,-0.0064641,1.4243,0.00672501,643.914,-85.8822,-12.7516,0.393589,-0.108738,-0.148794,0.00525655,293,450,105.483,26.5332,201.926,148.28,95.8325,109.342,0.000132762,0.000135054,0.000462517
-9.75558,10.5103,-297.339,4.01856,-1.19505,-0.570518,-0.00625468,0.00038167,0.000992963,0.000527057,-0.00640007,1.42541,0.00667921,643.861,-86.0867,-11.5405,0.390159,-0.105531,-0.127914,0.00529026,300,450,105.413,26.453,203.583,148.935,97.5885,110.094,0.000135494,0.000135438,0.000471361
-9.45212,10.497,-297.269,4.01518,-1.19126,-0.565331,-0.0061679,0.000416054,0.000977005,0.000557975,-0.00630982,1.42654,0.0066065,643.692,-86.1971,-10.0691,0.391221,-0.100457,-0.112472,0.00531791,307,450,105.342,26.3675,205.466,149.577,99.5762,110.85,0.00013925,0.000134469,0.00048321
-9.14641,10.4835,-297.19,4.01165,-1.18692,-0.560192,-0.00605939,0.00045038,0.000956447,0.000587997,-0.00619701,1.42789,0.00651095,643.261,-86.1156,-8.79973,0.39666,-0.0927525,-0.103697,0.0052469,314,450,105.271,26.2766,207.472,150.219,101.687,111.628,0.000139007,0.000130798,0.00048133
-8.83878,10.4697,-297.105,4.00801,-1.1824,-0.554831,-0.00594527,0.000484678,0.000933655,0.000617505,-0.0060781,1.42948,0.0064092,642.754,-85.884,-7.61139,0.399746,-0.0836337,-0.100705,0.00536826,321,450,105.197,26.1829,209.584,150.866,103.903,112.416,0.000144604,0.000135305,0.000499526
-8.5338,10.4562,-297.027,4.0047,-1.17834,-0.54925,-0.0058376,0.000517101,0.000915431,0.000646345,-0.00596685,1.43054,0.00631488,642.35,-85.7413,-6.25288,0.399116,-0.0754987,-0.101883,0.00535878,328,450,105.128,26.0937,211.573,151.522,105.986,113.194,0.000145184,0.000138789,0.000501288
-8.2317,10.4428,-296.958,4.00178,-1.17464,-0.54327,-0.00573961,0.000548017,0.00090697,0.00067623,-0.00586782,1.43036,0.00623351,642.14,-85.703,-4.34256,0.399641,-0.0691746,-0.108365,0.00516351,335,450,105.064,26.0092,213.427,152.173,107.923,113.954,0.000138966,0.000138141,0.000480082
-7.93218,10.4295,-296.897,3.99909,-1.17106,-0.537065,-0.00565365,0.000577889,0.000909025,0.000707786,-0.00578354,1.42886,0.00616797,642.023,-85.8684,-2.43962,0.403157,-0.0637584,-0.119413,0.00500711,342,450,105.002,25.9281,215.156,152.823,109.727,114.712,0.000130489,0.000135286,0.000451119
-7.63369,10.4163,-296.838,3.99652,-1.16731,-0.531407,-0.00558288,0.000607893,0.000920067,0.000741738,-0.00571673,1.42634,0.0061214,641.851,-86.0114,-0.413597,0.404886,-0.0592991,-0.130164,0.00489454,349,450,104.946,25.8448,216.835,153.46,111.481,115.464,0.000126354,0.000129883,0.000436942
-7.33614,10.4032,-296.782,3.99391,-1.16359,-0.525812,-0.00554454,0.000637262,0.000938867,0.000776708,-0.00568398,1.42335,0.00610948,641.627,-86.1827,1.56033,0.4023,-0.0559324,-0.138116,0.00496759,356,450,104.889,25.7622,218.466,154.089,113.189,116.207,0.000129236,0.000129355,0.000447023
-7.04072,10.3904,-296.732,3.99147,-1.16,-0.520223,-0.00554015,0.000669314,0.000957691,0.000813664,-0.0056845,1.4212,0.00613196,641.505,-86.3999,4.03798,0.406688,-0.0550847,-0.144744,0.00506873,363,450,104.835,25.6804,219.991,154.704,114.788,116.932,0.000133259,0.000125934,0.000460976
-6.74753,10.3779,-296.689,3.98906,-1.1566,-0.514188,-0.00557379,0.000706294,0.000976623,0.000854665,-0.00572216,1.42003,0.00619387,641.385,-86.6303,6.01465,0.419482,-0.0556005,-0.151539,0.00506906,370,450,104.776,25.6026,221.404,155.312,116.271,117.643,0.000134745,0.000122343,0.000466303
-6.45578,10.3651,-296.65,3.98664,-1.15335,-0.507807,-0.00564115,0.000749322,0.000996725,0.000901173,-0.00579301,1.41961,0.00629218,641.193,-86.8682,7.32058,0.431822,-0.0578955,-0.15618,0.0050515,377,450,104.714,25.5253,222.744,155.932,117.678,118.36,0.000134972,0.000121684,0.00046754
-6.16295,10.3518,-296.607,3.98397,-1.1497,-0.50114,-0.00572621,0.000794707,0.00101622,0.000949404,-0.00588091,1.41973,0.00640857,640.866,-87.0982,8.19558,0.43741,-0.0641973,-0.15474,0.0051527,384,450,104.645,25.441,224.141,156.574,119.146,119.113,0.0001373,0.000123081,0.000476152
-5.86781,10.3383,-296.555,3.98114,-1.14589,-0.494086,-0.0058128,0.000838911,0.001026,0.000993572,-0.00596746,1.42118,0.00652126,640.582,-87.2602,9.29827,0.442925,-0.0731722,-0.148181,0.00516303,391,450,104.572,25.3518,225.669,157.22,120.742,119.871,0.000137504,0.000123081,0.000477169
-5.57262,10.3252,-296.502,3.9783,-1.14198,-0.487191,-0.00588113,0.000884704,0.00102137,0.00103553,-0.00603195,1.42419,0.00661083,640.285,-87.3263,10.7661,0.455478,-0.0848921,-0.13887,0.00517267,398,450,104.501,25.2604,227.203,157.846,122.345,120.613,0.000138022,0.000124072,0.000479058
-5.27767,10.3122,-296.45,3.97544,-1.13831,-0.480307,-0.00592772,0.000937543,0.0010005,0.00108038,-0.00607056,1.42899,0.00667663,640.13,-87.401,12.5723,0.472762,-0.0971657,-0.131153,0.00517295,405,450,104.43,25.1714,228.728,158.479,123.939,121.352,0.00013747,0.000129235,0.000477218
-4.98405,10.2994,-296.401,3.9726,-1.13474,-0.474101,-0.00596039,0.000990861,0.000965623,0.00112251,-0.00609204,1.4353,0.00672393,639.94,-87.485,13.9326,0.492446,-0.111152,-0.12499,0.00508999,412,450,104.364,25.086,230.18,159.097,125.466,122.074,0.000133137,0.000131147,0.000462567
-4.68978,10.2864,-296.349,3.96952,-1.13085,-0.467785,-0.00598518,0.00104276,0.000921047,0.00116147,-0.00610389,1.44262,0.00675987,639.894,-87.6846,15.3302,0.512735,-0.125236,-0.120723,0.00496835,419,450,104.291,24.997,231.668,159.716,127.031,122.81,0.00012918,0.000130801,0.00044982
-4.39255,10.2732,-296.287,3.96607,-1.12662,-0.461595,-0.0060037,0.0010927,0.000869348,0.00119765,-0.00610865,1.45066,0.00678719,639.804,-87.8855,16.7836,0.538232,-0.135092,-0.119117,0.00486272,426,450,104.214,24.9023,233.315,160.338,128.763,123.56,0.000126179,0.000125953,0.000440438
-4.09318,10.2599,-296.216,3.96243,-1.12207,-0.454893,-0.00600203,0.00113866,0.000810305,0.00122945,-0.00609283,1.45921,0.00679154,639.697,-88.0084,18.3879,0.567894,-0.138409,-0.119699,0.0047071,433,450,104.131,24.7997,235.088,160.961,130.619,124.319,0.000122022,0.00012204,0.000426712
-3.79239,10.2466,-296.139,3.95865,-1.11732,-0.44816,-0.0059756,0.00118162,0.000745297,0.00125841,-0.00605238,1.46813,0.00676988,639.47,-88.1652,19.8317,0.592844,-0.13778,-0.119221,0.00460466,440,450,104.047,24.6922,236.945,161.584,132.56,125.082,0.000118982,0.000120941,0.000416105
-3.49077,10.2333,-296.059,3.95486,-1.11246,-0.441091,-0.00593287,0.00122311,0.000678907,0.00128695,-0.00599671,1.47704,0.00673307,639.26,-88.2471,21.4583,0.607671,-0.136238,-0.117418,0.00458229,447,450,103.961,24.5804,238.859,162.206,134.554,125.847,0.000115197,0.000119597,0.000402076
-3.18862,10.2199,-295.976,3.95102,-1.10741,-0.433903,-0.0058844,0.00126297,0.000616935,0.00131584,-0.00593726,1.48532,0.00669291,639.007,-88.2455,22.9958,0.610151,-0.134798,-0.115228,0.00460417,454,450,103.874,24.4628,240.812,162.826,136.586,126.613,0.000116202,0.000119506,0.00040476
-2.88429,10.2062,-295.885,3.94696,-1.10217,-0.426181,-0.00582623,0.00130291,0.000561038,0.00134679,-0.00587011,1.49274,0.00664664,638.744,-88.2069,24.9236,0.602657,-0.131373,-0.112487,0.00477441,461,450,103.782,24.3408,242.895,163.462,138.745,127.399,0.000122904,0.000121431,0.000427911
-2.57719,10.1924,-295.782,3.94242,-1.09659,-0.418349,-0.00575089,0.00134402,0.000509694,0.00138045,-0.00578732,1.49945,0.00658694,638.333,-88.2021,26.7999,0.588696,-0.124687,-0.106926,0.00506222,468,450,103.679,24.2133,245.134,164.1,141.07,128.199,0.000132181,0.00012449,0.000460288
-2.26817,10.1785,-295.672,3.93746,-1.09066,-0.410311,-0.00565666,0.00138505,0.000463138,0.00141538,-0.00568699,1.5054,0.0065111,637.928,-88.3007,28.8481,0.572043,-0.117203,-0.0979029,0.00537219,475,450,103.567,24.0804,247.486,164.732,143.513,129.003,0.000141084,0.000128922,0.000491048
-1.95935,10.1647,-295.562,3.93252,-1.08475,-0.402525,-0.00555075,0.00142408,0.000425715,0.00144997,-0.00557664,1.51006,0.00642551,637.552,-88.3321,30.7144,0.550993,-0.110977,-0.0878468,0.00556047,482,450,103.458,23.9481,249.837,165.364,145.955,129.809,0.000145794,0.000132864,0.000506151
-1.65254,10.1508,-295.457,3.92818,-1.07908,-0.394475,-0.00543943,0.00146159,0.000400819,0.0014848,-0.00546263,1.51297,0.00633686,637.199,-88.4393,31.6904,0.521751,-0.106384,-0.079818,0.00557387,489,450,103.361,23.8188,252.103,166.001,148.295,130.609,0.000145398,0.000134341,0.000503971
-1.34998,10.1377,-295.367,3.92448,-1.07391,-0.386557,-0.00531261,0.00149754,0.000387324,0.00151949,-0.00533457,1.51417,0.00623477,636.902,-88.5041,32.6071,0.490136,-0.104966,-0.0727648,0.00544297,496,450,103.277,23.6999,254.153,166.61,150.406,131.367,0.000142831,0.000130711,0.00049422
-1.05216,10.1252,-295.292,3.9212,-1.06904,-0.379221,-0.00517012,0.00153274,0.000382027,0.00155444,-0.00519182,1.51405,0.00611896,636.558,-88.5462,33.2738,0.460994,-0.107584,-0.0655342,0.00529982,503,450,103.204,23.5861,255.947,167.19,152.256,132.088,0.000140251,0.000127761,0.00048456
-0.757589,10.1121,-295.228,3.91806,-1.06439,-0.372114,-0.00501855,0.00156617,0.000385706,0.00158869,-0.00504106,1.51249,0.00599541,636.183,-88.5646,34.4811,0.433266,-0.113392,-0.0571066,0.0053083,510,450,103.132,23.4785,257.561,167.797,153.927,132.833,0.000140491,0.000127365,0.000485247
-0.464154,10.0989,-295.167,3.91502,-1.0598,-0.364266,-0.00486823,0.00159638,0.000398279,0.00162083,-0.00489267,1.5095,0.00587329,635.904,-88.6583,36.4617,0.404387,-0.12334,-0.049062,0.00555127,517,450,103.058,23.3727,259.126,168.411,155.539,133.582,0.00014587,0.000127873,0.000503645
-0.169372,10.0857,-295.1,3.91185,-1.05514,-0.356105,-0.00472231,0.00161869,0.000413567,0.00164555,-0.00474917,1.50594,0.0057513,635.657,-88.7679,38.4438,0.379086,-0.137973,-0.0421772,0.00573856,524,450,102.98,23.2672,260.777,169.025,157.236,134.334,0.000150626,0.000128167,0.000520389
0.126596,10.0724,-295.028,3.90842,-1.0505,-0.347929,-0.00456425,0.00164037,0.000430961,0.00167016,-0.00459404,1.50178,0.00561849,635.391,-88.8945,40.3038,0.360575,-0.157547,-0.03446,0.00571151,531,450,102.897,23.1598,262.498,169.651,159.008,135.096,0.000150048,0.000128985,0.000518055
0.423459,10.059,-294.952,3.90476,-1.04569,-0.339948,-0.00442877,0.0016617,0.000450543,0.00169485,-0.00446192,1.49735,0.0055085,635.116,-89.0195,41.7653,0.348242,-0.179806,-0.0281872,0.00555627,538,450,102.812,23.0474,264.274,170.277,160.84,135.86,0.000146992,0.000130249,0.000506748
0.720551,10.0457,-294.874,3.90121,-1.0407,-0.332077,-0.00431347,0.00168186,0.000472142,0.00171882,-0.00435043,1.49269,0.00541832,634.838,-89.1318,43.1046,0.341926,-0.20127,-0.0250751,0.00550005,545,450,102.731,22.9311,266.075,170.892,162.694,136.619,0.000142721,0.000133948,0.000489782
1.01716,10.0329,-294.797,3.89793,-1.03555,-0.323759,-0.004206,0.00169996,0.000492516,0.00174076,-0.00424679,1.48816,0.00533461,634.634,-89.1601,44.3338,0.335077,-0.223168,-0.0243532,0.00561557,552,450,102.654,22.8134,267.87,171.477,164.529,137.355,0.000142947,0.000136832,0.000489562
1.31282,10.0203,-294.722,3.89464,-1.03044,-0.316186,-0.00411692,0.00171542,0.00050899,0.00175951,-0.004161,1.4844,0.00526603,634.452,-89.1309,45.4185,0.31854,-0.249422,-0.0248695,0.00561209,559,450,102.581,22.6941,269.612,172.054,166.318,138.081,0.000144864,0.000136863,0.00049571
1.6074,10.0077,-294.651,3.89134,-1.02548,-0.308742,-0.00407672,0.00172729,0.00052113,0.00177371,-0.00412314,1.48196,0.00524019,634.367,-89.1771,46.3499,0.287441,-0.281693,-0.027187,0.00556626,566,450,102.508,22.5794,271.298,172.631,168.052,138.803,0.000145422,0.000135328,0.000495662
1.89966,9.99454,-294.587,3.88822,-1.02079,-0.301178,-0.00409851,0.00173446,0.0005288,0.00178201,-0.00414607,1.48111,0.00526818,634.261,-89.2759,47.0968,0.256839,-0.313806,-0.0333027,0.00558918,573,450,102.438,22.4712,272.859,173.242,169.656,139.552,0.000147742,0.000134894,0.000502562
0,0,0,0,0,0,0,0,0,0,0,0,0,0,0,0,0,0,0,-1,580,450,0,0,0,0,0,0,0,0,0
0,0,0,0,0,0,0,0,0,0,0,0,0,0,0,0,0,0,0,-1,587,450,0,0,0,0,0,0,0,0,0
0,0,0,0,0,0,0,0,0,0,0,0,0,0,0,0,0,0,0,-1,594,450,0,0,0,0,0,0,0,0,0
0,0,0,0,0,0,0,0,0,0,0,0,0,0,0,0,0,0,0,-1,601,450,0,0,0,0,0,0,0,0,0
0,0,0,0,0,0,0,0,0,0,0,0,0,0,0,0,0,0,0,-1,62,457,0,0,0,0,0,0,0,0,0
0,0,0,0,0,0,0,0,0,0,0,0,0,0,0,0,0,0,0,-1,69,457,0,0,0,0,0,0,0,0,0
0,0,0,0,0,0,0,0,0,0,0,0,0,0,0,0,0,0,0,-1,76,457,0,0,0,0,0,0,0,0,0
-18.8116,10.6356,-298.089,4.08766,-1.26065,-0.656297,-0.00698051,0.00176037,0.00127011,0.00194119,-0.00716133,1.42938,0.00830388,645.496,-80.7796,-66.3995,0.219831,-0.215869,0.0332383,0.00506884,83,457,106.761,27.8729,163.791,129.633,54.2553,88.5641,0.000135228,0.000124194,0.000476462
-18.5359,10.6237,-298.119,4.08557,-1.26019,-0.656699,-0.00694626,0.00166798,0.00122095,0.00183769,-0.00711597,1.43268,0.00819092,645.735,-80.9969,-64.1269,0.258582,-0.22585,-0.024714,0.00516623,90,457,106.724,27.8643,164.253,130.259,54.8736,89.224,0.00013649,0.000127002,0.000481078
-18.2566,10.6115,-298.138,4.0837,-1.2595,-0.65722,-0.00689708,0.00156311,0.00118064,0.00172478,-0.00705876,1.43471,0.00806075,645.842,-81.3601,-61.9714,0.289449,-0.228947,-0.0723433,0.00535147,97,457,106.697,27.8535,164.897,130.897,55.6648,89.9031,0.000137896,0.000134943,0.000495885
-17.9745,10.5988,-298.149,4.08181,-1.25854,-0.657376,-0.00683173,0.00145307,0.00115063,0.0016099,-0.00698856,1.43533,0.00791724,645.987,-81.7238,-60.0014,0.308597,-0.22872,-0.112468,0.00560782,104,457,106.67,27.8377,165.668,131.557,56.579,90.6125,0.000141554,0.000142734,0.00051591
-17.6905,10.5861,-298.153,4.07974,-1.25741,-0.657275,-0.00675285,0.00134238,0.00113156,0.00149758,-0.00690805,1.4345,0.0077659,646.117,-82.0726,-58.0791,0.317526,-0.22647,-0.144135,0.00578705,111,457,106.638,27.8184,166.534,132.216,57.5898,91.3249,0.000146581,0.000147184,0.000536752
-17.4043,10.5736,-298.151,4.07763,-1.2561,-0.656586,-0.00666378,0.00123454,0.00112153,0.0013907,-0.00681994,1.43244,0.00761119,646.205,-82.2561,-56.5515,0.322647,-0.223094,-0.165226,0.00583894,118,457,106.603,27.7948,167.507,132.863,58.7018,92.029,0.000150197,0.000147224,0.000545601
-17.1161,10.5611,-298.142,4.07562,-1.25467,-0.654681,-0.00656789,0.00113198,0.00111608,0.00129049,-0.0067264,1.42972,0.00745588,646.329,-82.3875,-55.0075,0.325212,-0.219045,-0.17665,0.00573249,125,457,106.563,27.765,168.584,133.509,59.9046,92.7313,0.000148582,0.000142476,0.000531897
-16.8275,10.5488,-298.132,4.07361,-1.25332,-0.652148,-0.00647212,0.00103573,0.00111209,0.00119699,-0.00663338,1.42679,0.0073058,646.437,-82.5485,-53.1726,0.325178,-0.213753,-0.181577,0.00563636,132,457,106.52,27.737,169.689,134.154,61.1291,93.429,0.000147706,0.000139643,0.000523214
-16.5388,10.5364,-298.121,4.07175,-1.2519,-0.65001,-0.00638938,0.000945769,0.00110551,0.00110876,-0.00655237,1.42441,0.00717133,646.475,-82.8053,-51.1374,0.330444,-0.208151,-0.18672,0.00552482,139,457,106.483,27.7075,170.797,134.799,62.356,94.1294,0.000147093,0.000138943,0.00052107
-16.2498,10.5238,-298.109,4.0701,-1.25042,-0.647816,-0.0063216,0.000861702,0.00110336,0.00102736,-0.00648725,1.42177,0.00705724,646.471,-83.0483,-48.7963,0.34166,-0.198057,-0.186661,0.0054452,146,457,106.453,27.6788,171.926,135.447,63.5952,94.8359,0.00014464,0.000137338,0.000513938
-15.9597,10.5111,-298.094,4.06841,-1.24876,-0.645507,-0.00626626,0.000784693,0.00110492,0.000953784,-0.00643535,1.41894,0.00696142,646.35,-83.2936,-46.9782,0.35538,-0.184012,-0.181112,0.00538105,153,457,106.421,27.6437,173.104,136.102,64.8825,95.5518,0.000143314,0.000134602,0.000508537
-15.6668,10.4985,-298.069,4.06664,-1.24683,-0.642899,-0.00621826,0.000714967,0.00110723,0.000887498,-0.00639079,1.41622,0.00687762,646.138,-83.4928,-45.4619,0.364799,-0.166649,-0.171676,0.00530147,160,457,106.389,27.6021,174.425,136.75,66.3098,96.268,0.000141726,0.000130581,0.000500395
-15.3725,10.4858,-298.04,4.06473,-1.24462,-0.639884,-0.00618167,0.000652926,0.00110642,0.000827575,-0.00635632,1.41424,0.00680793,645.982,-83.5356,-44.2482,0.365223,-0.147176,-0.159896,0.00517411,167,457,106.351,27.5554,175.814,137.395,67.8044,96.9888,0.000138062,0.000126267,0.000485598
-15.0778,10.473,-298.008,4.06264,-1.24238,-0.636839,-0.00616273,0.000599238,0.00110166,0.000774194,-0.00633768,1.4133,0.00675812,645.904,-83.5757,-42.7742,0.361959,-0.127463,-0.147109,0.00509508,174,457,106.31,27.5073,177.219,138.046,69.319,97.7159,0.000136143,0.000124302,0.000476598
-14.7844,10.4603,-297.981,4.06061,-1.24023,-0.633207,-0.00615918,0.000551916,0.00109403,0.000725761,-0.00633302,1.41321,0.00672533,645.796,-83.6256,-40.9675,0.359208,-0.107444,-0.135284,0.00499274,181,457,106.265,27.4628,178.567,138.69,70.7703,98.435,0.000133729,0.000121591,0.000467888
-14.4931,10.4475,-297.959,4.0585,-1.23831,-0.629788,-0.00616419,0.00050986,0.0010826,0.000681076,-0.0063354,1.41394,0.00670195,645.736,-83.7677,-39.4944,0.356142,-0.0875634,-0.126257,0.00494873,188,457,106.218,27.4232,179.804,139.343,72.1145,99.1558,0.000132247,0.000118074,0.000462204
-14.2029,10.4347,-297.94,4.05638,-1.23644,-0.626648,-0.00617295,0.000472149,0.00106534,0.000638766,-0.00633957,1.41565,0.00668189,645.907,-83.9487,-37.8764,0.349828,-0.0694143,-0.121421,0.0049121,195,457,106.173,27.385,180.982,139.997,73.4029,99.8773,0.000131298,0.000115424,0.000458193
-13.9129,10.422,-297.922,4.05427,-1.23453,-0.623725,-0.00618572,0.000437433,0.00104127,0.00059728,-0.00634557,1.41847,0.00666431,646.093,-84.1711,-35.9954,0.338816,-0.055449,-0.118646,0.00489577,202,457,106.13,27.3449,182.147,140.639,74.6779,100.588,0.000130716,0.000114503,0.000454927
-13.6224,10.4095,-297.901,4.05213,-1.23244,-0.6209,-0.00620386,0.0004061,0.00101271,0.000557778,-0.00635554,1.42213,0.00665199,646.187,-84.3658,-34.117,0.325764,-0.0472531,-0.118939,0.00486729,209,457,106.087,27.2988,183.337,141.274,75.9789,101.294,0.000128475,0.000116433,0.000446324
-13.3311,10.3969,-297.878,4.04998,-1.23028,-0.617675,-0.00622209,0.000378651,0.000983619,0.000522109,-0.00636555,1.42597,0.00664201,645.977,-84.4921,-32.5864,0.312817,-0.0447441,-0.124313,0.00484656,216,457,106.043,27.2492,184.573,141.914,77.3216,102.006,0.000126192,0.000119666,0.000437016
-13.0386,10.3842,-297.85,4.04785,-1.2281,-0.613703,-0.00623381,0.000356798,0.000959113,0.000493538,-0.00637055,1.42918,0.00663111,645.671,-84.4991,-30.911,0.303353,-0.0469275,-0.136058,0.00481837,223,457,105.995,27.1985,185.87,142.559,78.7183,102.721,0.000126496,0.000120789,0.000435947
-12.7447,10.3716,-297.818,4.04561,-1.22568,-0.609356,-0.00623645,0.000340384,0.000941884,0.000472615,-0.00636868,1.43132,0.00661766,645.446,-84.4666,-29.166,0.298995,-0.0527805,-0.151204,0.00472588,230,457,105.943,27.1455,187.249,143.193,80.1937,103.434,0.000126521,0.000119903,0.000434439
-12.4486,10.3585,-297.778,4.04331,-1.22298,-0.604817,-0.00623201,0.000329276,0.000931723,0.000459018,-0.00636175,1.43244,0.00660324,645.319,-84.4333,-27.3457,0.298509,-0.0616355,-0.165438,0.00486062,237,457,105.891,27.0881,188.734,143.85,81.7738,104.18,0.000132244,0.00012222,0.000454021
-12.1509,10.3452,-297.732,4.04088,-1.22002,-0.600688,-0.00622796,0.000323565,0.000924914,0.000451636,-0.00635603,1.4332,0.00659346,645.14,-84.5822,-25.5253,0.301653,-0.0719267,-0.178926,0.00522515,244,457,105.842,27.0277,190.301,144.507,83.4398,104.935,0.000138594,0.000128746,0.000476278
-11.8527,10.3321,-297.684,4.03844,-1.21714,-0.596719,-0.00623289,0.000326096,0.000917798,0.000452102,-0.0063589,1.43436,0.00659658,644.868,-84.8196,-23.784,0.312718,-0.084171,-0.19177,0.00558074,251,457,105.794,26.9667,191.897,145.158,85.1354,105.678,0.00014421,0.000137466,0.000496623
-11.5547,10.3189,-297.636,4.03595,-1.21431,-0.592749,-0.00625844,0.000332673,0.000918867,0.000458375,-0.00638414,1.43484,0.00662523,644.624,-84.9868,-22.0211,0.328031,-0.0946315,-0.199816,0.00571766,258,457,105.745,26.9073,193.482,145.813,86.82,106.425,0.000145389,0.000141997,0.000501122
-11.257,10.306,-297.589,4.03326,-1.21141,-0.588592,-0.00629497,0.00034272,0.00092914,0.000470327,-0.00642257,1.43431,0.00667019,644.387,-85.1647,-20.093,0.342957,-0.103247,-0.201683,0.00565165,265,457,105.69,26.8446,195.05,146.454,88.4909,107.159,0.000143302,0.000141885,0.000494563
-10.9598,10.2929,-297.542,4.03057,-1.20846,-0.583892,-0.00632067,0.00035545,0.000941185,0.000485599,-0.00645082,1.43339,0.00670681,644.203,-85.2098,-17.7428,0.358069,-0.108953,-0.196869,0.00538276,272,457,105.632,26.7784,196.598,147.106,90.1378,107.903,0.000138952,0.000136047,0.000480876
-10.663,10.2799,-297.496,4.02792,-1.20536,-0.578456,-0.00631573,0.000372474,0.000943281,0.000502965,-0.00644622,1.43333,0.00671186,644.025,-85.3388,-15.3459,0.372814,-0.109665,-0.186649,0.00514202,279,457,105.568,26.7079,198.137,147.753,91.7681,108.645,0.000134235,0.00013093,0.000465969
-10.3659,10.2668,-297.449,4.02533,-1.20211,-0.5733,-0.00628374,0.000401389,0.000935034,0.000529707,-0.00641205,1.43441,0.00669265,643.831,-85.4777,-13.6853,0.382842,-0.107514,-0.171667,0.00510479,286,457,105.509,26.6338,199.693,148.394,93.4143,109.385,0.000131145,0.000130863,0.000456489
-10.0682,10.2538,-297.399,4.02263,-1.19885,-0.567815,-0.00623508,0.000438529,0.000922052,0.00056358,-0.00636014,1.436,0.00665983,643.649,-85.6842,-12.6469,0.383994,-0.102522,-0.154533,0.00524794,293,457,105.446,26.5571,201.286,149.039,95.0978,110.127,0.000131717,0.000133668,0.000458734
-9.76756,10.2408,-297.339,4.01959,-1.19541,-0.562349,-0.00617278,0.000472364,0.000908505,0.000594334,-0.00629475,1.43734,0.00661198,643.565,-85.9553,-11.4262,0.381046,-0.0969446,-0.135516,0.00527083,300,457,105.378,26.4731,203.025,149.681,96.9327,110.867,0.000134923,0.000134746,0.000468966
-9.46266,10.2275,-297.264,4.0161,-1.19133,-0.557143,-0.00608381,0.000504639,0.00089065,0.000622917,-0.00620208,1.43877,0.00653584,643.425,-86.1143,-9.86463,0.382647,-0.0896213,-0.121755,0.00522977,307,457,105.305,26.3819,204.982,150.326,98.9953,111.634,0.00013684,0.000133546,0.000474245
-9.15446,10.2136,-297.177,4.01233,-1.18663,-0.552067,-0.00597123,0.000536519,0.000868391,0.000650404,-0.00608512,1.4404,0.00643502,643.047,-86.0618,-8.44812,0.388241,-0.080287,-0.11393,0.00519019,314,457,105.231,26.2814,207.112,150.984,101.236,112.436,0.000136701,0.000130851,0.000472545
-8.84362,10.2,-297.081,4.00846,-1.1817,-0.546771,-0.00585362,0.000567525,0.000844831,0.000676819,-0.00596291,1.44214,0.00632852,642.498,-85.7742,-7.19523,0.391121,-0.0705526,-0.110681,0.005344,321,457,105.155,26.1747,209.391,151.624,103.622,113.226,0.00014314,0.000137496,0.000493579
-8.53572,10.1865,-296.994,4.00506,-1.17731,-0.541248,-0.00574603,0.00059595,0.00082689,0.00070199,-0.00585207,1.44325,0.00623278,642.052,-85.59,-5.81604,0.391152,-0.0628182,-0.110678,0.00537195,328,457,105.088,26.078,211.535,152.269,105.861,114.001,0.000145076,0.000140926,0.000500037
-8.23238,10.1735,-296.921,4.00217,-1.17347,-0.535371,-0.00565185,0.000622347,0.000820039,0.000727755,-0.00575726,1.44296,0.0061535,641.814,-85.6073,-3.88449,0.394148,-0.0578374,-0.115678,0.00517256,335,457,105.026,25.9909,213.458,152.909,107.865,114.754,0.000138833,0.000137882,0.00047885
-7.93282,10.1604,-296.859,3.99961,-1.16992,-0.529295,-0.00557215,0.000647532,0.000825734,0.000755291,-0.00567991,1.44103,0.00609276,641.7,-85.804,-1.72597,0.400296,-0.0547866,-0.125253,0.00499897,342,457,104.968,25.9119,215.195,153.546,109.674,115.498,0.000129742,0.000133682,0.0004479
-7.63653,10.1474,-296.808,3.99716,-1.16648,-0.523788,-0.00550952,0.000673134,0.000842776,0.000785957,-0.00562235,1.43772,0.00605371,641.47,-86.0106,0.203907,0.403378,-0.0536275,-0.134016,0.00497388,349,457,104.915,25.8369,216.759,154.178,111.313,116.237,0.00012511,0.000130089,0.000432024
-7.34225,10.1348,-296.762,3.99478,-1.16315,-0.518243,-0.00547992,0.000697932,0.000871118,0.000818416,-0.00560041,1.43336,0.00605127,641.213,-86.2027,2.28965,0.401339,-0.0540144,-0.139844,0.00518067,356,457,104.861,25.7626,218.22,154.794,112.849,116.956,0.000128603,0.000133688,0.0004441
-7.04988,10.1222,-296.723,3.99255,-1.15984,-0.512744,-0.00548097,0.000726737,0.000899711,0.000854507,-0.00560874,1.42973,0.00608119,641.093,-86.3737,4.58798,0.406723,-0.0573993,-0.145076,0.00528966,363,457,104.809,25.6885,219.587,155.401,114.285,117.666,0.000134136,0.000133576,0.000463378
-6.75914,10.1097,-296.688,3.99035,-1.15678,-0.506537,-0.00551591,0.000760514,0.000928288,0.00089493,-0.00565033,1.427,0.00614685,640.978,-86.5674,6.3242,0.421153,-0.0622307,-0.150644,0.00526452,370,457,104.753,25.6172,220.873,156.015,115.637,118.373,0.000137748,0.000130346,0.000476222
-6.46825,10.0968,-296.652,3.98793,-1.15365,-0.500498,-0.00558271,0.000800897,0.00095744,0.000941406,-0.00572322,1.42508,0.00624735,640.849,-86.8226,7.62376,0.434392,-0.0687423,-0.153857,0.00522177,377,457,104.692,25.5419,222.163,156.648,116.998,119.099,0.000139237,0.000127059,0.000482037
-6.17513,10.0835,-296.607,3.98522,-1.15011,-0.493901,-0.00566674,0.000845075,0.000985789,0.000991037,-0.0058127,1.4238,0.00636634,640.597,-87.0466,8.67054,0.439216,-0.0787892,-0.150939,0.00524498,384,457,104.624,25.4592,223.574,157.294,118.481,119.85,0.000139631,0.000125168,0.000484186
-5.87857,10.0703,-296.551,3.98227,-1.14611,-0.48685,-0.00574734,0.000888449,0.0010028,0.00103668,-0.00589557,1.42404,0.00647644,640.397,-87.2084,9.89735,0.442619,-0.0906775,-0.143824,0.00519641,391,457,104.55,25.366,225.177,157.927,120.154,120.601,0.000138368,0.000122648,0.000480192
-5.58132,10.0571,-296.491,3.9793,-1.14191,-0.479804,-0.00580395,0.000934804,0.00100248,0.00108077,-0.00594992,1.4262,0.00655745,640.13,-87.2909,11.4395,0.453099,-0.104731,-0.134664,0.00510696,398,457,104.476,25.2689,226.824,158.551,121.869,121.349,0.000136239,0.000123113,0.000472906
-5.28453,10.044,-296.432,3.97624,-1.13794,-0.473011,-0.00583402,0.000990795,0.000981995,0.00112928,-0.00597251,1.4307,0.0066099,639.901,-87.2909,12.9267,0.468588,-0.118447,-0.127699,0.00505381,405,457,104.403,25.1744,228.445,159.183,123.564,122.096,0.000134271,0.000126789,0.00046633
-4.98876,10.0312,-296.376,3.97335,-1.13411,-0.466468,-0.00585035,0.00104686,0.000947618,0.00117469,-0.00597818,1.43671,0.00664387,639.697,-87.31,14.3196,0.485709,-0.133519,-0.122075,0.00491886,412,457,104.335,25.0843,230.02,159.801,125.209,122.825,0.000129446,0.000126655,0.000450228
-4.69256,10.0183,-296.318,3.97022,-1.13016,-0.459795,-0.00586247,0.00110064,0.000902537,0.00121572,-0.00597755,1.44397,0.00666904,639.594,-87.4537,15.8081,0.504188,-0.148065,-0.118863,0.00478352,419,457,104.261,24.9937,231.618,160.42,126.882,123.562,0.00012514,0.00012448,0.000436251
-4.39381,10.0054,-296.25,3.96671,-1.12574,-0.453422,-0.00587333,0.00115149,0.000849342,0.00125273,-0.00597457,1.45217,0.00668949,639.427,-87.6318,17.3637,0.529115,-0.1581,-0.118728,0.00469062,426,457,104.183,24.8969,233.352,161.027,128.7,124.304,0.000122801,0.000120944,0.000429081
-4.09312,9.99209,-296.175,3.96294,-1.12107,-0.446841,-0.00586832,0.00119796,0.000787851,0.00128474,-0.00595509,1.4611,0.00669062,639.284,-87.8022,18.9865,0.557815,-0.161786,-0.12005,0.00455935,433,457,104.099,24.791,235.197,161.65,130.63,125.065,0.000119008,0.000117293,0.000416315
-3.7911,9.97875,-296.094,3.9591,-1.11617,-0.439896,-0.00584109,0.00124099,0.000719676,0.00131338,-0.00591348,1.47054,0.0066679,639.03,-87.9372,20.4276,0.58095,-0.161711,-0.119047,0.00453216,440,457,104.013,24.679,237.125,162.276,132.642,125.833,0.000117169,0.00011748,0.000409652
-3.48864,9.96537,-296.011,3.95526,-1.1112,-0.432803,-0.00579946,0.00128176,0.000649902,0.00134091,-0.00585861,1.48003,0.00663154,638.801,-88.0262,21.8724,0.594784,-0.16064,-0.115996,0.00455693,447,457,103.927,24.5643,239.088,162.902,134.684,126.604,0.00011565,0.000117193,0.000403345
-3.18596,9.952,-295.926,3.95148,-1.10603,-0.425518,-0.00575395,0.00132012,0.000584439,0.00136808,-0.00580191,1.48892,0.00659327,638.557,-88.0084,23.2877,0.598616,-0.159302,-0.113041,0.00464663,454,457,103.842,24.446,241.076,163.523,136.747,127.375,0.000118883,0.000118233,0.000413836
-2.88133,9.93846,-295.833,3.94743,-1.10075,-0.41796,-0.00570141,0.00135855,0.000524954,0.00139737,-0.00574023,1.49698,0.00655166,638.243,-87.9589,24.995,0.593987,-0.155654,-0.110493,0.00489467,461,457,103.751,24.3239,243.179,164.156,138.927,128.16,0.000126835,0.000121139,0.000441563
-2.57408,9.92482,-295.73,3.94287,-1.09515,-0.410199,-0.005636,0.00139837,0.000471586,0.00142985,-0.00566747,1.50415,0.00650141,637.919,-88.0282,27.1331,0.582101,-0.148581,-0.105248,0.00513646,468,457,103.649,24.1972,245.429,164.788,141.263,128.953,0.000134965,0.000124844,0.000469799
-2.26525,9.91104,-295.621,3.93781,-1.08935,-0.40236,-0.0055561,0.00143813,0.00042549,0.00146392,-0.00558189,1.51026,0.00643988,637.467,-88.1072,29.3928,0.566455,-0.140347,-0.096114,0.00533517,475,457,103.536,24.0665,247.768,165.424,143.698,129.758,0.000140888,0.000127147,0.000489852
-1.9576,9.8975,-295.514,3.93293,-1.08362,-0.394881,-0.0054658,0.00147575,0.000390489,0.00149765,-0.00548769,1.51478,0.00636996,637.121,-88.1994,31.3212,0.547065,-0.132845,-0.0858116,0.00539332,482,457,103.43,23.9368,250.054,166.048,146.077,130.548,0.000142281,0.000129395,0.00049329
-1.65312,9.88422,-295.418,3.92891,-1.07819,-0.386512,-0.0053685,0.00151157,0.000368559,0.00153126,-0.00538819,1.51743,0.00629508,636.827,-88.3096,32.6132,0.520047,-0.126094,-0.0777194,0.00537611,489,457,103.336,23.8108,252.201,166.665,148.288,131.321,0.000141013,0.000130643,0.000487801
-1.35324,9.8717,-295.336,3.92555,-1.07326,-0.378486,-0.00525325,0.00154558,0.00035802,0.00156438,-0.00527205,1.51833,0.00620398,636.549,-88.3546,33.5084,0.490288,-0.121708,-0.070233,0.00524875,496,457,103.258,23.6967,254.11,167.249,150.25,132.046,0.000137971,0.000127409,0.000476412
-1.05799,9.85881,-295.271,3.92269,-1.0686,-0.370749,-0.00512078,0.00157832,0.000355886,0.00159717,-0.00513963,1.51787,0.00609718,636.284,-88.3764,34.3023,0.462693,-0.121006,-0.062449,0.00513191,503,457,103.189,23.5879,255.771,167.852,151.954,132.784,0.000135862,0.000126319,0.000468809
-0.76581,9.84566,-295.215,3.91982,-1.06424,-0.363705,-0.00497781,0.00160845,0.000363158,0.00162841,-0.00499777,1.51588,0.00598062,635.9,-88.412,35.1812,0.436052,-0.123554,-0.0534176,0.00517371,510,457,103.123,23.4871,257.254,168.47,153.489,133.531,0.000137267,0.000128174,0.000473701
-0.473276,9.83266,-295.157,3.91677,-1.05985,-0.356254,-0.00483314,0.00163496,0.000379604,0.00165716,-0.00485534,1.51238,0.00586231,635.602,-88.5355,36.8123,0.407742,-0.130377,-0.0450205,0.00541849,517,457,103.05,23.3852,258.763,169.081,155.051,134.271,0.000142711,0.000129972,0.000492203
-0.178903,9.81959,-295.092,3.91345,-1.05528,-0.348697,-0.00468909,0.00165338,0.000398957,0.00167837,-0.00471409,1.50822,0.00574035,635.302,-88.6549,38.5441,0.381638,-0.142129,-0.0383024,0.00559292,524,457,102.972,23.2809,260.381,169.693,156.724,135.018,0.000146737,0.000129923,0.0005063
0.117269,9.80646,-295.019,3.90996,-1.05057,-0.340712,-0.00453087,0.00167013,0.000418944,0.00169831,-0.00455904,1.50364,0.00560462,635.105,-88.777,40.4325,0.36216,-0.15852,-0.0307259,0.00556714,531,457,102.89,23.1716,262.112,170.311,158.509,135.772,0.000146049,0.000129724,0.000503568
0.414466,9.79338,-294.942,3.9063,-1.04565,-0.332881,-0.00439237,0.00168466,0.000440849,0.00171647,-0.00442418,1.49876,0.00548759,634.899,-88.8987,41.9791,0.349071,-0.177654,-0.0257095,0.00541441,538,457,102.806,23.0583,263.907,170.922,160.361,136.525,0.000142568,0.000131124,0.000490576
0.711557,9.78037,-294.864,3.90289,-1.04067,-0.324661,-0.00427166,0.00169636,0.000465225,0.00173241,-0.0043077,1.49347,0.00538705,634.599,-88.9363,43.2944,0.341262,-0.196669,-0.0243822,0.00538347,545,457,102.726,22.9453,265.717,171.526,162.216,137.275,0.000138837,0.000134358,0.000476009
1.00762,9.76765,-294.789,3.89968,-1.03564,-0.316228,-0.004153,0.00170468,0.000489287,0.00174527,-0.00419358,1.48803,0.00528687,634.344,-88.9188,44.6398,0.330018,-0.217245,-0.0256175,0.00550274,552,457,102.65,22.8317,267.483,172.11,164.02,138.009,0.000139228,0.000137788,0.000476779
1.30236,9.75509,-294.718,3.89651,-1.03062,-0.308488,-0.00404376,0.00170917,0.000510961,0.0017542,-0.00408879,1.4829,0.00519307,634.098,-88.8941,45.8566,0.305953,-0.243433,-0.0290964,0.00553098,559,457,102.578,22.7156,269.176,172.687,165.755,138.732,0.000141108,0.000139338,0.000482631
1.59553,9.74232,-294.651,3.8934,-1.02574,-0.300608,-0.00397733,0.00170967,0.00053134,0.00175889,-0.00402655,1.47843,0.00513702,633.978,-88.9932,46.9893,0.265985,-0.276664,-0.0379235,0.00552968,566,457,102.506,22.6029,270.786,173.276,167.405,139.464,0.000142419,0.000139144,0.000485481
1.88653,9.72916,-294.592,3.89051,-1.02118,-0.292927,-0.003975,0.00170726,0.000553598,0.00176069,-0.00402843,1.47458,0.00514015,633.875,-89.1568,47.6778,0.222601,-0.310922,-0.0560565,0.00551645,573,457,102.439,22.4959,272.279,173.893,168.936,140.214,0.000144221,0.000138595,0.000490487
0,0,0,0,0,0,0,0,0,0,0,0,0,0,0,0,0,0,0,-1,580,457,0,0,0,0,0,0,0,0,0
0,0,0,0,0,0,0,0,0,0,0,0,0,0,0,0,0,0,0,-1,587,457,0,0,0,0,0,0,0,0,0
0,0,0,0,0,0,0,0,0,0,0,0,0,0,0,0,0,0,0,-1,594,457,0,0,0,0,0,0,0,0,0
0,0,0,0,0,0,0,0,0,0,0,0,0,0,0,0,0,0,0,-1,601,457,0,0,0,0,0,0,0,0,0
0,0,0,0,0,0,0,0,0,0,0,0,0,0,0,0,0,0,0,-1,62,464,0,0,0,0,0,0,0,0,0
0,0,0,0,0,0,0,0,0,0,0,0,0,0,0,0,0,0,0,-1,69,464,0,0,0,0,0,0,0,0,0
0,0,0,0,0,0,0,0,0,0,0,0,0,0,0,0,0,0,0,-1,76,464,0,0,0,0,0,0,0,0,0
-18.8335,10.3642,-298.117,4.08807,-1.26189,-0.649074,-0.00681766,0.0017913,0.00135788,0.0020004,-0.00702675,1.41801,0.00821177,645.389,-80.8848,-65.8722,0.274888,-0.179853,0.0431968,0.00485854,83,464,106.703,27.907,162.707,130.483,53.1097,89.4243,0.000129117,0.000121636,0.000457942
-18.5577,10.352,-298.147,4.08604,-1.26139,-0.649368,-0.0067795,0.00171304,0.00128836,0.00190418,-0.00697065,1.42351,0.00809254,645.625,-81.0746,-63.7532,0.305162,-0.193089,-0.0205364,0.00504266,90,464,106.667,27.8985,163.174,131.125,53.7304,90.1031,0.000132922,0.000125185,0.000470487
-18.2786,10.3398,-298.167,4.0842,-1.26071,-0.649962,-0.00673563,0.00162139,0.00122928,0.00179846,-0.0069127,1.42774,0.00796568,645.883,-81.3382,-61.3869,0.327821,-0.199046,-0.07147,0.00533068,97,464,106.641,27.8881,163.805,131.763,54.5089,90.7815,0.000138778,0.000134328,0.000498219
-17.997,10.3273,-298.179,4.08237,-1.2598,-0.650133,-0.00668269,0.00152362,0.00118231,0.00169056,-0.00684964,1.43052,0.00783296,646.091,-81.6706,-59.3557,0.340101,-0.201305,-0.113176,0.00560668,104,464,106.615,27.8732,164.559,132.412,55.4049,91.478,0.000144071,0.000141961,0.000522338
-17.7136,10.3148,-298.186,4.08041,-1.25875,-0.649875,-0.00662045,0.00142388,0.00114826,0.00158458,-0.00678115,1.43175,0.00769676,646.223,-81.9647,-57.4364,0.343593,-0.201487,-0.14544,0.00576362,111,464,106.585,27.856,165.393,133.055,56.3793,92.1729,0.000148663,0.000145163,0.000541848
-17.4284,10.3024,-298.186,4.07848,-1.25749,-0.648875,-0.00654838,0.00132579,0.00112548,0.0014835,-0.00670609,1.43158,0.00755784,646.321,-82.2147,-55.7784,0.343873,-0.200596,-0.166634,0.005772,118,464,106.551,27.8335,166.325,133.695,57.4428,92.8688,0.000150292,0.000143749,0.000544191
-17.1413,10.29,-298.181,4.07666,-1.25617,-0.646699,-0.00646643,0.00123215,0.00110999,0.00138899,-0.00662327,1.43042,0.00741597,646.377,-82.4074,-54.3444,0.342266,-0.198997,-0.17813,0.0055876,125,464,106.513,27.8072,167.357,134.338,58.5947,93.5653,0.000146024,0.000137835,0.00052141
-16.8535,10.2777,-298.174,4.07484,-1.25491,-0.644038,-0.00638058,0.00114399,0.00109887,0.00130118,-0.00653777,1.42871,0.00727615,646.41,-82.6317,-52.6702,0.338414,-0.195885,-0.183488,0.0054415,132,464,106.472,27.7819,168.425,134.983,59.7768,94.2609,0.000143445,0.000135319,0.00050575
-16.5652,10.2652,-298.164,4.07299,-1.2535,-0.64198,-0.0063043,0.00106152,0.00108648,0.00121844,-0.00646122,1.42736,0.00714874,646.483,-82.9099,-50.5984,0.339143,-0.192032,-0.189752,0.00538622,139,464,106.437,27.7523,169.511,135.632,60.9812,94.9639,0.000143414,0.000137592,0.000504939
-16.2763,10.2526,-298.153,4.07124,-1.25196,-0.639962,-0.00624097,0.000984201,0.0010804,0.0011423,-0.00639907,1.4255,0.00704006,646.495,-83.1581,-48.4255,0.344549,-0.183691,-0.190725,0.00542081,146,464,106.405,27.7211,170.632,136.28,62.2171,95.6715,0.000143129,0.000139233,0.000504469
-15.9841,10.2399,-298.131,4.06941,-1.25011,-0.637596,-0.00618809,0.000913325,0.00107974,0.00107386,-0.00634863,1.42319,0.00694808,646.401,-83.3956,-46.6457,0.352153,-0.171386,-0.185834,0.00537179,153,464,106.371,27.6804,171.908,136.935,63.6047,96.3914,0.000143153,0.000136573,0.000504363
-15.6896,10.2275,-298.101,4.06746,-1.24793,-0.635166,-0.00614057,0.00084894,0.00108113,0.00101235,-0.00630398,1.42079,0.00686635,646.201,-83.5801,-45.2045,0.356621,-0.155539,-0.176537,0.00534943,160,464,106.337,27.6327,173.305,137.567,65.113,97.0964,0.000142687,0.000131705,0.000500914
-15.3937,10.2147,-298.067,4.06545,-1.24551,-0.632133,-0.00610153,0.000791626,0.00107998,0.00095687,-0.00626677,1.41897,0.00679592,646.093,-83.6365,-43.8313,0.353318,-0.137434,-0.164346,0.00522959,167,464,106.299,27.5815,174.769,138.212,66.6841,97.8232,0.000139495,0.000125889,0.000488476
-15.0977,10.202,-298.032,4.06341,-1.24313,-0.629053,-0.00607729,0.000741987,0.00107493,0.000907417,-0.00624272,1.4181,0.00674238,645.998,-83.6619,-42.3548,0.347123,-0.119106,-0.150794,0.0051299,174,464,106.26,27.5319,176.246,138.854,68.2673,98.5459,0.000137306,0.000123333,0.000478629
-14.804,10.1895,-298.003,4.06151,-1.24102,-0.625546,-0.00606679,0.000698129,0.00106645,0.000862266,-0.00623093,1.41808,0.00670378,645.958,-83.6905,-40.3029,0.342304,-0.100453,-0.137765,0.00502031,181,464,106.22,27.4885,177.61,139.491,69.731,99.2569,0.000134993,0.000120856,0.000469485
-14.5135,10.1767,-297.984,4.05965,-1.23922,-0.621967,-0.00606309,0.00065849,0.00105279,0.00081953,-0.00622413,1.41901,0.00667175,645.84,-83.8002,-38.798,0.338147,-0.081836,-0.126647,0.00491826,188,464,106.177,27.4516,178.81,140.146,71.0313,99.9764,0.0001325,0.000116172,0.000460247
-14.224,10.164,-297.968,4.05759,-1.23745,-0.619134,-0.00606214,0.000621916,0.00103187,0.000777588,-0.00621781,1.42106,0.00664084,645.949,-83.9587,-37.1931,0.331931,-0.0650205,-0.118817,0.00488144,195,464,106.135,27.4155,179.951,140.795,72.2829,100.69,0.000131473,0.000112832,0.000456974
-13.9338,10.1516,-297.949,4.05546,-1.23552,-0.61623,-0.00606673,0.000587216,0.00100297,0.00073511,-0.00621462,1.4244,0.00661289,646.083,-84.2013,-35.3025,0.322212,-0.052482,-0.112592,0.00489976,202,464,106.092,27.375,181.126,141.426,73.569,101.389,0.000131606,0.000113235,0.000456735
-13.642,10.1391,-297.924,4.05316,-1.23323,-0.613437,-0.00608026,0.000554645,0.000968325,0.000693078,-0.00621869,1.4288,0.00659261,646.053,-84.4339,-33.5374,0.311475,-0.0455612,-0.109524,0.00498513,209,464,106.047,27.3264,182.38,142.054,74.9376,102.096,0.000132115,0.000118227,0.000457975
-13.3487,10.1266,-297.895,4.05094,-1.23083,-0.609976,-0.0060992,0.00052519,0.00093255,0.000653967,-0.00622798,1.43357,0.00657939,645.777,-84.5478,-31.9984,0.302338,-0.0440056,-0.112179,0.00503231,216,464,106.001,27.273,183.713,142.686,76.3757,102.806,0.000131039,0.000123348,0.000453327
-13.0543,10.114,-297.861,4.0487,-1.22841,-0.605901,-0.00611658,0.00050025,0.000901759,0.000620943,-0.00623728,1.43775,0.00656979,645.406,-84.5151,-30.3876,0.297216,-0.0467993,-0.122096,0.00497139,223,464,105.952,27.2186,185.113,143.322,77.875,103.52,0.000129401,0.000125051,0.000446419
-12.7585,10.1014,-297.823,4.04644,-1.22584,-0.601277,-0.00612744,0.000480054,0.000879428,0.000595099,-0.00624248,1.44072,0.00656031,645.219,-84.4636,-28.416,0.295498,-0.0530725,-0.136271,0.00485243,230,464,105.9,27.1613,186.586,143.957,79.4421,104.236,0.000129048,0.000123791,0.000444225
-12.4615,10.0881,-297.78,4.04407,-1.22309,-0.596566,-0.00613083,0.000464733,0.000865305,0.000576367,-0.00624247,1.44249,0.0065497,645.069,-84.3927,-26.5162,0.296309,-0.0622252,-0.150515,0.00495622,237,464,105.846,27.1006,188.118,144.622,81.0686,104.989,0.000134536,0.000124642,0.000462792
-12.1634,10.0749,-297.733,4.04167,-1.22013,-0.592161,-0.00613281,0.000454841,0.000855935,0.000564236,-0.00624221,1.44368,0.0065426,644.874,-84.4792,-24.6326,0.300505,-0.0725314,-0.165182,0.0052294,244,464,105.795,27.0386,189.709,145.281,82.756,105.743,0.000139461,0.000129052,0.000480513
-11.865,10.0618,-297.685,4.03922,-1.21713,-0.587997,-0.00614392,0.000453002,0.000847791,0.000560211,-0.00625113,1.44501,0.00654923,644.588,-84.6316,-22.8609,0.312475,-0.0847665,-0.180583,0.00548511,251,464,105.746,26.9764,191.316,145.925,84.4597,106.485,0.000143797,0.000135375,0.000496697
-11.5668,10.0488,-297.636,4.03671,-1.2143,-0.583971,-0.00617747,0.000454327,0.000849213,0.000561344,-0.00628449,1.44544,0.00658313,644.324,-84.7574,-21.1318,0.327881,-0.0943983,-0.191499,0.00548186,258,464,105.697,26.917,192.91,146.577,86.1537,107.229,0.000142056,0.000135822,0.000491411
-11.2695,10.0359,-297.59,4.03413,-1.21151,-0.579713,-0.006223,0.000459451,0.000859763,0.000568295,-0.00633184,1.44487,0.00663427,644.109,-84.8918,-19.4138,0.341201,-0.10144,-0.196675,0.00526045,265,464,105.644,26.8561,194.463,147.223,87.807,107.962,0.000137584,0.000131112,0.00047659
-10.9728,10.0229,-297.545,4.03143,-1.20864,-0.575279,-0.00625528,0.000468222,0.000871319,0.000579303,-0.00636636,1.44399,0.00667489,643.926,-85.0707,-17.3683,0.353421,-0.104868,-0.195673,0.00490175,272,464,105.587,26.7942,195.984,147.87,89.4288,108.7,0.000131099,0.000123193,0.000455034
-10.676,10.01,-297.499,4.02885,-1.20555,-0.570141,-0.00625067,0.000481697,0.000870821,0.000592512,-0.00636149,1.44422,0.00667749,643.849,-85.2581,-15.1332,0.36585,-0.103067,-0.189471,0.00487266,279,464,105.527,26.7253,197.519,148.508,91.0556,109.434,0.000127746,0.000122462,0.000444603
-10.3789,9.99707,-297.452,4.02631,-1.20242,-0.564953,-0.00621552,0.000507589,0.000858677,0.000615526,-0.00632346,1.44575,0.00665261,643.648,-85.4081,-13.5943,0.375628,-0.0983728,-0.177977,0.005086,286,464,105.47,26.6537,199.082,149.15,92.7071,110.172,0.000127606,0.000127675,0.000444957
-10.0807,9.98403,-297.4,4.02368,-1.19913,-0.559514,-0.00616272,0.000540284,0.000842113,0.000644461,-0.0062669,1.44771,0.00661272,643.433,-85.6192,-12.4771,0.377669,-0.0909853,-0.163513,0.00527688,293,464,105.409,26.577,200.697,149.796,94.4091,110.915,0.000131879,0.000133878,0.000459136
-9.7797,9.97123,-297.339,4.02058,-1.19559,-0.5544,-0.00609821,0.000569412,0.000826405,0.000670312,-0.00619911,1.4493,0.00656,643.291,-85.8766,-11.2658,0.375041,-0.0831245,-0.146241,0.0052539,300,464,105.343,26.4907,202.455,150.43,96.2674,111.65,0.000134925,0.000134851,0.000468443
-9.47329,9.95811,-297.259,4.01705,-1.19129,-0.549052,-0.00600655,0.000596201,0.000806149,0.000693201,-0.00610355,1.45105,0.00647803,643.14,-85.9457,-9.55576,0.376899,-0.0739835,-0.133714,0.00518975,307,464,105.27,26.3941,204.493,151.063,98.4096,112.41,0.000134866,0.000132677,0.000466854
-9.16216,9.94426,-297.163,4.01306,-1.18633,-0.543919,-0.00588983,0.000622407,0.000781742,0.000714934,-0.00598236,1.45298,0.00636999,642.781,-85.9054,-8.04728,0.382247,-0.0636622,-0.126303,0.00516566,314,464,105.193,26.2853,206.774,151.72,100.804,113.216,0.000134547,0.000133704,0.000464321
-8.84689,9.93063,-297.053,4.00887,-1.18089,-0.538688,-0.00576876,0.000647306,0.000757231,0.000735465,-0.00585692,1.4549,0.00625715,642.185,-85.6516,-6.76787,0.384677,-0.0540801,-0.122361,0.0052727,321,464,105.114,26.1668,209.282,152.36,103.424,114.016,0.000138722,0.000139941,0.000477881
-8.53578,9.91685,-296.955,4.00537,-1.17613,-0.533152,-0.00566207,0.000669764,0.000739618,0.00075501,-0.00574732,1.45605,0.00615963,641.681,-85.5173,-5.22453,0.385213,-0.0476172,-0.120913,0.00529169,328,464,105.047,26.0604,211.596,153.023,105.833,114.819,0.000140508,0.00014147,0.000483863
-8.23179,9.90363,-296.879,4.00259,-1.17212,-0.527191,-0.00557347,0.000690242,0.000734318,0.000775177,-0.0056584,1.45564,0.00608315,641.398,-85.5808,-3.25984,0.390303,-0.0447645,-0.124252,0.00507801,335,464,104.989,25.9694,213.56,153.669,107.873,115.582,0.000134479,0.00013442,0.000463459
-7.9331,9.89097,-296.821,4.00023,-1.16875,-0.521296,-0.00550228,0.000710132,0.000742978,0.000797753,-0.0055899,1.45341,0.0060285,641.198,-85.8047,-1.23933,0.398357,-0.044785,-0.132017,0.0048675,342,464,104.937,25.8955,215.256,154.292,109.639,116.308,0.000125683,0.000128743,0.00043371
-7.63959,9.87853,-296.778,3.99802,-1.16574,-0.515748,-0.00545057,0.000731305,0.00076477,0.000824511,-0.00554378,1.44952,0.00599868,640.954,-86.0029,0.680387,0.402127,-0.0475981,-0.138587,0.00488335,349,464,104.886,25.8332,216.68,154.902,111.133,117.015,0.000122954,0.000126982,0.000424554
-7.34979,9.86625,-296.748,3.99594,-1.16295,-0.510098,-0.00543236,0.000752253,0.000800712,0.000854238,-0.00553435,1.44411,0.00600719,640.757,-86.1744,2.77877,0.400511,-0.0523239,-0.142122,0.0051684,356,464,104.835,25.7717,217.91,155.506,112.431,117.708,0.000127913,0.000132759,0.00044161
-7.06134,9.85374,-296.721,3.99396,-1.16007,-0.504373,-0.00543986,0.000779061,0.000836894,0.000889715,-0.00555051,1.43934,0.00604468,640.666,-86.365,4.78253,0.406803,-0.0601236,-0.145779,0.00535001,363,464,104.784,25.7048,219.072,156.121,113.658,118.411,0.000133541,0.000135232,0.000461039
-6.7729,9.84122,-296.694,3.99174,-1.15717,-0.498616,-0.00547519,0.000810824,0.000873003,0.000929815,-0.00559418,1.43533,0.00611236,640.635,-86.5906,6.48931,0.42254,-0.0692335,-0.150053,0.00536922,370,464,104.728,25.6362,220.229,156.737,114.886,119.115,0.000138103,0.000133062,0.000476982
-6.4821,9.82827,-296.658,3.98931,-1.15403,-0.492805,-0.00553902,0.000849494,0.000908999,0.000976315,-0.00566584,1.43217,0.00621181,640.538,-86.7744,7.84069,0.436466,-0.0797714,-0.151717,0.0052841,377,464,104.669,25.5603,221.512,157.374,116.242,119.845,0.000140245,0.000129574,0.000485041
-6.18756,9.81517,-296.609,3.9865,-1.15042,-0.486338,-0.0056194,0.000893142,0.000944109,0.00102725,-0.00575351,1.4297,0.00632995,640.376,-86.9368,9.17754,0.440817,-0.0929786,-0.147228,0.00523659,384,464,104.6,25.4742,222.997,158.013,117.802,120.589,0.000139562,0.000126732,0.000483585
-5.88918,9.80215,-296.546,3.98336,-1.1462,-0.479555,-0.00569151,0.000936597,0.000966489,0.00107465,-0.00582956,1.42891,0.00643455,640.206,-87.0851,10.5513,0.44264,-0.107055,-0.13939,0.00515658,391,464,104.525,25.3767,224.693,158.636,119.574,121.335,0.00013694,0.000123617,0.000475106
-5.58952,9.78909,-296.479,3.98013,-1.14172,-0.472677,-0.00573384,0.000984796,0.000968803,0.0011217,-0.00587075,1.43041,0.00650455,640,-87.1437,12.2898,0.451338,-0.122614,-0.130316,0.00500589,398,464,104.449,25.2753,226.465,159.252,121.421,122.085,0.00013307,0.000122702,0.000462051
-5.29056,9.77603,-296.412,3.97699,-1.13742,-0.465518,-0.00574447,0.00104306,0.000948166,0.00117302,-0.00587443,1.43458,0.00654032,639.71,-87.1582,13.6419,0.464995,-0.137003,-0.12379,0.00487449,405,464,104.374,25.1758,228.21,159.877,123.235,122.834,0.000129755,0.000122505,0.000451114
-4.99235,9.76318,-296.348,3.97394,-1.13333,-0.458764,-0.00574188,0.00110086,0.000914518,0.00122097,-0.00586199,1.4402,0.00655828,639.472,-87.1248,15.0562,0.479184,-0.152264,-0.118546,0.0047103,412,464,104.303,25.0803,229.918,160.496,125.014,123.572,0.000124687,0.000119898,0.000434235
-4.69385,9.75036,-296.282,3.97071,-1.12916,-0.45181,-0.00573874,0.00115559,0.000869878,0.00126366,-0.0058468,1.4472,0.00657041,639.33,-87.2239,16.7051,0.495384,-0.166543,-0.116137,0.0045998,419,464,104.227,24.9855,231.646,161.11,126.815,124.309,0.000121629,0.000117176,0.000424506
-4.39347,9.73744,-296.208,3.96706,-1.12465,-0.445397,-0.00573957,0.00120675,0.000816329,0.0013014,-0.00583422,1.45537,0.00658212,639.093,-87.4118,18.2728,0.51891,-0.176357,-0.117061,0.00456443,426,464,104.147,24.8855,233.47,161.72,128.724,125.054,0.000120891,0.000115049,0.000422771
-4.09127,9.72409,-296.128,3.96327,-1.11986,-0.438472,-0.00572924,0.00125323,0.000753663,0.00133365,-0.00580966,1.46449,0.00657866,638.882,-87.6054,19.7653,0.545708,-0.180458,-0.118812,0.00451016,433,464,104.062,24.7771,235.403,162.352,130.74,125.826,0.000118583,0.000114553,0.000415051
-3.7883,9.71067,-296.043,3.95941,-1.1149,-0.43127,-0.0057005,0.00129616,0.000683856,0.00136237,-0.00576671,1.47427,0.00655496,638.607,-87.6911,21.0947,0.566376,-0.18135,-0.117265,0.00454285,440,464,103.975,24.6633,237.389,162.985,132.806,126.603,0.000118139,0.000116832,0.000413357
-3.4854,9.69727,-295.958,3.95559,-1.10981,-0.424061,-0.00566034,0.00133638,0.000612491,0.00138959,-0.00571355,1.48413,0.00652036,638.31,-87.7616,22.1418,0.579036,-0.181304,-0.113263,0.00460335,447,464,103.889,24.5481,239.381,163.613,134.875,127.379,0.000118449,0.000118625,0.000413477
-3.18262,9.68403,-295.873,3.95182,-1.10463,-0.417099,-0.00561861,0.00137383,0.000545335,0.0014161,-0.00566088,1.49343,0.00648594,638.028,-87.7846,23.3573,0.584499,-0.180815,-0.109913,0.00476306,454,464,103.807,24.4304,241.376,164.23,136.947,128.148,0.00012268,0.000121309,0.000427379
-2.87841,9.67081,-295.782,3.94788,-1.09935,-0.409635,-0.00557317,0.00141132,0.000484001,0.0014447,-0.00560655,1.50194,0.00645138,637.704,-87.7746,24.826,0.583156,-0.178014,-0.10784,0.00502253,461,464,103.719,24.31,243.46,164.847,139.106,128.918,0.00013014,0.000124195,0.000452797
-2.5723,9.65744,-295.682,3.9435,-1.0939,-0.401978,-0.00551993,0.00145021,0.000430142,0.00147665,-0.00554638,1.50939,0.00641349,637.341,-87.8031,26.8631,0.573867,-0.172143,-0.103094,0.00523419,468,464,103.622,24.1864,245.654,165.471,141.382,129.7,0.000137095,0.000126667,0.000476844
-2.2655,9.64396,-295.58,3.93868,-1.08834,-0.394314,-0.00545688,0.00148922,0.000385597,0.00151056,-0.00547822,1.51551,0.00636929,636.978,-87.8952,29.3388,0.559675,-0.165054,-0.0940439,0.00531937,475,464,103.514,24.0604,247.885,166.101,143.705,130.489,0.000140548,0.000126658,0.000488211
-1.95996,9.63112,-295.481,3.93393,-1.0829,-0.387273,-0.0053838,0.00152595,0.000353637,0.001544,-0.00540186,1.51979,0.006317,636.684,-87.9881,31.6193,0.542426,-0.157965,-0.083917,0.00521763,482,464,103.412,23.9352,250.053,166.699,145.969,131.244,0.000138176,0.000126177,0.000478479
-1.65785,9.61839,-295.393,3.93008,-1.07774,-0.379167,-0.00530096,0.00156054,0.000334895,0.00157685,-0.00531727,1.52214,0.00625654,636.472,-88.0823,33.2589,0.51817,-0.150744,-0.0761752,0.0051297,489,464,103.322,23.8144,252.069,167.296,148.049,131.987,0.00013537,0.000126532,0.000467299
-1.36039,9.60545,-295.32,3.92694,-1.07301,-0.370855,-0.00519739,0.00159287,0.000327186,0.0016086,-0.00521312,1.52276,0.00617657,636.284,-88.1598,34.402,0.490638,-0.144758,-0.0686565,0.00509313,496,464,103.245,23.7043,253.846,167.907,149.872,132.734,0.000133872,0.000126332,0.000461443
-1.06683,9.59232,-295.26,3.92428,-1.06857,-0.362702,-0.00507517,0.00162316,0.000328165,0.00163919,-0.0050912,1.52196,0.00607888,636.065,-88.2452,35.3063,0.464827,-0.141565,-0.0605373,0.00505593,503,464,103.177,23.5998,255.418,168.529,151.48,133.484,0.000132832,0.000127341,0.000457353
-0.775696,9.57952,-295.208,3.92156,-1.06444,-0.355637,-0.0049406,0.00165,0.000338683,0.00166736,-0.00495796,1.51959,0.00596894,635.786,-88.3888,36.2,0.439701,-0.141193,-0.0510998,0.00507707,510,464,103.113,23.5043,256.846,169.136,152.957,134.213,0.000133127,0.000129503,0.000458337
-0.48342,9.5667,-295.151,3.91842,-1.06016,-0.348424,-0.00480084,0.0016729,0.000358364,0.00169268,-0.00482061,1.51566,0.00585348,635.411,-88.486,37.3675,0.412587,-0.144718,-0.0423437,0.00516933,517,464,103.04,23.404,258.336,169.744,154.504,134.945,0.000136879,0.000129932,0.0004712
-0.188769,9.55372,-295.085,3.91491,-1.05554,-0.341266,-0.00465803,0.00168786,0.000381113,0.00171067,-0.00468084,1.51103,0.00573097,635.067,-88.6194,38.8833,0.38621,-0.152745,-0.035637,0.00527392,524,464,102.961,23.2982,259.963,170.354,156.194,135.691,0.000139379,0.00012864,0.000480479
0.10804,9.54076,-295.01,3.91145,-1.05065,-0.33333,-0.00449958,0.00170008,0.000403461,0.00172622,-0.00452573,1.50608,0.00559236,634.843,-88.7089,40.5762,0.36614,-0.164531,-0.0280453,0.00533779,531,464,102.88,23.1855,261.733,170.961,158.016,136.44,0.000139236,0.000129661,0.000479944
0.405426,9.5279,-294.932,3.90795,-1.04567,-0.325401,-0.00435834,0.00170859,0.000427496,0.00173857,-0.00438832,1.50079,0.00546894,634.662,-88.7507,42.0637,0.35265,-0.178556,-0.0237916,0.0053197,538,464,102.8,23.0701,263.545,171.563,159.88,137.185,0.0001361,0.000132333,0.000467827
0.702334,9.51519,-294.855,3.90462,-1.04068,-0.317312,-0.00423252,0.00171308,0.000454246,0.00174758,-0.00426703,1.49498,0.00535897,634.365,-88.7254,43.4187,0.343984,-0.192737,-0.0234364,0.00529127,545,464,102.723,22.9575,265.346,172.154,161.725,137.922,0.00013447,0.000134622,0.000460266
0.997808,9.50274,-294.782,3.90147,-1.03571,-0.30885,-0.00410329,0.00171333,0.000481358,0.00175289,-0.00414286,1.48878,0.00524384,634.046,-88.6664,44.774,0.329628,-0.209179,-0.0255425,0.0053671,552,464,102.648,22.8486,267.08,172.726,163.495,138.644,0.000136513,0.000136691,0.000467005
1.29132,9.49025,-294.715,3.89848,-1.03093,-0.301006,-0.00397529,0.00170924,0.000507313,0.00175416,-0.00402021,1.48248,0.0051275,633.731,-88.7102,46.1732,0.300409,-0.231903,-0.0306985,0.00553778,559,464,102.579,22.7391,268.706,173.306,165.159,139.363,0.000140606,0.00013963,0.000480682
1.58298,9.47746,-294.654,3.89558,-1.02626,-0.29304,-0.00388438,0.00170151,0.000534367,0.00175217,-0.00393504,1.47627,0.00504475,633.569,-88.8336,47.4796,0.255239,-0.262291,-0.0443787,0.00561491,566,464,102.51,22.6304,270.233,173.903,166.721,140.097,0.000142854,0.000142099,0.000486424
1.8723,9.46439,-294.601,3.89292,-1.02177,-0.285255,-0.00385739,0.00169356,0.0005677,0.00175103,-0.00391485,1.46992,0.00502466,633.521,-89.0902,48.6699,0.203527,-0.295262,-0.0721115,0.00561895,573,464,102.447,22.5243,271.632,174.517,168.151,140.841,0.000145507,0.000142952,0.000494655
0,0,0,0,0,0,0,0,0,0,0,0,0,0,0,0,0,0,0,-1,580,464,0,0,0,0,0,0,0,0,0
0,0,0,0,0,0,0,0,0,0,0,0,0,0,0,0,0,0,0,-1,587,464,0,0,0,0,0,0,0,0,0
0,0,0,0,0,0,0,0,0,0,0,0,0,0,0,0,0,0,0,-1,594,464,0,0,0,0,0,0,0,0,0
0,0,0,0,0,0,0,0,0,0,0,0,0,0,0,0,0,0,0,-1,601,464,0,0,0,0,0,0,0,0,0
0,0,0,0,0,0,0,0,0,0,0,0,0,0,0,0,0,0,0,-1,62,471,0,0,0,0,0,0,0,0,0
0,0,0,0,0,0,0,0,0,0,0,0,0,0,0,0,0,0,0,-1,69,471,0,0,0,0,0,0,0,0,0
0,0,0,0,0,0,0,0,0,0,0,0,0,0,0,0,0,0,0,-1,76,471,0,0,0,0,0,0,0,0,0
-18.8516,10.0925,-298.134,4.08847,-1.26276,-0.641735,-0.00662868,0.00181444,0.00142911,0.00204978,-0.00686401,1.40759,0.00808616,645.246,-80.9941,-65.3363,0.33299,-0.148311,0.0413337,0.00469506,83,471,106.648,27.9353,161.808,131.346,52.1469,90.3105,0.000122127,0.000120405,0.00043728
-18.5754,10.0799,-298.163,4.08654,-1.26217,-0.641819,-0.00659109,0.00175044,0.00134142,0.00196085,-0.0068015,1.41521,0.00796505,645.486,-81.193,-63.383,0.353942,-0.162925,-0.0231978,0.00480058,90,471,106.613,27.9247,162.301,132.002,52.7887,91.0035,0.000124725,0.000122651,0.000445245
-18.2974,10.0676,-298.186,4.08481,-1.26158,-0.642117,-0.00655698,0.00167283,0.00126667,0.00186337,-0.00674752,1.42149,0.00784693,645.796,-81.3825,-61.0816,0.367695,-0.1706,-0.0737695,0.00509226,97,471,106.587,27.9144,162.883,132.642,53.5129,91.6808,0.00013146,0.00012968,0.000472276
-18.017,10.0554,-298.202,4.083,-1.26084,-0.642378,-0.00652107,0.00158844,0.00120625,0.00176406,-0.00669669,1.42622,0.00773116,646.049,-81.676,-58.9384,0.372516,-0.17497,-0.11448,0.00538811,104,471,106.561,27.9026,163.576,133.278,54.349,92.3595,0.000139054,0.000136395,0.000500974
-17.7348,10.0433,-298.212,4.08114,-1.25994,-0.641966,-0.00648003,0.00150104,0.00116061,0.00166639,-0.00664538,1.42928,0.00761654,646.2,-81.9217,-56.9217,0.37025,-0.177662,-0.145506,0.00560744,111,471,106.531,27.8896,164.359,133.907,55.2691,93.0351,0.000145474,0.00014059,0.000525867
-17.4506,10.0311,-298.216,4.07939,-1.25877,-0.640687,-0.00642946,0.0014142,0.00112777,0.00157313,-0.00658839,1.43079,0.00749973,646.313,-82.1948,-55.2039,0.365597,-0.179557,-0.165543,0.00559296,118,471,106.498,27.8696,165.242,134.534,56.2782,93.7153,0.000146556,0.000139384,0.000527797
-17.1646,10.0189,-298.215,4.07765,-1.25754,-0.638527,-0.00636604,0.00133094,0.00110416,0.0014862,-0.0065213,1.4311,0.00737754,646.343,-82.417,-53.9185,0.359966,-0.1807,-0.17632,0.00537919,125,471,106.461,27.8463,166.223,135.166,57.3767,94.3999,0.000141995,0.000134169,0.000505982
-16.8777,10.0067,-298.21,4.07593,-1.25626,-0.635909,-0.00629452,0.00125222,0.00108738,0.00140577,-0.00644808,1.43051,0.00725385,646.417,-82.6991,-52.222,0.352722,-0.179964,-0.181674,0.00519821,132,471,106.423,27.8215,167.247,135.802,58.5129,95.0884,0.000138683,0.000130933,0.000489209
-16.5897,9.99417,-298.201,4.07415,-1.25479,-0.633787,-0.00622814,0.00117846,0.00107038,0.00133005,-0.00637972,1.43011,0.00713829,646.496,-82.9618,-50.1921,0.349171,-0.177837,-0.188598,0.00525453,139,471,106.388,27.789,168.324,136.449,59.7064,95.7905,0.000139691,0.000134409,0.000491329
-16.2997,9.98163,-298.187,4.07225,-1.25305,-0.632044,-0.00617161,0.00110892,0.00106122,0.00126045,-0.00632314,1.42897,0.00703852,646.496,-83.2173,-48.1529,0.348807,-0.171132,-0.190358,0.00536112,146,471,106.356,27.754,169.488,137.091,60.9897,96.4973,0.000140332,0.000138119,0.000492223
-16.0059,9.96896,-298.16,4.07019,-1.25097,-0.629857,-0.00612228,0.00104524,0.00105873,0.00119835,-0.0062754,1.42717,0.00695247,646.407,-83.4281,-46.4512,0.350171,-0.160373,-0.186279,0.00531932,153,471,106.32,27.7086,170.839,137.738,62.458,97.2154,0.000139329,0.000136066,0.00048754
-15.7096,9.95621,-298.125,4.06804,-1.24865,-0.627404,-0.00607524,0.000987388,0.00105931,0.00114285,-0.0062307,1.42508,0.00687375,646.285,-83.5959,-44.8847,0.349498,-0.145852,-0.177737,0.00523185,160,471,106.283,27.6569,172.317,138.388,64.0514,97.9415,0.000137207,0.000130416,0.000479097
-15.4126,9.94339,-298.087,4.06599,-1.24615,-0.624318,-0.00603283,0.000935843,0.00105771,0.00109285,-0.00618983,1.42344,0.00680242,646.225,-83.6642,-43.3087,0.342344,-0.128901,-0.165888,0.00508205,167,471,106.244,27.6041,173.838,139.036,65.6798,98.6725,0.000134831,0.000123364,0.00046998
-15.1169,9.93096,-298.053,4.06411,-1.24385,-0.621235,-0.00600121,0.00089114,0.00105223,0.0010482,-0.00615827,1.42263,0.00674375,646.158,-83.6403,-41.7199,0.332911,-0.111474,-0.15259,0.00500229,174,471,106.209,27.5576,175.302,139.665,67.2448,99.3809,0.000133925,0.000120127,0.000464774
-14.8244,9.91862,-298.029,4.06241,-1.2419,-0.617829,-0.0059809,0.000851284,0.00104281,0.0010069,-0.00613652,1.42266,0.00669698,646.084,-83.7024,-39.6726,0.325488,-0.0937741,-0.139509,0.00493266,181,471,106.173,27.5173,176.608,140.296,68.6469,100.08,0.000132862,0.000117805,0.000459677
-14.5351,9.906,-298.013,4.06073,-1.24025,-0.614352,-0.00596542,0.000814303,0.00102713,0.000966496,-0.00611761,1.42369,0.00665371,645.998,-83.8168,-37.8898,0.319794,-0.0760658,-0.127491,0.00483962,188,471,106.135,27.4831,177.756,140.946,69.8916,100.79,0.000130775,0.000113774,0.000451926
-14.2455,9.89353,-297.997,4.05875,-1.23848,-0.611583,-0.0059521,0.000779098,0.0010032,0.000925432,-0.00609843,1.42595,0.00660992,646.045,-83.9795,-36.2011,0.313631,-0.0603595,-0.117776,0.00482091,195,471,106.096,27.4458,178.902,141.585,71.1466,101.491,0.000130053,0.000111405,0.000451376
-13.9542,9.88111,-297.975,4.05648,-1.23642,-0.608883,-0.00594661,0.000744632,0.000970642,0.00088259,-0.00608457,1.42961,0.00657048,646.011,-84.2158,-34.6149,0.305369,-0.0491266,-0.109138,0.00486373,202,471,106.052,27.4016,180.123,142.215,72.484,102.193,0.000131004,0.000112583,0.000455078
-13.6612,9.86874,-297.946,4.05418,-1.23401,-0.605767,-0.0059548,0.000711086,0.000931628,0.000838842,-0.00608256,1.43451,0.00654244,645.894,-84.4189,-32.9695,0.297067,-0.043583,-0.10367,0.00507389,209,471,106.006,27.3495,181.441,142.836,73.9126,102.894,0.000135586,0.000120037,0.00047037
-13.3668,9.85632,-297.914,4.05188,-1.23139,-0.602223,-0.00597496,0.000679542,0.000891095,0.000796801,-0.00609222,1.43996,0.0065272,645.561,-84.5567,-31.5731,0.291857,-0.0432411,-0.104474,0.00512925,216,471,105.959,27.2928,182.831,143.456,75.4076,103.6,0.000135199,0.000126066,0.000468298
-13.0706,9.84351,-297.874,4.04969,-1.22878,-0.597678,-0.00599936,0.000651198,0.000855731,0.00075954,-0.0061077,1.44486,0.00652073,645.255,-84.5463,-29.6594,0.291312,-0.0471573,-0.113029,0.00498714,223,471,105.909,27.2351,184.326,144.102,76.9966,104.329,0.000130333,0.000127542,0.000450339
-12.7733,9.83073,-297.831,4.04734,-1.22612,-0.592978,-0.00602025,0.000626864,0.000829299,0.000728765,-0.00612215,1.44853,0.00651716,645.074,-84.4816,-27.4532,0.292764,-0.0545651,-0.126368,0.00480321,230,471,105.855,27.1754,185.871,144.748,78.636,105.058,0.000128117,0.000125537,0.000441551
-12.4751,9.8175,-297.785,4.04482,-1.22336,-0.588446,-0.00603351,0.000606986,0.000811485,0.000704713,-0.00613123,1.45094,0.00651225,644.91,-84.4831,-25.4029,0.295404,-0.0646916,-0.140564,0.00494036,237,471,105.801,27.1142,187.461,145.416,80.3252,105.811,0.000132366,0.000126629,0.000455789
-12.1765,9.80434,-297.736,4.04235,-1.22047,-0.584089,-0.00604391,0.000592583,0.000799442,0.000687527,-0.00613885,1.45259,0.0065099,644.675,-84.558,-23.5444,0.3011,-0.0756417,-0.156165,0.00518935,244,471,105.75,27.0514,189.076,146.075,82.0381,106.562,0.000137877,0.000130687,0.000475695
-11.8778,9.79143,-297.687,4.03988,-1.21752,-0.579777,-0.00606321,0.000585998,0.000790039,0.000678579,-0.00615579,1.45414,0.00652161,644.408,-84.6252,-21.7372,0.31437,-0.0880588,-0.173722,0.00542396,251,471,105.699,26.9887,190.701,146.72,83.7595,107.3,0.000143446,0.000134417,0.000496037
-11.5793,9.7785,-297.638,4.03734,-1.21456,-0.575768,-0.00610516,0.000581908,0.00079105,0.000674211,-0.00619746,1.45464,0.0065606,644.121,-84.7262,-20.2073,0.330041,-0.0968163,-0.187091,0.00540618,258,471,105.65,26.9284,192.31,147.362,85.4684,108.039,0.000142021,0.000132581,0.000491806
-11.2818,9.76581,-297.591,4.03488,-1.21164,-0.5713,-0.00615918,0.000582061,0.000800634,0.000675845,-0.00625296,1.45419,0.00661682,643.882,-84.8614,-18.807,0.341944,-0.1021,-0.19507,0.00521249,265,471,105.599,26.867,193.88,147.994,87.1329,108.764,0.000137706,0.000126899,0.000477386
-10.9846,9.75304,-297.544,4.03239,-1.20868,-0.566499,-0.00619748,0.000586758,0.000810401,0.00068222,-0.00629295,1.45354,0.00666031,643.796,-85.0809,-16.7334,0.351558,-0.10301,-0.197275,0.00487509,272,471,105.544,26.8046,195.436,148.628,88.7808,109.493,0.000130408,0.000120561,0.000452773
-10.6873,9.74027,-297.497,4.02977,-1.20555,-0.561874,-0.00619312,0.000596339,0.000806243,0.000690766,-0.00628755,1.45421,0.00665986,643.689,-85.3032,-14.8303,0.361902,-0.0987459,-0.194471,0.00480218,279,471,105.488,26.7361,196.997,149.259,90.4379,110.222,0.000126456,0.000123192,0.000439929
-10.3897,9.72739,-297.448,4.0272,-1.20238,-0.556918,-0.00615404,0.000618117,0.000789428,0.000708922,-0.00624485,1.45627,0.00662781,643.476,-85.474,-13.2343,0.371442,-0.0916045,-0.186113,0.00504945,286,471,105.432,26.6645,198.578,149.898,92.1097,110.958,0.000125822,0.000129608,0.000438232
-10.0913,9.71434,-297.395,4.02465,-1.19902,-0.551473,-0.00609583,0.000645698,0.000768509,0.000732196,-0.00618233,1.45872,0.00657905,643.217,-85.6471,-11.9049,0.374228,-0.0818841,-0.17407,0.00523293,293,471,105.374,26.5864,200.21,150.544,93.8263,111.703,0.000129932,0.000134654,0.000451852
-9.78996,9.70153,-297.333,4.0216,-1.19536,-0.546209,-0.00602839,0.000669292,0.000750025,0.000752255,-0.00611135,1.46063,0.00652011,643.035,-85.8074,-10.5999,0.371824,-0.0717371,-0.158483,0.00523872,300,471,105.309,26.4994,201.988,151.177,95.7003,112.442,0.00013313,0.000135563,0.000461836
-9.48127,9.68843,-297.246,4.01789,-1.19098,-0.540956,-0.0059336,0.000689676,0.000726832,0.0007685,-0.00601242,1.46277,0.0064312,642.824,-85.8406,-8.87775,0.373863,-0.0610506,-0.146978,0.00509921,307,471,105.234,26.3997,204.141,151.815,97.9621,113.207,0.000131845,0.000132289,0.000456069
-9.16805,9.67461,-297.143,4.01367,-1.18577,-0.536041,-0.00581315,0.000709384,0.000699648,0.000783589,-0.00588735,1.46513,0.00631571,642.477,-85.7189,-7.29197,0.378975,-0.0501375,-0.139863,0.00501984,314,471,105.155,26.2855,206.527,152.471,100.467,114.017,0.000129973,0.000132142,0.000448252
-8.84985,9.66099,-297.023,4.00929,-1.18006,-0.530718,-0.0056894,0.000727623,0.00067383,0.000797616,-0.0057594,1.46729,0.00619682,641.837,-85.4918,-6.08021,0.381043,-0.0411849,-0.135233,0.00510519,321,471,105.074,26.1603,209.187,153.112,103.242,114.826,0.000130757,0.000137223,0.000450356
-8.53523,9.64726,-296.913,4.00569,-1.17498,-0.525009,-0.00558444,0.000743779,0.00065634,0.000811136,-0.00565179,1.46853,0.00609796,641.252,-85.445,-4.55159,0.382044,-0.0364123,-0.132534,0.00507673,328,471,105.007,26.0478,211.69,153.774,105.838,115.635,0.00013135,0.000137248,0.000452404
-8.23118,9.63416,-296.838,4.00314,-1.17095,-0.518973,-0.00550238,0.000758221,0.000652124,0.000825426,-0.00556959,1.4681,0.00602486,640.934,-85.5371,-2.61965,0.388731,-0.0359963,-0.134361,0.00485887,335,471,104.954,25.9556,213.667,154.417,107.884,116.395,0.000127956,0.000129574,0.000441216
-7.93493,9.62215,-296.787,4.00108,-1.16792,-0.513336,-0.00544094,0.000772865,0.000662663,0.000842748,-0.00551082,1.46573,0.00597693,640.716,-85.7462,-0.726551,0.397945,-0.0392991,-0.140188,0.00458923,342,471,104.909,25.8895,215.241,155.014,109.522,117.085,0.000118383,0.000121549,0.000408885
-7.64675,9.60982,-296.762,3.99927,-1.16547,-0.507703,-0.00540185,0.000789657,0.00068755,0.000865089,-0.00547728,1.46152,0.00595712,640.533,-85.952,1.10909,0.401733,-0.0461364,-0.144358,0.00466673,349,471,104.863,25.8378,216.39,155.628,110.734,117.779,0.000118985,0.000121764,0.000411155
-7.36259,9.59789,-296.75,3.99755,-1.1631,-0.501971,-0.00539658,0.000807206,0.000728451,0.000891593,-0.00548097,1.45547,0.00597685,640.4,-86.1479,2.8514,0.40006,-0.0552219,-0.145473,0.00499844,356,471,104.814,25.7847,217.326,156.217,111.732,118.445,0.000125331,0.000128392,0.000432873
-7.07711,9.58539,-296.733,3.99565,-1.16047,-0.496295,-0.00541112,0.000832134,0.000769546,0.00092559,-0.00550457,1.44995,0.00602096,640.347,-86.3515,4.84106,0.406901,-0.0670104,-0.147429,0.00524504,363,471,104.764,25.7225,218.328,156.834,112.801,119.144,0.000131299,0.000132767,0.000453369
-6.78828,9.57278,-296.705,3.99337,-1.15761,-0.490432,-0.00544589,0.000861705,0.000810501,0.000964186,-0.00554837,1.44502,0.006088,640.359,-86.6125,6.55198,0.42347,-0.0798047,-0.150133,0.00536614,370,471,104.706,25.6551,219.506,157.457,114.049,119.853,0.000137484,0.000133277,0.000474838
-6.49605,9.55967,-296.664,3.99074,-1.15433,-0.48481,-0.00550475,0.000898366,0.000850625,0.00100944,-0.00561583,1.44095,0.00618267,640.336,-86.7323,8.25477,0.437661,-0.0935813,-0.150032,0.00529486,377,471,104.645,25.5771,220.858,158.102,115.481,120.595,0.000139762,0.000129327,0.000483175
-6.19901,9.54678,-296.607,3.98769,-1.15049,-0.478756,-0.00557943,0.000940849,0.00089,0.00106015,-0.00569873,1.43755,0.00629611,640.214,-86.8199,9.80753,0.441555,-0.108934,-0.143847,0.00514839,384,471,104.576,25.4863,222.472,158.73,117.176,121.333,0.000137505,0.000125694,0.000476016
-5.89869,9.53394,-296.538,3.98433,-1.14608,-0.472125,-0.00564169,0.000983821,0.000915644,0.00110803,-0.00576591,1.43596,0.00639236,640.081,-86.9187,11.4756,0.442255,-0.12423,-0.135023,0.00500859,391,471,104.498,25.3856,224.268,159.342,119.054,122.075,0.000133249,0.000123768,0.000461875
-5.59712,9.52101,-296.464,3.98097,-1.14148,-0.46514,-0.00566872,0.00103237,0.000919124,0.00115615,-0.0057925,1.43693,0.00644878,639.845,-86.959,13.158,0.449446,-0.140298,-0.125883,0.00487539,398,471,104.42,25.2819,226.144,159.956,121.005,122.824,0.000129183,0.000122231,0.000448453
-5.29615,9.50818,-296.391,3.97775,-1.13699,-0.45786,-0.00565759,0.00109131,0.000897358,0.00120859,-0.00577486,1.44084,0.00646445,639.556,-86.9653,14.5708,0.461297,-0.154286,-0.119839,0.0047101,405,471,104.344,25.1799,227.999,160.569,122.93,123.568,0.00012485,0.000119477,0.00043426
-4.99559,9.49529,-296.318,3.97453,-1.1326,-0.450889,-0.00563445,0.00114958,0.000864044,0.0012579,-0.00574277,1.44608,0.00646417,639.229,-86.9032,15.9489,0.472514,-0.168466,-0.115329,0.00454285,412,471,104.27,25.079,229.837,161.188,124.839,124.314,0.000120517,0.000115835,0.00042001
-4.69463,9.48237,-296.244,3.97106,-1.1282,-0.444029,-0.00561426,0.00120433,0.000820421,0.00130165,-0.00571158,1.45272,0.0064615,639.025,-86.9924,17.5582,0.486157,-0.181306,-0.114053,0.00445838,419,471,104.192,24.9783,231.696,161.809,126.775,125.063,0.000118264,0.000113037,0.000412913
-4.39232,9.46936,-296.163,3.96731,-1.12356,-0.437389,-0.00560323,0.00125541,0.000767623,0.00134027,-0.00568809,1.46069,0.0064633,638.757,-87.2269,19.0038,0.50785,-0.189967,-0.116274,0.00447728,426,471,104.11,24.8741,233.629,162.429,128.793,125.819,0.000118386,0.00011287,0.000413974
-4.08887,9.45609,-296.078,3.96345,-1.11867,-0.430323,-0.00558628,0.00130193,0.000705324,0.00137341,-0.00565776,1.4698,0.00645499,638.486,-87.4232,20.1098,0.532218,-0.193615,-0.118797,0.00452737,433,471,104.024,24.7632,235.635,163.06,130.88,126.592,0.000118042,0.000115381,0.000413081
-3.78526,9.44277,-295.992,3.95966,-1.11356,-0.422797,-0.00555574,0.00134508,0.000635935,0.0014032,-0.00561385,1.47967,0.0064313,638.166,-87.485,21.0924,0.549927,-0.194784,-0.117116,0.00467008,440,471,103.937,24.648,237.664,163.688,132.983,127.369,0.000119616,0.000119634,0.000418509
-3.48247,9.42948,-295.907,3.95583,-1.10843,-0.415703,-0.00551772,0.00138555,0.000565402,0.00143155,-0.00556372,1.48961,0.00640071,637.807,-87.5322,22.0105,0.561189,-0.195194,-0.112773,0.00484921,447,471,103.852,24.5333,239.653,164.311,135.05,128.143,0.000122765,0.000123002,0.000428801
-3.1805,9.41654,-295.824,3.95231,-1.10337,-0.408584,-0.00548062,0.0014232,0.000498981,0.00145908,-0.0055165,1.49902,0.00637258,637.441,-87.598,23.1847,0.568457,-0.195228,-0.109489,0.00505114,454,471,103.774,24.4192,241.613,164.917,137.079,128.897,0.000128882,0.000127717,0.000449528
-2.87824,9.40382,-295.74,3.94867,-1.09838,-0.401188,-0.00544336,0.00146076,0.000438208,0.00148846,-0.00547106,1.50766,0.00634755,637.164,-87.6348,24.889,0.570564,-0.193434,-0.107917,0.00523781,461,471,103.692,24.3055,243.598,165.516,139.133,129.641,0.000135085,0.000130195,0.000469776
-2.57513,9.39081,-295.651,3.94469,-1.09326,-0.393527,-0.00540391,0.00149942,0.000385978,0.00152093,-0.00542543,1.51512,0.00632457,636.922,-87.7212,27.0838,0.563809,-0.189519,-0.103386,0.00535389,468,471,103.602,24.1884,245.633,166.13,141.242,130.403,0.000139069,0.000130293,0.000482881
-2.27079,9.37763,-295.557,3.94013,-1.08799,-0.386344,-0.00535937,0.00153819,0.000344556,0.00155536,-0.00537654,1.52101,0.0062999,636.62,-87.8087,29.5694,0.551293,-0.184541,-0.0942649,0.0052876,475,471,103.502,24.0684,247.729,166.752,143.429,131.176,0.000139569,0.000127991,0.000484245
-1.96753,9.36491,-295.466,3.93559,-1.08281,-0.379561,-0.00530421,0.00157413,0.000316535,0.00158867,-0.00531875,1.52491,0.00626599,636.341,-87.9178,31.6819,0.53659,-0.179187,-0.0843183,0.00506485,482,471,103.405,23.9477,249.771,167.353,145.566,131.924,0.000134008,0.000123848,0.00046432
-1.66752,9.35237,-295.385,3.93178,-1.07787,-0.371995,-0.00523535,0.00160744,0.000301434,0.00162069,-0.0052486,1.52686,0.00621939,636.141,-87.9728,33.462,0.515541,-0.173055,-0.0769614,0.00490041,489,471,103.318,23.8312,251.663,167.945,147.527,132.657,0.000128404,0.000122794,0.000444252
-1.37101,9.3392,-295.316,3.92871,-1.07325,-0.363443,-0.00514335,0.00163791,0.000296858,0.00165088,-0.00515632,1.52713,0.00615025,635.982,-88.0934,34.8845,0.490602,-0.1673,-0.0696337,0.00480943,496,471,103.24,23.7235,253.39,168.573,149.297,133.416,0.000124931,0.000122633,0.000431347
-1.07806,9.32614,-295.258,3.92609,-1.06895,-0.354987,-0.00503142,0.00166541,0.000301085,0.00167892,-0.00504493,1.52596,0.00606136,635.852,-88.2479,36.1298,0.466882,-0.163325,-0.0613264,0.00484398,503,471,103.17,23.6215,254.931,169.199,150.871,134.164,0.000123586,0.000124508,0.000425694
-0.786529,9.31357,-295.204,3.9233,-1.06486,-0.34791,-0.00490483,0.00168849,0.000314507,0.00170346,-0.00491979,1.52324,0.00595708,635.586,-88.4451,37.1119,0.443628,-0.161378,-0.0515067,0.00493446,510,471,103.106,23.5279,256.38,169.797,152.37,134.884,0.000125027,0.000126195,0.000430468
-0.493506,9.30084,-295.145,3.92005,-1.06054,-0.340654,-0.00476955,0.00170741,0.000336676,0.00172487,-0.00478701,1.519,0.00584359,635.23,-88.5447,38.2194,0.41811,-0.162386,-0.042496,0.00496334,517,471,103.03,23.4272,257.912,170.403,153.961,135.615,0.000129348,0.000125263,0.000445012
-0.198036,9.28797,-295.075,3.91654,-1.05578,-0.333409,-0.00462785,0.00171898,0.000362012,0.00173956,-0.00464843,1.514,0.00572016,634.851,-88.6161,39.5357,0.392015,-0.166754,-0.0359748,0.00507565,524,471,102.951,23.3187,259.588,171.008,155.698,136.359,0.000132754,0.000124391,0.00045797
0.0993357,9.27512,-294.999,3.91303,-1.05074,-0.325674,-0.00446993,0.00172706,0.000386162,0.00175103,-0.0044939,1.5088,0.00557945,634.586,-88.6396,40.9462,0.371662,-0.173569,-0.0285764,0.00515489,531,471,102.871,23.2017,261.389,171.611,157.554,137.107,0.000132483,0.000128298,0.000456287
0.39704,9.26236,-294.919,3.90957,-1.04556,-0.317931,-0.00432697,0.00173059,0.00041189,0.00175847,-0.00435485,1.50321,0.00545113,634.39,-88.6052,42.2401,0.358171,-0.181523,-0.0250374,0.00526594,538,471,102.794,23.0832,263.221,172.205,159.437,137.851,0.000130426,0.000132923,0.000448364
0.693829,9.24977,-294.843,3.90631,-1.04054,-0.309993,-0.00419708,0.00172954,0.000440346,0.00176208,-0.00422962,1.49704,0.00533362,634.076,-88.5351,43.5862,0.349352,-0.189135,-0.0253443,0.00533411,545,471,102.72,22.9701,265.017,172.79,161.275,138.584,0.00013001,0.000135294,0.000445811
0.98883,9.23744,-294.771,3.90327,-1.03571,-0.301459,-0.0040589,0.00172406,0.000469571,0.00176194,-0.00409678,1.4903,0.00520637,633.774,-88.545,45.3098,0.333136,-0.198768,-0.0276454,0.00543444,552,471,102.646,22.8636,266.727,173.364,163.019,139.301,0.000132463,0.000137648,0.000453507
1.28114,9.22481,-294.709,3.90052,-1.03115,-0.293467,-0.00391443,0.00171457,0.000498492,0.00175837,-0.00395823,1.48315,0.00507144,633.352,-88.5686,47.0297,0.301041,-0.214129,-0.0334511,0.00561769,559,471,102.582,22.7603,268.289,173.958,164.612,140.029,0.000140222,0.000142071,0.000479603
1.57127,9.21202,-294.654,3.89799,-1.0267,-0.285122,-0.00380062,0.00170274,0.000529808,0.00175328,-0.00385116,1.47569,0.00496564,633.011,-88.6656,48.6597,0.254266,-0.236599,-0.0502927,0.00589401,566,471,102.518,22.6557,269.739,174.562,166.085,140.761,0.000148911,0.00014967,0.000508279
1.8597,9.19914,-294.604,3.8956,-1.02231,-0.276837,-0.00374797,0.00169346,0.000570365,0.0017526,-0.00380711,1.46747,0.00492322,632.875,-88.94,50.2876,0.19821,-0.262395,-0.0848362,0.00606596,573,471,102.458,22.5493,271.097,175.172,167.463,141.495,0.000156087,0.00015445,0.000532707
0,0,0,0,0,0,0,0,0,0,0,0,0,0,0,0,0,0,0,-1,580,471,0,0,0,0,0,0,0,0,0
0,0,0,0,0,0,0,0,0,0,0,0,0,0,0,0,0,0,0,-1,587,471,0,0,0,0,0,0,0,0,0
0,0,0,0,0,0,0,0,0,0,0,0,0,0,0,0,0,0,0,-1,594,471,0,0,0,0,0,0,0,0,0
0,0,0,0,0,0,0,0,0,0,0,0,0,0,0,0,0,0,0,-1,601,471,0,0,0,0,0,0,0,0,0
0,0,0,0,0,0,0,0,0,0,0,0,0,0,0,0,0,0,0,-1,62,478,0,0,0,0,0,0,0,0,0
0,0,0,0,0,0,0,0,0,0,0,0,0,0,0,0,0,0,0,-1,69,478,0,0,0,0,0,0,0,0,0
0,0,0,0,0,0,0,0,0,0,0,0,0,0,0,0,0,0,0,-1,76,478,0,0,0,0,0,0,0,0,0
-18.8662,9.82048,-298.141,4.08887,-1.2633,-0.634466,-0.0064204,0.00182081,0.00147859,0.00207806,-0.00667765,1.39854,0.00792375,645,-81.0729,-64.427,0.385936,-0.124002,0.030539,0.00478259,83,478,106.596,27.9565,161.08,132.216,51.3523,91.2107,0.000119076,0.000122682,0.000426896
-18.5889,9.8078,-298.167,4.08708,-1.26264,-0.6343,-0.00638731,0.00177381,0.00137737,0.00200001,-0.0066135,1.40803,0.00780804,645.263,-81.3066,-62.6168,0.397399,-0.138309,-0.032553,0.00481792,90,478,106.564,27.9438,161.629,132.875,52.0436,91.9074,0.000120757,0.000123666,0.000432181
-18.3115,9.79562,-298.192,4.08533,-1.26209,-0.634346,-0.00636702,0.00171295,0.00129183,0.00191446,-0.00656853,1.41605,0.00770623,645.628,-81.4972,-60.5528,0.402915,-0.146536,-0.0808906,0.00502339,97,478,106.535,27.9342,162.187,133.511,52.7432,92.5789,0.000125885,0.000128707,0.000450726
-18.0326,9.78365,-298.212,4.08363,-1.2615,-0.634316,-0.00635181,0.00164444,0.00122262,0.0018272,-0.00653457,1.42241,0.00761441,645.945,-81.738,-58.4232,0.401086,-0.152318,-0.11908,0.005147,104,478,106.508,27.9253,162.81,134.135,53.5044,93.2404,0.000129482,0.000131817,0.000463805
-17.7524,9.77171,-298.228,4.08193,-1.26076,-0.633666,-0.0063352,0.00157181,0.00116958,0.00174118,-0.00650457,1.42698,0.00752774,646.117,-81.9198,-56.3689,0.393849,-0.1572,-0.147582,0.00530905,111,478,106.478,27.9141,163.501,134.755,54.3282,93.9025,0.000134137,0.000135408,0.000481703
-17.4697,9.75961,-298.237,4.08027,-1.25973,-0.632218,-0.00630912,0.00149852,0.00113006,0.0016588,-0.00646939,1.42991,0.00743882,646.195,-82.2097,-54.6775,0.385055,-0.161702,-0.165469,0.0052832,118,478,106.446,27.8955,164.316,135.381,55.2661,94.5759,0.000136322,0.000134739,0.000488575
-17.184,9.7475,-298.236,4.07858,-1.25854,-0.630109,-0.00626751,0.00142749,0.00110089,0.00158189,-0.00642191,1.43145,0.0073418,646.266,-82.4285,-53.1501,0.37616,-0.16534,-0.174838,0.00512971,125,478,106.41,27.8739,165.28,136.007,56.3467,95.2538,0.000134302,0.000130486,0.000477135
-16.8976,9.73523,-298.233,4.07683,-1.25721,-0.627968,-0.00621367,0.00135956,0.00108024,0.00151064,-0.00636474,1.43185,0.00723925,646.313,-82.7019,-51.4275,0.366378,-0.166753,-0.179642,0.00497939,132,478,106.374,27.8485,166.277,136.64,57.4601,95.9408,0.000131351,0.000126751,0.000462698
-16.609,9.72258,-298.223,4.07501,-1.25558,-0.626054,-0.00615991,0.0012956,0.00106019,0.00144343,-0.00630774,1.43225,0.00713974,646.39,-82.9561,-49.5427,0.359183,-0.16612,-0.186551,0.00504729,139,478,106.341,27.8151,167.379,137.289,58.6799,96.651,0.000131803,0.00012809,0.000461503
-16.3171,9.71012,-298.202,4.07296,-1.25363,-0.6243,-0.0061118,0.00123449,0.00104871,0.00138126,-0.00625857,1.43174,0.0070514,646.388,-83.2193,-47.7176,0.353558,-0.161087,-0.188513,0.00513024,146,478,106.307,27.7756,168.635,137.922,60.0583,97.3556,0.000131335,0.000130097,0.000457785
-16.0218,9.69738,-298.171,4.07083,-1.25135,-0.621983,-0.00606673,0.0011781,0.00104433,0.00132563,-0.00621426,1.43045,0.00697225,646.364,-83.4278,-45.9477,0.349168,-0.151686,-0.184847,0.00516642,153,478,106.269,27.726,170.06,138.571,61.6008,98.0803,0.000131324,0.000129721,0.000455695
-15.7249,9.68464,-298.135,4.06861,-1.24894,-0.619475,-0.00602027,0.00112688,0.00104383,0.00127621,-0.0061696,1.4287,0.00689683,646.328,-83.5422,-44.2902,0.343739,-0.138425,-0.17697,0.00505564,160,478,106.231,27.6716,171.565,139.22,63.2228,98.8072,0.000129694,0.000125384,0.000449929
-15.4287,9.67202,-298.1,4.06656,-1.24663,-0.616554,-0.00597382,0.00108085,0.00104146,0.00123139,-0.00612436,1.42725,0.00682389,646.31,-83.5603,-42.6394,0.333097,-0.12246,-0.165701,0.00490415,167,478,106.193,27.6224,173.044,139.863,64.8102,99.5268,0.000128359,0.000121225,0.000444789
-15.1348,9.65987,-298.071,4.06481,-1.24463,-0.613644,-0.00593311,0.00104053,0.00103527,0.00119097,-0.00608355,1.42649,0.0067582,646.296,-83.5283,-40.8975,0.320557,-0.105645,-0.15302,0.00477721,174,478,106.161,27.5831,174.42,140.483,66.2867,100.219,0.00012732,0.000118109,0.000440089
-14.8447,9.64757,-298.054,4.06333,-1.24286,-0.610262,-0.00590043,0.00100389,0.00102485,0.0011528,-0.00604934,1.4265,0.00670053,646.188,-83.5942,-38.8954,0.310379,-0.0886144,-0.140355,0.00479034,181,478,106.129,27.5476,175.611,141.113,67.5695,100.912,0.000128535,0.00011729,0.000443304
-14.5559,9.63528,-298.04,4.06172,-1.24123,-0.606959,-0.00587074,0.000968779,0.00100749,0.0011141,-0.00601606,1.42754,0.00664355,646.084,-83.794,-37.1259,0.303009,-0.0716255,-0.128034,0.00476671,188,478,106.093,27.5151,176.731,141.744,68.7854,101.603,0.000128604,0.00011449,0.000443252
-14.2656,9.62308,-298.021,4.05979,-1.23939,-0.604049,-0.00584323,0.000934291,0.000981391,0.00107354,-0.00598247,1.42985,0.0065852,646.015,-84.0048,-35.524,0.296827,-0.0569128,-0.117062,0.00482207,195,478,106.055,27.4752,177.919,142.369,70.0798,102.291,0.000129579,0.000113736,0.000448969
-13.973,9.61069,-297.995,4.05749,-1.2372,-0.601051,-0.00582657,0.000899359,0.000946633,0.00103005,-0.00595727,1.4336,0.00653348,645.889,-84.2258,-33.9521,0.290113,-0.0469515,-0.106658,0.00485922,202,478,106.01,27.4267,179.211,142.998,71.4842,102.993,0.00013058,0.000115579,0.000453347
-13.6782,9.59838,-297.962,4.05515,-1.2347,-0.597717,-0.00582885,0.000863763,0.000905106,0.000984009,-0.0059491,1.43872,0.00649723,645.686,-84.384,-32.3954,0.284438,-0.0428031,-0.0995087,0.00501496,209,478,105.963,27.372,180.617,143.618,72.9994,103.694,0.000135199,0.000122326,0.000469319
-13.3821,9.58578,-297.924,4.05294,-1.232,-0.593565,-0.00585022,0.000828616,0.000861669,0.000937993,-0.00595959,1.44454,0.00647971,645.393,-84.4715,-30.7935,0.282975,-0.0439253,-0.0990815,0.00502335,216,478,105.915,27.3128,182.099,144.25,74.5788,104.413,0.000135491,0.000127024,0.000469788
-13.0852,9.57283,-297.882,4.05063,-1.22927,-0.589426,-0.0058821,0.000795423,0.000823279,0.000895429,-0.00598211,1.44992,0.00647642,645.165,-84.4753,-28.7292,0.286693,-0.0494976,-0.106597,0.00495447,223,478,105.866,27.2525,183.625,144.901,76.2031,105.15,0.000131861,0.000128234,0.000455776
-12.7875,9.55985,-297.838,4.04819,-1.22655,-0.585054,-0.00591356,0.000765643,0.000793658,0.000858655,-0.00600657,1.45414,0.00647871,645.023,-84.4477,-26.4431,0.291311,-0.0588123,-0.119206,0.00497853,230,478,105.814,27.1911,185.189,145.558,77.8665,105.891,0.000130264,0.000129511,0.000449027
-12.4886,9.5467,-297.789,4.04562,-1.22378,-0.580714,-0.00593768,0.00074008,0.000772313,0.000828237,-0.00602584,1.45714,0.00647978,644.823,-84.4754,-24.4848,0.29589,-0.0707657,-0.133348,0.00508897,237,478,105.76,27.1303,186.809,146.224,79.5881,106.643,0.000134453,0.000131772,0.000462341
-12.1896,9.53372,-297.739,4.0431,-1.22091,-0.576405,-0.00595787,0.00072016,0.000757143,0.000804928,-0.00604263,1.4593,0.00648269,644.587,-84.6003,-22.6226,0.303288,-0.08328,-0.149871,0.00526974,244,478,105.708,27.0682,188.444,146.878,81.3224,107.386,0.000138984,0.000134378,0.000478937
-11.8904,9.52098,-297.688,4.04061,-1.21796,-0.571933,-0.00598685,0.000708016,0.000745687,0.000790066,-0.0060689,1.4612,0.00650004,644.298,-84.704,-20.8415,0.317806,-0.0966455,-0.169521,0.00546303,251,478,105.657,27.0059,190.093,147.515,83.0661,108.117,0.000144448,0.000135857,0.000498681
-11.5917,9.50831,-297.638,4.03814,-1.21496,-0.567575,-0.00603747,0.000698163,0.000745162,0.000779615,-0.00611893,1.46192,0.00654366,644.019,-84.8145,-19.2545,0.333698,-0.105202,-0.185254,0.00537209,258,478,105.607,26.9441,191.719,148.146,84.7879,108.844,0.000141181,0.000130462,0.000488676
-11.2937,9.49585,-297.59,4.03567,-1.21186,-0.563238,-0.0060991,0.000693422,0.000752432,0.000775774,-0.00618145,1.46178,0.00660361,643.826,-84.9468,-17.7399,0.344423,-0.109312,-0.195831,0.005155,265,478,105.557,26.88,193.311,148.761,86.4749,109.56,0.000136195,0.000123482,0.000472224
-10.9958,9.48313,-297.541,4.03323,-1.20872,-0.558371,-0.00614279,0.000694619,0.000759121,0.000777886,-0.00622606,1.46154,0.00664922,643.705,-85.1676,-15.9104,0.351906,-0.108366,-0.200845,0.00482364,272,478,105.504,26.8138,194.907,149.39,88.1599,110.288,0.000128291,0.000119413,0.000445477
-10.6978,9.47029,-297.492,4.03071,-1.20549,-0.553753,-0.00613913,0.000701111,0.000750499,0.000782486,-0.00622051,1.46279,0.00664639,643.564,-85.3989,-14.205,0.360853,-0.102339,-0.200938,0.00478762,279,478,105.452,26.7431,196.508,150.025,89.8526,111.023,0.000124456,0.000123411,0.000432449
-10.3995,9.45744,-297.44,4.02812,-1.20222,-0.548987,-0.0060963,0.000719297,0.000728322,0.000796257,-0.00617326,1.46552,0.00660747,643.303,-85.5679,-12.6555,0.370539,-0.093265,-0.195347,0.00498658,286,478,105.398,26.6698,198.128,150.662,91.5642,111.76,0.00012449,0.000128869,0.000432407
-10.1005,9.44461,-297.386,4.02551,-1.19872,-0.543857,-0.00603208,0.000742138,0.000702641,0.000814251,-0.00610419,1.46852,0.00654939,642.964,-85.699,-11.2726,0.374209,-0.08155,-0.185349,0.00511748,293,478,105.341,26.5908,199.788,151.294,93.3127,112.497,0.000127888,0.000132529,0.000443804
0,0,0,0,0,0,0,0,0,0,0,0,0,0,0,0,0,0,0,-1,300,478,0,0,0,0,0,0,0,0,0
-9.48793,9.41847,-297.228,4.01868,-1.19058,-0.532963,-0.00586339,0.000775659,0.000655065,0.000839676,-0.00592741,1.47338,0.00638877,642.483,-85.7441,-8.03936,0.374619,-0.0571596,-0.160365,0.00498682,307,478,105.2,26.4038,203.857,152.584,97.5824,114.021,0.000129375,0.000127943,0.000447258
-9.17316,9.40498,-297.12,4.01436,-1.18518,-0.528192,-0.0057401,0.000789773,0.000625011,0.000849058,-0.00579938,1.47622,0.0062672,642.08,-85.5891,-6.48612,0.379652,-0.0457647,-0.153125,0.00487286,314,478,105.121,26.2847,206.322,153.224,100.17,114.821,0.000126641,0.000127397,0.000436671
-8.85296,9.39128,-296.994,4.00982,-1.1792,-0.522925,-0.00561507,0.000802156,0.000597798,0.000857369,-0.00567028,1.4787,0.00614399,641.434,-85.3958,-5.21481,0.381581,-0.0374367,-0.147507,0.0049001,321,478,105.038,26.1537,209.086,153.871,103.051,115.642,0.000122537,0.000131088,0.000422109
-8.53585,9.3777,-296.876,4.00617,-1.17388,-0.516935,-0.00551264,0.000812338,0.00058019,0.000865118,-0.00556542,1.48008,0.00604459,640.855,-85.4193,-3.52606,0.383121,-0.0341736,-0.143498,0.00495098,328,478,104.971,26.0379,211.726,154.526,105.781,116.452,0.000121672,0.000133079,0.000419365
0,0,0,0,0,0,0,0,0,0,0,0,0,0,0,0,0,0,0,-1,335,478,0,0,0,0,0,0,0,0,0
-7.94286,9.35373,-296.774,4.00239,-1.16766,-0.505223,-0.00538654,0.000830785,0.000587376,0.00088579,-0.00544154,1.47742,0.00593423,640.351,-85.6571,-0.00554323,0.399917,-0.0414833,-0.147466,0.00449187,342,478,104.886,25.8946,214.911,155.725,109.082,117.834,0.000114875,0.00011904,0.000397244
-7.66077,9.34139,-296.769,4.00092,-1.16558,-0.499636,-0.0053607,0.000843531,0.000613214,0.000903559,-0.00542072,1.47322,0.00592441,640.287,-85.8881,1.80575,0.402713,-0.0511924,-0.149161,0.00451547,349,478,104.843,25.8505,215.74,156.338,109.97,118.518,0.000117812,0.000118853,0.000407486
-7.3791,9.329,-296.765,3.99927,-1.16349,-0.494072,-0.0053685,0.000858104,0.00065589,0.000926443,-0.00543684,1.46698,0.00595437,640.244,-86.1508,3.4363,0.400438,-0.0632861,-0.148077,0.0048052,356,478,104.795,25.8031,216.541,156.955,110.834,119.203,0.000125207,0.0001235,0.000432884
-7.09416,9.31668,-296.75,3.99728,-1.16103,-0.488416,-0.00538984,0.000881377,0.000698711,0.000958281,-0.00546674,1.46117,0.00600352,640.198,-86.4553,5.22065,0.407118,-0.0776356,-0.148596,0.00513967,363,478,104.741,25.7448,217.511,157.567,111.873,119.891,0.000133365,0.000128589,0.000460887
-6.80408,9.30415,-296.718,3.99491,-1.1581,-0.482321,-0.00542321,0.000908848,0.000741268,0.000994467,-0.00550883,1.4558,0.00606749,640.199,-86.6424,6.89828,0.42347,-0.0926008,-0.150015,0.0053302,370,478,104.681,25.6753,218.755,158.188,113.188,120.599,0.000139706,0.0001289,0.000482809
-6.50874,9.29096,-296.667,3.99203,-1.15447,-0.476556,-0.00547534,0.000943159,0.00078253,0.00103719,-0.00556937,1.45121,0.00615387,640.11,-86.7295,8.571,0.437188,-0.108155,-0.148487,0.0053046,377,478,104.616,25.5916,220.273,158.833,114.787,121.352,0.00014108,0.000124916,0.000487877
-6.20922,9.27822,-296.601,3.98876,-1.15031,-0.470582,-0.00554233,0.00098387,0.000823238,0.00108611,-0.00564458,1.44723,0.00625872,640.041,-86.6991,10.5013,0.440537,-0.124423,-0.141145,0.00515577,384,478,104.545,25.4961,222.017,159.449,116.617,122.089,0.000137806,0.000123063,0.000476791
-5.90763,9.26548,-296.528,3.98531,-1.14583,-0.463958,-0.00559386,0.00102583,0.000849811,0.00113319,-0.00570122,1.44513,0.00634417,639.899,-86.7578,12.3597,0.440724,-0.140125,-0.131834,0.00493628,391,478,104.467,25.3955,223.881,160.059,118.564,122.831,0.000131833,0.000122264,0.000456399
-5.60497,9.25263,-296.45,3.98191,-1.14127,-0.456802,-0.00560533,0.00107404,0.000852755,0.00118119,-0.00571248,1.4458,0.00638555,639.64,-86.7927,14.0379,0.447155,-0.155992,-0.123269,0.00480053,398,478,104.388,25.291,225.817,160.678,120.575,123.581,0.000126511,0.000121787,0.000438589
-5.30215,9.23983,-296.371,3.9786,-1.13669,-0.449241,-0.00557085,0.00113262,0.00082867,0.00123354,-0.00567177,1.44961,0.00637863,639.312,-86.7684,15.402,0.457784,-0.169111,-0.11834,0.00462669,405,478,104.31,25.1873,227.776,161.293,122.601,124.329,0.000121069,0.000119126,0.000420714
-4.99903,9.22691,-296.289,3.97504,-1.13206,-0.442653,-0.0055268,0.00119035,0.000795243,0.00128321,-0.00561966,1.45455,0.00635912,638.923,-86.6806,16.7099,0.466281,-0.1817,-0.115265,0.0044842,412,478,104.233,25.0815,229.744,161.915,124.65,125.084,0.000117121,0.000115935,0.000407882
-4.69549,9.21399,-296.206,3.97131,-1.12736,-0.435955,-0.00548922,0.00124455,0.000753061,0.00132774,-0.0055724,1.46077,0.00634139,638.678,-86.8477,18.1687,0.47745,-0.192795,-0.115748,0.00443968,419,478,104.152,24.9736,231.741,162.537,126.73,125.841,0.000115922,0.00011362,0.000404256
-4.39143,9.20102,-296.12,3.96741,-1.12253,-0.429349,-0.00546557,0.00129557,0.000701963,0.00136768,-0.00553768,1.46843,0.00633326,638.381,-87.0715,19.4632,0.497171,-0.200096,-0.119805,0.00450614,426,478,104.068,24.8637,233.769,163.158,128.846,126.602,0.000117257,0.000115142,0.000409261
-4.08709,9.18785,-296.031,3.96355,-1.11749,-0.422147,-0.00544157,0.00134256,0.000641656,0.00140272,-0.00550173,1.47732,0.00632092,638.098,-87.2658,20.2408,0.518604,-0.203238,-0.123273,0.00462045,433,478,103.983,24.7503,235.829,163.785,130.985,127.375,0.00011896,0.000118129,0.000415327
-3.78369,9.17486,-295.945,3.95982,-1.11236,-0.414999,-0.00540959,0.00138657,0.000574889,0.00143486,-0.00545788,1.487,0.00629909,637.762,-87.3386,21.0123,0.532929,-0.204478,-0.121656,0.0048573,440,478,103.9,24.6375,237.849,164.395,133.08,128.137,0.000123378,0.000123347,0.000430973
-3.48208,9.16194,-295.865,3.9563,-1.10742,-0.407699,-0.00537457,0.00142824,0.000507526,0.0014659,-0.00541223,1.49674,0.00627493,637.433,-87.3662,22.2891,0.542577,-0.204951,-0.117202,0.00501689,447,478,103.82,24.5269,239.784,165.005,135.083,128.892,0.000127857,0.000126216,0.000446082
-3.18229,9.14931,-295.789,3.95315,-1.10265,-0.400289,-0.00534317,0.00146722,0.000444357,0.00149609,-0.00537204,1.50592,0.00625573,637.096,-87.4325,23.7156,0.551097,-0.205024,-0.113852,0.00516017,454,478,103.748,24.4182,241.636,165.604,136.994,129.63,0.000132343,0.000129629,0.000461151
-2.88278,9.1367,-295.714,3.94975,-1.0979,-0.393013,-0.00531533,0.00150583,0.000386832,0.0015277,-0.0053372,1.51433,0.00624285,636.76,-87.4889,25.4146,0.55591,-0.204018,-0.111931,0.00530829,461,478,103.67,24.3089,243.472,166.203,138.896,130.366,0.000137282,0.000132539,0.000477225
-2.58191,9.12399,-295.633,3.94618,-1.0931,-0.385233,-0.00529079,0.00154485,0.000338775,0.0015616,-0.00530754,1.5214,0.00623673,636.552,-87.6262,27.5749,0.551301,-0.201962,-0.106591,0.00538608,468,478,103.587,24.1985,245.394,166.811,140.881,131.111,0.00013966,0.00013249,0.000484399
-2.28006,9.11131,-295.548,3.94199,-1.08817,-0.378197,-0.00526528,0.00158342,0.000302437,0.00159675,-0.00527861,1.52675,0.00623234,636.307,-87.767,29.8541,0.540568,-0.199096,-0.0965396,0.00529313,475,478,103.495,24.0861,247.358,167.414,142.93,131.856,0.000139506,0.000129783,0.000483795
-1.97884,9.09865,-295.464,3.93763,-1.08316,-0.371715,-0.005228,0.00161847,0.000279703,0.00162988,-0.00523941,1.53003,0.00621671,636.065,-87.9035,31.8841,0.528712,-0.195806,-0.0860783,0.00509436,482,478,103.402,23.9704,249.286,168.015,144.951,132.601,0.000134263,0.000125326,0.000465723
-1.67982,9.08593,-295.387,3.93387,-1.07828,-0.364229,-0.0051726,0.0016501,0.000269437,0.00166073,-0.00518323,1.53139,0.00618318,635.867,-87.9757,33.6987,0.511322,-0.191502,-0.0785848,0.00493533,489,478,103.317,23.8567,251.122,168.619,146.857,133.344,0.000127668,0.000122994,0.000442552
-1.38341,9.07264,-295.318,3.93068,-1.07372,-0.356008,-0.00509148,0.00167816,0.000269003,0.00168883,-0.00510216,1.53114,0.00612379,635.71,-88.0785,35.0994,0.489456,-0.187207,-0.0712473,0.00481391,496,478,103.238,23.7493,252.836,169.259,148.62,134.113,0.0001229,0.000123224,0.000424968
-1.09025,9.05974,-295.259,3.92799,-1.06944,-0.347453,-0.00498919,0.00170234,0.000277134,0.0017138,-0.00500065,1.52948,0.00604266,635.535,-88.2565,36.3676,0.468254,-0.184047,-0.0628211,0.00485014,503,478,103.166,23.648,254.388,169.88,150.206,134.855,0.000121221,0.000124725,0.000418103
-0.797546,9.04742,-295.201,3.9251,-1.06528,-0.340233,-0.00486969,0.00172163,0.000293618,0.00173468,-0.00488274,1.52637,0.00594309,635.31,-88.4442,37.6394,0.447634,-0.182069,-0.0530597,0.00492755,510,478,103.1,23.5533,255.905,170.469,151.773,135.565,0.000123075,0.000125118,0.000424192
-0.503271,9.03481,-295.137,3.92181,-1.06078,-0.332789,-0.00473822,0.00173694,0.000318029,0.00175252,-0.0047538,1.52184,0.00583105,635.058,-88.5939,38.8653,0.424558,-0.181801,-0.0444922,0.0049788,517,478,103.023,23.4502,257.512,171.067,153.436,136.295,0.0001278,0.000123177,0.000439685
-0.206629,9.02205,-295.064,3.91826,-1.05585,-0.325595,-0.00459809,0.00174603,0.000345661,0.00176481,-0.00461686,1.51653,0.0057077,634.714,-88.5686,40.1674,0.399411,-0.183593,-0.038931,0.0050537,524,478,102.945,23.3387,259.256,171.667,155.242,137.039,0.000131232,0.000122011,0.000452006
0.0910446,9.00922,-294.986,3.91473,-1.0507,-0.317948,-0.00444203,0.00175126,0.000371493,0.00177347,-0.00446423,1.5111,0.00556702,634.422,-88.5259,41.2975,0.379189,-0.186379,-0.032823,0.0050723,531,478,102.866,23.2197,261.074,172.268,157.115,137.789,0.000131934,0.00012593,0.000453488
0.388657,8.99653,-294.907,3.91137,-1.04548,-0.310018,-0.00429921,0.00175199,0.000398508,0.00177812,-0.00432534,1.50532,0.00543702,634.217,-88.4522,42.5974,0.366038,-0.188865,-0.0311244,0.00519975,538,478,102.79,23.0999,262.906,172.861,158.993,138.532,0.000130694,0.00013156,0.000448833
0.685369,8.9841,-294.831,3.90812,-1.04042,-0.302272,-0.00416726,0.00174838,0.000427834,0.00177916,-0.00419804,1.49897,0.00531582,633.903,-88.3704,43.9024,0.357362,-0.190256,-0.0329022,0.00530154,545,478,102.717,22.9858,264.696,173.441,160.828,139.261,0.00012977,0.000134213,0.000445073
0.980153,8.97187,-294.76,3.90511,-1.03564,-0.294213,-0.00402319,0.00174112,0.000457794,0.00177725,-0.00405932,1.49204,0.00518181,633.575,-88.3842,45.7481,0.339989,-0.19278,-0.0358449,0.00539984,552,478,102.648,22.8791,266.392,174.014,162.56,139.975,0.000131058,0.000136258,0.000448334
1.27198,8.95933,-294.7,3.90254,-1.03116,-0.286287,-0.0038668,0.00173143,0.000487628,0.00177359,-0.00390896,1.48456,0.00503572,633.082,-88.4687,47.9767,0.30666,-0.199546,-0.0423132,0.00555939,559,478,102.588,22.777,267.93,174.608,164.126,140.699,0.000139498,0.000140804,0.000475978
1.56124,8.94677,-294.647,3.90028,-1.02689,-0.277628,-0.00373553,0.00172195,0.000520602,0.00177117,-0.00378474,1.47654,0.00491576,632.606,-88.5764,49.8274,0.260941,-0.211952,-0.0612102,0.00603083,566,478,102.529,22.6742,269.339,175.21,165.548,141.42,0.000153671,0.000153024,0.000525655
1.84928,8.93409,-294.599,3.89796,-1.02257,-0.269253,-0.0036624,0.00171813,0.000565651,0.00177696,-0.00372123,1.46718,0.00485979,632.25,-88.8268,51.5369,0.204547,-0.227567,-0.0996325,0.00642803,573,478,102.469,22.5671,270.677,175.815,166.904,142.145,0.00016578,0.000163297,0.000568314
0,0,0,0,0,0,0,0,0,0,0,0,0,0,0,0,0,0,0,-1,580,478,0,0,0,0,0,0,0,0,0
0,0,0,0,0,0,0,0,0,0,0,0,0,0,0,0,0,0,0,-1,587,478,0,0,0,0,0,0,0,0,0
0,0,0,0,0,0,0,0,0,0,0,0,0,0,0,0,0,0,0,-1,594,478,0,0,0,0,0,0,0,0,0
0,0,0,0,0,0,0,0,0,0,0,0,0,0,0,0,0,0,0,-1,601,478,0,0,0,0,0,0,0,0,0
0,0,0,0,0,0,0,0,0,0,0,0,0,0,0,0,0,0,0,-1,62,485,0,0,0,0,0,0,0,0,0
0,0,0,0,0,0,0,0,0,0,0,0,0,0,0,0,0,0,0,-1,69,485,0,0,0,0,0,0,0,0,0
0,0,0,0,0,0,0,0,0,0,0,0,0,0,0,0,0,0,0,-1,76,485,0,0,0,0,0,0,0,0,0
-18.8794,9.54861,-298.144,4.08946,-1.26375,-0.627419,-0.00620983,0.00183496,0.00150579,0.00210757,-0.00648244,1.39169,0.0077541,644.804,-81.078,-63.4416,0.432413,-0.0977353,0.0108968,0.00485398,83,485,106.553,27.9743,160.421,133.082,50.622,92.107,0.000119426,0.000124557,0.000427192
-18.6011,9.53594,-298.167,4.08768,-1.26308,-0.627343,-0.00618206,0.00180343,0.00139761,0.00204098,-0.0064196,1.40244,0.00764716,645.065,-81.2669,-61.8074,0.434936,-0.113694,-0.0491474,0.00487479,90,485,106.522,27.9602,161.025,133.741,51.3681,92.8028,0.000122269,0.000125006,0.000436389
-18.323,9.52379,-298.19,4.08587,-1.26251,-0.627262,-0.00617684,0.00175775,0.00130733,0.0019676,-0.00638669,1.41164,0.0075649,645.412,-81.4831,-59.9686,0.432815,-0.124168,-0.0940734,0.0049914,97,485,106.492,27.9505,161.612,134.374,52.097,93.4715,0.000126113,0.000127561,0.000449232
-18.0437,9.51175,-298.209,4.08418,-1.26194,-0.626831,-0.00618353,0.00170389,0.00123466,0.00189264,-0.00637228,1.41909,0.00749989,645.722,-81.7261,-57.9022,0.424927,-0.132623,-0.128662,0.00494814,104,485,106.463,27.9435,162.258,135.001,52.8777,94.1353,0.000124478,0.000126861,0.000443427
-17.7637,9.49973,-298.226,4.08258,-1.26127,-0.625955,-0.00619237,0.0016452,0.00117874,0.00181864,-0.00636581,1.4247,0.00744367,645.905,-81.9392,-55.8159,0.413229,-0.14051,-0.153646,0.00498254,111,485,106.433,27.9338,162.943,135.625,53.6911,94.7989,0.000124642,0.000128051,0.000444333
-17.4823,9.48767,-298.238,4.08107,-1.26031,-0.624225,-0.0061916,0.00158496,0.00113631,0.00174759,-0.00635424,1.42863,0.00738478,646.08,-82.2331,-53.7587,0.400845,-0.147978,-0.168569,0.00501101,118,485,106.401,27.9162,163.703,136.248,54.5691,95.4667,0.000126898,0.000128844,0.000451024
-17.198,9.47553,-298.242,4.07939,-1.25913,-0.622215,-0.00617289,0.00152569,0.00110443,0.001681,-0.00632819,1.43109,0.00731502,646.189,-82.4642,-51.9997,0.389197,-0.15411,-0.175849,0.00496551,125,485,106.366,27.8941,164.6,136.873,55.5836,96.1431,0.000128794,0.000127608,0.000454133
-16.9113,9.46346,-298.238,4.07759,-1.2577,-0.620292,-0.00613827,0.00146815,0.00108192,0.00161905,-0.00628917,1.43222,0.00723584,646.241,-82.6473,-50.2968,0.377435,-0.157508,-0.179435,0.00488516,132,485,106.33,27.8662,165.607,137.493,56.7091,96.8194,0.00012887,0.000126132,0.000451092
-16.6218,9.45105,-298.225,4.07569,-1.25592,-0.618339,-0.00609822,0.0014135,0.00106039,0.00156032,-0.00624504,1.43321,0.00715398,646.248,-82.8384,-48.7524,0.367112,-0.158405,-0.185445,0.00493536,139,485,106.296,27.8313,166.751,138.124,57.9722,97.5176,0.000128805,0.000124838,0.000448254
-16.329,9.43843,-298.202,4.0736,-1.25381,-0.616357,-0.00605895,0.00136035,0.00104736,0.00150537,-0.00620397,1.43321,0.00707775,646.2,-83.0371,-47.1979,0.356824,-0.155183,-0.186923,0.00495107,146,485,106.26,27.7908,168.055,138.76,59.3969,98.2318,0.000127019,0.000123049,0.000440437
-16.0335,9.42565,-298.17,4.07147,-1.25149,-0.614012,-0.00601805,0.00131052,0.00104109,0.00145555,-0.00616307,1.43238,0.00700519,646.206,-83.2592,-45.4105,0.347419,-0.147251,-0.18326,0.00492898,153,485,106.222,27.7419,169.49,139.409,60.9488,98.9587,0.000125948,0.00012126,0.000434923
-15.7378,9.41306,-298.137,4.06933,-1.24925,-0.611527,-0.00597176,0.00126499,0.001039,0.0014112,-0.00611798,1.43099,0.00693216,646.23,-83.3783,-43.6749,0.337949,-0.135154,-0.175769,0.00484255,160,485,106.185,27.6903,170.94,140.055,62.5138,99.6767,0.000124912,0.000120562,0.000431687
-15.4437,9.40086,-298.108,4.06736,-1.24723,-0.608806,-0.00592053,0.00122355,0.0010353,0.00137056,-0.00606753,1.42974,0.00685633,646.241,-83.3956,-41.9238,0.324431,-0.119973,-0.165022,0.00475375,167,485,106.149,27.6475,172.313,140.681,63.9965,100.371,0.000123811,0.000121093,0.000427444
-15.1525,9.38876,-298.088,4.06569,-1.24546,-0.605938,-0.00586926,0.00118652,0.00102788,0.00133321,-0.00601595,1.42904,0.00678157,646.248,-83.3954,-40.1149,0.309221,-0.103566,-0.152906,0.00460931,174,485,106.117,27.6121,173.557,141.302,65.3401,101.056,0.000121406,0.00011923,0.000419075
-14.8638,9.37645,-298.075,4.06418,-1.24377,-0.6028,-0.00582243,0.00115204,0.00101615,0.00129707,-0.00596747,1.42903,0.00671068,646.179,-83.5394,-38.05,0.296556,-0.0869065,-0.14078,0.00465701,181,485,106.085,27.5783,174.673,141.931,66.5513,101.747,0.000123668,0.000119777,0.000426498
-14.5741,9.36431,-298.059,4.06251,-1.24206,-0.599573,-0.00577708,0.00111787,0.000997226,0.0012592,-0.00591841,1.43001,0.00663819,646.046,-83.7615,-36.434,0.28779,-0.0703987,-0.128394,0.00465727,188,485,106.05,27.544,175.838,142.554,67.8147,102.431,0.00012503,0.000117402,0.000430416
-14.2823,9.35206,-298.036,4.06058,-1.24002,-0.59648,-0.00573471,0.00108328,0.000969607,0.00121849,-0.00586992,1.43224,0.00656453,645.852,-84.0242,-34.9716,0.281952,-0.0563635,-0.116477,0.004741,195,485,106.011,27.4986,177.097,143.18,69.1771,103.125,0.000126051,0.000117924,0.000436077
-13.9876,9.3396,-298.003,4.05834,-1.23763,-0.593003,-0.00570673,0.00104699,0.000933804,0.00117372,-0.00583346,1.4359,0.00650029,645.662,-84.2093,-33.5173,0.27708,-0.0472714,-0.104763,0.00481715,202,485,105.966,27.4447,178.503,143.813,70.6885,103.834,0.000127173,0.000119725,0.000441121
-13.6915,9.3271,-297.965,4.0561,-1.23501,-0.589256,-0.00570305,0.00100852,0.000891098,0.00112482,-0.00581935,1.44102,0.00645567,645.475,-84.3203,-31.8536,0.27412,-0.0440038,-0.0963219,0.00500149,209,485,105.92,27.3859,179.984,144.444,72.2719,104.547,0.000131508,0.000124743,0.000456643
-13.3949,9.3145,-297.925,4.05389,-1.23226,-0.585139,-0.00572576,0.000969056,0.0008461,0.00107433,-0.00583104,1.44701,0.00643581,645.277,-84.3419,-29.9504,0.276188,-0.0460515,-0.0949109,0.00512261,216,485,105.873,27.3244,181.491,145.078,73.8757,105.267,0.000134198,0.000128863,0.000465251
-13.0978,9.30165,-297.884,4.05155,-1.22948,-0.581183,-0.00576538,0.00093045,0.000805599,0.00102601,-0.00586094,1.45273,0.00643559,645.091,-84.3096,-27.8277,0.283762,-0.0527481,-0.10147,0.00519496,223,485,105.825,27.263,183.02,145.724,75.5054,106.001,0.000134407,0.000132497,0.00046448
-12.7995,9.28883,-297.837,4.04899,-1.2267,-0.5774,-0.00580745,0.000894783,0.000773153,0.000982816,-0.00589548,1.45742,0.00644335,644.942,-84.3496,-25.6218,0.29135,-0.0635395,-0.113277,0.00527928,230,485,105.775,27.2019,184.608,146.372,77.1999,106.736,0.000134415,0.000136238,0.000463671
-12.5002,9.276,-297.787,4.0465,-1.22389,-0.573205,-0.00584252,0.000863139,0.000747967,0.000945557,-0.00592493,1.46105,0.00644991,644.719,-84.4177,-23.7985,0.297746,-0.0769999,-0.127216,0.00538238,237,485,105.725,27.1419,186.255,147.021,78.9461,107.473,0.000139865,0.000139682,0.000480817
-12.2009,9.26336,-297.737,4.04409,-1.22102,-0.568666,-0.00587319,0.000837374,0.000728848,0.000915624,-0.00595144,1.46385,0.00645812,644.491,-84.5971,-21.9975,0.306801,-0.0908777,-0.144515,0.00561717,244,485,105.675,27.08,187.912,147.659,80.6976,108.2,0.000146898,0.000144167,0.000505062
-11.9017,9.2508,-297.686,4.04162,-1.2181,-0.563966,-0.0059127,0.000819284,0.000714145,0.000894208,-0.00598763,1.46626,0.00648116,644.178,-84.7461,-20.2338,0.322506,-0.105135,-0.166072,0.00570464,251,485,105.622,27.0192,189.562,148.29,82.4403,108.923,0.000150139,0.000142927,0.000517031
-11.6035,9.23832,-297.637,4.03913,-1.21506,-0.559465,-0.00597197,0.000803681,0.000710583,0.0008774,-0.00604569,1.46742,0.00652876,643.906,-84.8541,-18.6399,0.338445,-0.113888,-0.184074,0.00545104,258,485,105.57,26.9568,191.166,148.909,84.1389,109.641,0.00014289,0.00013064,0.000494039
-11.3055,9.22596,-297.589,4.03667,-1.21196,-0.554938,-0.00604018,0.000794116,0.00071393,0.000867899,-0.00611396,1.46781,0.00659091,643.758,-84.9702,-16.8803,0.348032,-0.117526,-0.19704,0.00509425,265,485,105.519,26.8915,192.761,149.522,85.8267,110.352,0.00013422,0.000121379,0.000465983
-11.0073,9.21319,-297.54,4.03418,-1.20878,-0.550203,-0.00608849,0.000791983,0.000716329,0.000865769,-0.00616228,1.46815,0.00663764,643.588,-85.1506,-15.2845,0.353732,-0.115785,-0.20451,0.00474757,272,485,105.467,26.8234,194.369,150.155,87.5259,111.085,0.000125034,0.000119058,0.000435097
-10.7088,9.20027,-297.488,4.03167,-1.20546,-0.545802,-0.00608621,0.000795895,0.000702754,0.000866923,-0.00615723,1.47007,0.00663332,643.422,-85.4144,-13.639,0.361649,-0.109052,-0.207143,0.00481821,279,485,105.417,26.7513,195.997,150.794,89.2466,111.827,0.00012208,0.00012342,0.000424384
-10.4096,9.18741,-297.434,4.02906,-1.20205,-0.541228,-0.00604025,0.000810532,0.000675113,0.000876427,-0.00610615,1.4735,0.00658823,643.128,-85.6297,-12.2579,0.371513,-0.0991577,-0.203942,0.00500102,286,485,105.364,26.6757,197.66,151.43,91.0028,112.567,0.000123042,0.000128199,0.000426943
-10.1098,9.17459,-297.377,4.02643,-1.19842,-0.536139,-0.00597065,0.000828118,0.000645669,0.000888893,-0.00603142,1.47695,0.00652146,642.756,-85.7621,-10.8138,0.375742,-0.0865682,-0.195597,0.00507172,293,485,105.309,26.595,199.364,152.06,92.7946,113.306,0.000127857,0.000130163,0.000442736
0,0,0,0,0,0,0,0,0,0,0,0,0,0,0,0,0,0,0,-1,300,485,0,0,0,0,0,0,0,0,0
-9.4952,9.148,-297.213,4.01958,-1.19009,-0.525112,-0.00579483,0.000851848,0.000594426,0.00090459,-0.00584757,1.4823,0.00634839,642.2,-85.6867,-7.31069,0.376566,-0.060851,-0.171728,0.00493131,307,485,105.168,26.4059,203.54,153.377,97.1693,114.863,0.000130345,0.000121237,0.000450382
-9.17954,9.13515,-297.102,4.01529,-1.18458,-0.520291,-0.00566976,0.000860924,0.00056259,0.000909034,-0.00571787,1.48549,0.00622239,641.782,-85.4571,-5.61061,0.381425,-0.0498689,-0.163811,0.00476494,314,485,105.09,26.284,206.057,153.988,99.8056,115.635,0.00012503,0.000120345,0.000431298
-8.85777,9.12143,-296.97,4.01064,-1.17841,-0.515139,-0.00554446,0.000867872,0.000534819,0.000912172,-0.00558876,1.48815,0.00609625,641.142,-85.3461,-4.08396,0.383192,-0.0428208,-0.156665,0.00477363,321,485,105.008,26.1487,208.902,154.638,102.771,116.465,0.000118056,0.000126478,0.000406722
-8.53856,9.1082,-296.845,4.0069,-1.17305,-0.509069,-0.00544471,0.000872554,0.000517339,0.00091464,-0.00548679,1.48962,0.00599666,640.565,-85.3914,-2.15784,0.385033,-0.0412657,-0.151038,0.00492858,328,485,104.94,26.0322,211.655,155.283,105.612,117.265,0.00011484,0.00013076,0.000396179
-8.23703,9.09643,-296.778,4.00498,-1.16966,-0.503035,-0.00537605,0.000876265,0.000513426,0.000918146,-0.00541793,1.48941,0.00593054,640.277,-85.4201,-0.407934,0.392761,-0.0444746,-0.149434,0.00476424,335,485,104.901,25.9548,213.519,155.878,107.53,117.957,0.000115172,0.0001259,0.000398
-7.95548,9.08597,-296.776,4.00389,-1.16766,-0.497309,-0.00533409,0.000881715,0.000523941,0.00092557,-0.00537795,1.48729,0.00589548,640.24,-85.5691,1.15094,0.40112,-0.0519786,-0.150873,0.00459238,342,485,104.865,25.9059,214.334,156.399,108.394,118.541,0.00011473,0.000121262,0.000396914
-7.67614,9.07292,-296.78,4.00254,-1.16591,-0.491939,-0.00532012,0.000891357,0.000548526,0.000939425,-0.00536819,1.48339,0.00589432,640.233,-85.7751,2.79301,0.402536,-0.0632653,-0.150193,0.0045519,349,485,104.823,25.8671,215.014,157.054,109.134,119.256,0.000118755,0.000119852,0.000410995
-7.39615,9.0606,-296.782,4.00089,-1.16403,-0.486617,-0.00533943,0.000904176,0.00058935,0.00095932,-0.00539458,1.4775,0.00593269,640.219,-86.0865,4.15802,0.399558,-0.0767024,-0.147216,0.00474168,356,485,104.775,25.8242,215.721,157.67,109.908,119.934,0.000126298,0.000120625,0.000437018
-7.11001,9.04821,-296.763,3.99876,-1.1615,-0.480828,-0.00536667,0.000926818,0.000630265,0.000989316,-0.00542916,1.47196,0.00598546,640.121,-86.4305,5.80713,0.406027,-0.0918267,-0.146688,0.00504738,363,485,104.719,25.7651,216.753,158.287,111.011,120.628,0.000134555,0.000121718,0.000465571
-6.81727,9.03541,-296.722,3.99622,-1.15822,-0.474461,-0.00539835,0.000953404,0.000670605,0.00102343,-0.00546838,1.46675,0.00604542,640.009,-86.6499,7.23124,0.421859,-0.107141,-0.14726,0.00532258,370,485,104.655,25.6893,218.139,158.918,112.467,121.356,0.0001422,0.000122276,0.0004921
-6.51821,9.02251,-296.658,3.99311,-1.15425,-0.468561,-0.005443,0.000986271,0.000708998,0.00106353,-0.00552026,1.46226,0.00612171,639.908,-86.6621,8.94788,0.43511,-0.122726,-0.144922,0.00542056,377,485,104.588,25.6009,219.856,159.547,114.267,122.103,0.000145031,0.000120413,0.000501936
-6.21749,9.00977,-296.589,3.98978,-1.14995,-0.462429,-0.00550101,0.00102565,0.000747177,0.0011101,-0.00558545,1.45826,0.0062153,639.802,-86.6109,10.783,0.438586,-0.138489,-0.137206,0.00529999,384,485,104.515,25.504,221.666,160.162,116.162,122.845,0.000141861,0.000121971,0.000490724
-5.91564,8.99703,-296.514,3.98636,-1.14551,-0.455628,-0.00554193,0.00106706,0.000771426,0.00115591,-0.00563078,1.45613,0.00628892,639.618,-86.6578,12.6569,0.439233,-0.153321,-0.128256,0.00497561,391,485,104.437,25.4041,223.548,160.777,118.124,123.589,0.00013315,0.00012204,0.000460386
-5.61268,8.98416,-296.435,3.98298,-1.14098,-0.448227,-0.00553877,0.00111527,0.000770805,0.0012034,-0.00562689,1.45696,0.00631518,639.316,-86.701,14.3496,0.445859,-0.168115,-0.121144,0.0048022,398,485,104.358,25.2991,225.504,161.403,120.152,124.344,0.000125923,0.00012236,0.000435943
-5.30844,8.9712,-296.351,3.97939,-1.13634,-0.440764,-0.00548246,0.00117226,0.000742921,0.00125419,-0.00556439,1.46096,0.00628603,638.887,-86.6703,15.6844,0.455787,-0.179964,-0.118167,0.00466305,405,485,104.275,25.1922,227.533,162.034,122.256,125.106,0.000120182,0.000121431,0.000417316
-5.00255,8.95833,-296.261,3.97539,-1.13149,-0.434577,-0.00541897,0.00122791,0.000708984,0.00130269,-0.00549376,1.46571,0.0062478,638.529,-86.6473,17.2019,0.461842,-0.190724,-0.1172,0.00458485,412,485,104.193,25.0828,229.641,162.656,124.458,125.868,0.000117383,0.000119247,0.000408641
-4.69624,8.94561,-296.168,3.97129,-1.12662,-0.428187,-0.00536442,0.0012801,0.000668086,0.00134661,-0.00543093,1.47157,0.00621464,638.263,-86.7499,18.5445,0.470605,-0.200088,-0.120156,0.00455474,419,485,104.108,24.9708,231.782,163.273,126.691,126.623,0.000116743,0.00011735,0.000406806
-4.39081,8.93274,-296.077,3.96731,-1.12159,-0.421491,-0.00532835,0.00132974,0.000619143,0.00138683,-0.00538544,1.47886,0.00619636,637.953,-86.9834,19.6345,0.487727,-0.206306,-0.12646,0.00460109,426,485,104.023,24.8581,233.888,163.889,128.884,127.385,0.000118007,0.000119292,0.000411208
-4.08659,8.91959,-295.989,3.96359,-1.11649,-0.414245,-0.00529784,0.00137585,0.000562016,0.00142285,-0.00534484,1.48737,0.00618034,637.71,-87.1314,20.4617,0.505344,-0.209508,-0.131061,0.00472991,433,485,103.941,24.7446,235.948,164.515,131.019,128.16,0.00012071,0.000122375,0.000420606
-3.78489,8.907,-295.909,3.96033,-1.11149,-0.40687,-0.00526512,0.00141929,0.000499509,0.00145641,-0.00530225,1.49662,0.00616094,637.432,-87.1961,21.534,0.515793,-0.211345,-0.129885,0.00496458,440,485,103.866,24.6342,237.889,165.108,133.022,128.901,0.000125723,0.000126237,0.000438512
-3.48543,8.89451,-295.835,3.95723,-1.10672,-0.399514,-0.0052341,0.00146074,0.000437367,0.00148919,-0.00526255,1.50584,0.00614402,637.15,-87.1818,22.999,0.523252,-0.212339,-0.125552,0.0050297,447,485,103.795,24.5268,239.718,165.7,134.91,129.633,0.000127916,0.000127449,0.00044542
-3.18712,8.88198,-295.765,3.95429,-1.1022,-0.392094,-0.00520954,0.00149972,0.00037999,0.00152118,-0.00523099,1.5144,0.0061347,636.846,-87.2625,24.6636,0.531998,-0.212897,-0.121858,0.00513981,454,485,103.726,24.4231,241.494,166.302,136.739,130.365,0.000131654,0.000129726,0.000458218
-2.88878,8.86964,-295.694,3.95102,-1.09774,-0.384964,-0.00519234,0.00153837,0.000328684,0.00155438,-0.00520835,1.52212,0.00613505,636.519,-87.3687,26.5305,0.538292,-0.21286,-0.118808,0.0052436,461,485,103.652,24.3206,243.268,166.895,138.577,131.087,0.000135828,0.0001324,0.000471853
-2.59049,8.85758,-295.622,3.94775,-1.09329,-0.377234,-0.00518339,0.0015769,0.000287711,0.00158912,-0.00519561,1.52834,0.00614623,636.251,-87.5757,28.255,0.535149,-0.212642,-0.111787,0.00531152,468,485,103.575,24.2166,245.053,167.478,140.42,131.795,0.000137816,0.000133139,0.000477624
-2.29099,8.84514,-295.545,3.94389,-1.08857,-0.370082,-0.0051767,0.00161451,0.000258922,0.00162437,-0.00518656,1.53274,0.00616148,636.039,-87.7897,30.3101,0.526303,-0.211844,-0.100126,0.00529774,475,485,103.488,24.1087,246.893,168.073,142.338,132.526,0.000138949,0.000132784,0.000482372
-1.99121,8.83239,-295.466,3.93983,-1.08363,-0.363333,-0.00515674,0.0016482,0.000243516,0.0016569,-0.00516544,1.53507,0.00616326,635.861,-87.9512,32.2296,0.517691,-0.210407,-0.0884951,0.00523078,482,485,103.4,23.9959,248.749,168.68,144.277,133.276,0.000135337,0.000129278,0.000470237
-1.69233,8.8196,-295.389,3.93602,-1.07875,-0.356324,-0.00511378,0.00167798,0.000239654,0.00168643,-0.00512223,1.53557,0.00614162,635.637,-88.0204,33.9135,0.504717,-0.207876,-0.0802493,0.00507398,489,485,103.316,23.8839,250.571,169.289,146.174,134.025,0.000128881,0.000126634,0.000447407
-1.39564,8.80638,-295.319,3.93277,-1.07416,-0.348415,-0.00504237,0.00170384,0.000244625,0.0017127,-0.00505123,1.5346,0.00609094,635.429,-88.0501,35.2166,0.486892,-0.205107,-0.0725616,0.00491867,496,485,103.238,23.7768,252.299,169.927,147.954,134.794,0.000123842,0.000126195,0.000428401
-1.10161,8.79367,-295.257,3.92994,-1.0699,-0.340039,-0.00494843,0.00172521,0.000257415,0.00173512,-0.00495834,1.5323,0.00601657,635.222,-88.1907,36.4664,0.469266,-0.202796,-0.0639916,0.00490063,503,485,103.166,23.6751,253.896,170.544,149.59,135.53,0.000121825,0.00012517,0.000420021
-0.807662,8.78139,-295.195,3.92702,-1.0656,-0.332521,-0.00483477,0.00174198,0.000276982,0.00175362,-0.00484641,1.52878,0.00592129,634.993,-88.3846,37.9923,0.45251,-0.200966,-0.0544456,0.00495501,510,485,103.097,23.5776,255.487,171.133,151.228,136.243,0.000124003,0.000124624,0.000427323
-0.512356,8.76881,-295.128,3.92371,-1.06101,-0.324813,-0.00470667,0.00175553,0.000303442,0.00176975,-0.00472088,1.52398,0.0058115,634.858,-88.534,39.5377,0.433003,-0.199823,-0.0465409,0.00504813,517,485,103.02,23.472,257.156,171.734,152.95,136.977,0.000129093,0.000122554,0.000444243
-0.215272,8.75624,-295.053,3.92016,-1.05598,-0.317509,-0.00456851,0.00176436,0.000333055,0.00178183,-0.00458598,1.5184,0.00569013,634.533,-88.5422,40.9183,0.409892,-0.199565,-0.0421446,0.00512397,524,485,102.942,23.3587,258.928,172.324,154.782,137.714,0.000132434,0.000120421,0.000455451
0.0824902,8.74353,-294.974,3.91664,-1.05081,-0.309786,-0.00441501,0.00176921,0.000359975,0.00179009,-0.0044359,1.51285,0.00555178,634.279,-88.4392,42.0088,0.390879,-0.198886,-0.0378512,0.00516521,531,485,102.863,23.2409,260.753,172.922,156.661,138.461,0.000134653,0.000123497,0.000461611
0.379829,8.73092,-294.896,3.91322,-1.04563,-0.302313,-0.00427344,0.00177017,0.000387232,0.00179488,-0.00429816,1.50707,0.00542314,634.068,-88.3726,43.1851,0.378706,-0.196768,-0.0382592,0.00524919,538,485,102.788,23.1232,262.564,173.513,158.524,139.203,0.000135481,0.000130974,0.000464428
0.676089,8.71856,-294.822,3.91003,-1.04061,-0.29474,-0.0041413,0.00176766,0.000415884,0.00179678,-0.00417043,1.50087,0.00530229,633.837,-88.3536,44.2648,0.370386,-0.193207,-0.0414128,0.00564319,545,485,102.718,23.0097,264.329,174.094,160.334,139.93,0.00014453,0.000142219,0.000488893
0.97073,8.70638,-294.752,3.90707,-1.03585,-0.286959,-0.00399462,0.0017628,0.000444492,0.00179692,-0.00402874,1.4942,0.0051671,633.655,-88.3249,45.5818,0.352364,-0.190243,-0.0446609,0.00609507,552,485,102.651,22.9052,266.016,174.666,162.058,140.644,0.000157056,0.000153831,0.000523425
1.26246,8.69371,-294.691,3.90456,-1.03142,-0.27882,-0.00383181,0.00175764,0.000472837,0.00179735,-0.00387153,1.487,0.00501774,633.253,-88.4474,47.9224,0.318832,-0.19026,-0.0510133,0.00650307,559,485,102.592,22.8048,267.552,175.271,163.618,141.378,0.000175203,0.000165107,0.000577932
1.55193,8.68144,-294.638,3.90233,-1.02715,-0.270038,-0.00369051,0.00175582,0.000505463,0.00180233,-0.00373703,1.47903,0.00489379,632.679,-88.477,50.0087,0.275161,-0.194407,-0.0701568,0.00704041,566,485,102.533,22.701,268.976,175.861,165.053,142.086,0.000191819,0.000176771,0.000633775
1.84042,8.66885,-294.588,3.89999,-1.0227,-0.261749,-0.00360445,0.00176301,0.000553965,0.00181958,-0.00366102,1.46902,0.00483482,632.099,-88.7796,51.8052,0.219704,-0.201547,-0.109079,0.00735977,573,485,102.474,22.5886,270.341,176.464,166.437,142.809,0.000198713,0.000180651,0.000662828
0,0,0,0,0,0,0,0,0,0,0,0,0,0,0,0,0,0,0,-1,580,485,0,0,0,0,0,0,0,0,0
0,0,0,0,0,0,0,0,0,0,0,0,0,0,0,0,0,0,0,-1,587,485,0,0,0,0,0,0,0,0,0
0,0,0,0,0,0,0,0,0,0,0,0,0,0,0,0,0,0,0,-1,594,485,0,0,0,0,0,0,0,0,0
0,0,0,0,0,0,0,0,0,0,0,0,0,0,0,0,0,0,0,-1,601,485,0,0,0,0,0,0,0,0,0
0,0,0,0,0,0,0,0,0,0,0,0,0,0,0,0,0,0,0,-1,62,492,0,0,0,0,0,0,0,0,0
0,0,0,0,0,0,0,0,0,0,0,0,0,0,0,0,0,0,0,-1,69,492,0,0,0,0,0,0,0,0,0
0,0,0,0,0,0,0,0,0,0,0,0,0,0,0,0,0,0,0,-1,76,492,0,0,0,0,0,0,0,0,0
-18.8921,9.2768,-298.146,4.09008,-1.26424,-0.620666,-0.00600964,0.00187527,0.0015168,0.00215698,-0.00629135,1.38716,0.0076029,644.633,-80.9708,-62.5812,0.478189,-0.0695204,-0.00674138,0.00480495,83,492,106.512,27.9924,159.789,133.949,49.9198,93.0017,0.000119712,0.000123383,0.00042841
-18.6127,9.26412,-298.165,4.0883,-1.26354,-0.620596,-0.00598641,0.00185538,0.00140856,0.00210072,-0.00623175,1.39835,0.00750592,644.935,-81.1559,-61.0182,0.471154,-0.0887717,-0.0635694,0.00486972,90,492,106.484,27.9766,160.445,134.608,50.7164,93.6976,0.000124965,0.00012462,0.000445449
-18.3333,9.25204,-298.184,4.08649,-1.26285,-0.620379,-0.00599554,0.00182125,0.00131969,0.00203804,-0.00621233,1.40798,0.00744363,645.245,-81.3758,-59.3906,0.46104,-0.102928,-0.105304,0.00498171,97,492,106.453,27.9649,161.096,135.235,51.5077,94.3626,0.000129845,0.000126572,0.000461847
-18.0523,9.23991,-298.198,4.08472,-1.26213,-0.619734,-0.00602329,0.00177843,0.00124867,0.00197341,-0.00621827,1.4159,0.00740489,645.5,-81.6131,-57.4334,0.446593,-0.115091,-0.136641,0.00485219,104,492,106.422,27.9561,161.832,135.863,52.3782,95.0323,0.00012746,0.000123318,0.00045331
-17.7715,9.22798,-298.212,4.08319,-1.26135,-0.618777,-0.00605645,0.00173013,0.00119395,0.00190909,-0.00623541,1.42201,0.0073776,645.722,-81.8855,-55.2223,0.429959,-0.126513,-0.158451,0.00470314,111,492,106.395,27.945,162.56,136.478,53.2308,95.6904,0.000124138,0.000120739,0.000441634
-17.4902,9.21603,-298.225,4.08173,-1.26037,-0.61716,-0.00607982,0.00167951,0.00115173,0.00184685,-0.00624716,1.42651,0.0073468,645.953,-82.1854,-52.8805,0.41365,-0.13703,-0.170784,0.00482217,118,492,106.365,27.9259,163.314,137.093,54.102,96.3505,0.000124642,0.000122047,0.000441084
-17.2066,9.2039,-298.231,4.08006,-1.25915,-0.61518,-0.00608329,0.00162882,0.00111937,0.00178801,-0.00624247,1.42953,0.00730254,646.09,-82.401,-51.0285,0.399031,-0.145406,-0.176276,0.00491507,125,492,106.329,27.9013,164.176,137.716,55.082,97.0241,0.000129169,0.000125332,0.000452573
-16.92,9.19184,-298.227,4.07828,-1.25772,-0.613088,-0.00606773,0.00157881,0.00109626,0.00173287,-0.00622179,1.43118,0.00724535,646.109,-82.5568,-49.4619,0.385204,-0.150377,-0.178722,0.0048663,132,492,106.293,27.8735,165.183,138.334,56.2062,97.6983,0.00013033,0.000125666,0.000453608
-16.6304,9.17936,-298.214,4.07636,-1.25594,-0.610767,-0.00604128,0.001531,0.00107415,0.00168042,-0.0061907,1.43258,0.00717995,646.063,-82.6882,-48.2529,0.371674,-0.152577,-0.183614,0.00484676,139,492,106.255,27.8405,166.333,138.967,57.4723,98.4,0.000127941,0.00012264,0.000443959
-16.3384,9.16673,-298.193,4.07433,-1.25396,-0.608485,-0.00601041,0.00148358,0.00105972,0.00163055,-0.00615739,1.43299,0.00711421,645.995,-82.8457,-46.8798,0.357197,-0.150822,-0.184385,0.00478783,146,492,106.218,27.8034,167.603,139.607,58.8597,99.1135,0.000124727,0.000118687,0.000431574
-16.0444,9.1542,-298.166,4.0722,-1.25179,-0.606296,-0.00597314,0.00143838,0.00105118,0.00158459,-0.00611934,1.4326,0.00704655,645.963,-83.0858,-45.2141,0.343663,-0.144186,-0.180644,0.00469031,153,492,106.181,27.7596,168.963,140.243,60.3385,99.825,0.000121778,0.000116192,0.000419692
-15.7504,9.14188,-298.138,4.07011,-1.24971,-0.603915,-0.00592657,0.00139667,0.00104672,0.00154334,-0.00607325,1.43158,0.00697419,646.027,-83.2112,-43.2791,0.331039,-0.13306,-0.173592,0.00461551,160,492,106.144,27.7136,170.33,140.875,61.8206,100.526,0.000119945,0.000117224,0.000413731
-15.4585,9.12963,-298.116,4.0682,-1.2478,-0.601187,-0.00587004,0.00135829,0.00104087,0.00150519,-0.00601694,1.43059,0.00689389,646.052,-83.2989,-41.3168,0.315421,-0.118665,-0.163517,0.00462198,167,492,106.107,27.674,171.596,141.502,63.1957,101.219,0.000118982,0.000120186,0.000410159
-15.1686,9.11747,-298.1,4.06656,-1.24609,-0.598165,-0.00580742,0.0013235,0.00103144,0.00146969,-0.00595361,1.43,0.00680848,646.1,-83.3248,-39.2587,0.298298,-0.102708,-0.152134,0.00455603,174,492,106.074,27.6388,172.77,142.126,64.4694,101.905,0.000117093,0.00011924,0.000404294
-14.8795,9.10534,-298.086,4.06496,-1.24436,-0.595187,-0.0057453,0.00129038,0.00101797,0.00143471,-0.00588962,1.42996,0.00672279,646.012,-83.4869,-37.2438,0.283844,-0.0865806,-0.140631,0.00461003,181,492,106.041,27.6022,173.907,142.747,65.7045,102.587,0.00011919,0.000120462,0.000412467
-14.5883,9.09334,-298.065,4.06323,-1.24243,-0.59197,-0.00568358,0.0012566,0.000997614,0.00139716,-0.00582414,1.43083,0.00663399,645.899,-83.7165,-35.6143,0.274242,-0.0708294,-0.128327,0.00458549,188,492,106.006,27.562,175.145,143.36,67.0408,103.266,0.000121424,0.000119318,0.000419495
-14.2944,9.08108,-298.035,4.06122,-1.24019,-0.588779,-0.00562616,0.00122157,0.000969337,0.00135614,-0.00576073,1.43285,0.00654504,645.679,-83.9502,-34.228,0.26934,-0.0577696,-0.115718,0.00465928,195,492,105.967,27.5115,176.512,143.985,68.5111,103.964,0.000122639,0.000120253,0.00042524
-13.9979,9.06844,-297.997,4.05905,-1.23765,-0.584964,-0.00558682,0.00118396,0.000933671,0.00131035,-0.00571321,1.43624,0.0064687,645.453,-84.0875,-32.8276,0.26673,-0.0496663,-0.102994,0.00475926,202,492,105.923,27.4545,178.011,144.628,70.1097,104.686,0.000124092,0.000122266,0.000431319
-13.7011,9.05567,-297.957,4.05697,-1.23498,-0.580518,-0.00557732,0.00114328,0.00089113,0.00125943,-0.00569347,1.44118,0.00641657,645.261,-84.1629,-31.1052,0.266668,-0.0471848,-0.0935484,0.00498166,209,492,105.876,27.3946,179.537,145.276,71.7281,105.416,0.000129074,0.000127027,0.000448598
-13.4038,9.04292,-297.915,4.0547,-1.23218,-0.576543,-0.0056014,0.00110036,0.000845808,0.00120545,-0.00570649,1.44717,0.00639501,645.105,-84.1956,-29.0509,0.271985,-0.0497952,-0.0912865,0.00517821,216,492,105.83,27.3333,181.08,145.917,73.3702,106.145,0.000133047,0.000131875,0.00046137
-13.1059,9.03025,-297.871,4.0523,-1.22934,-0.572802,-0.00564831,0.00105718,0.00080402,0.00115224,-0.00574337,1.45311,0.00639779,644.902,-84.1799,-27.0349,0.282758,-0.0570001,-0.0966472,0.00532984,223,492,105.783,27.2722,182.649,146.554,75.0423,106.872,0.000136721,0.000136346,0.000472309
-12.8067,9.01771,-297.822,4.04973,-1.22649,-0.569371,-0.00570023,0.00101646,0.000768994,0.00110338,-0.00578715,1.45825,0.00641046,644.707,-84.2725,-25.0092,0.292776,-0.0684676,-0.107284,0.00544083,230,492,105.736,27.2116,184.28,147.186,76.7811,107.595,0.000137612,0.000140765,0.000474687
-12.5071,9.00509,-297.771,4.04741,-1.22361,-0.565389,-0.00574593,0.000979534,0.000739716,0.00105993,-0.00582633,1.46253,0.00642224,644.46,-84.3556,-23.3434,0.300623,-0.0824453,-0.120678,0.00557313,237,492,105.693,27.1505,185.949,147.824,78.546,108.323,0.000143103,0.000145229,0.000491916
-12.208,8.99266,-297.721,4.04519,-1.2207,-0.560622,-0.00578745,0.000948366,0.000715941,0.00102362,-0.0058627,1.46607,0.00643586,644.272,-84.554,-21.7757,0.311224,-0.0965633,-0.138474,0.00581543,244,492,105.645,27.0894,187.6,148.45,80.283,109.04,0.00015074,0.000148783,0.000518739
-11.9101,8.98024,-297.674,4.04288,-1.21786,-0.555741,-0.00583801,0.000924514,0.000696652,0.000995535,-0.00590903,1.4692,0.00646455,644.016,-84.6963,-20.0226,0.327786,-0.110593,-0.161473,0.00588927,251,492,105.595,27.0295,189.193,149.075,81.9648,109.755,0.000154023,0.000144841,0.000531269
-11.6135,8.96791,-297.631,4.04045,-1.21492,-0.551135,-0.00590601,0.000903226,0.000688377,0.00097212,-0.0059749,1.47105,0.00651558,643.839,-84.7596,-18.2155,0.343509,-0.119073,-0.18139,0.00559244,258,492,105.542,26.9685,190.714,149.689,83.579,110.463,0.00014652,0.000132618,0.00050825
-11.3168,8.9556,-297.587,4.03788,-1.21189,-0.546902,-0.0059804,0.000888659,0.000685883,0.000956475,-0.00604822,1.47224,0.00657881,643.625,-84.8535,-16.6735,0.352181,-0.122223,-0.19643,0.00518761,265,492,105.489,26.9041,192.238,150.299,85.2015,111.17,0.000136957,0.000125641,0.000477223
-11.019,8.94285,-297.538,4.03525,-1.20875,-0.542347,-0.00603311,0.000882545,0.000682382,0.000949234,-0.0060998,1.47338,0.00662562,643.487,-85.0328,-14.924,0.356704,-0.120002,-0.206017,0.00490842,272,492,105.434,26.8342,193.821,150.937,86.8813,111.903,0.000128458,0.00012539,0.000447774
-10.7202,8.93001,-297.486,4.03273,-1.20549,-0.537871,-0.00603339,0.000883016,0.000663148,0.000946025,-0.0060964,1.47607,0.0066203,643.253,-85.3335,-13.35,0.364113,-0.113074,-0.210859,0.00486337,279,492,105.384,26.7596,195.464,151.579,88.6172,112.643,0.000121966,0.000124472,0.000424517
-10.4205,8.91727,-297.43,4.03011,-1.20194,-0.533371,-0.00598573,0.000892546,0.000629763,0.000949731,-0.00604292,1.48024,0.00656947,642.899,-85.5602,-11.99,0.37427,-0.103041,-0.209814,0.00495789,286,492,105.332,26.6817,197.157,152.208,90.4023,113.379,0.000122867,0.000126621,0.000426122
-10.12,8.90454,-297.371,4.0275,-1.19834,-0.528281,-0.00591133,0.000902974,0.000596347,0.000954769,-0.00596313,1.48416,0.00649337,642.585,-85.7265,-10.4323,0.379122,-0.0905035,-0.202947,0.00502015,293,492,105.278,26.6017,198.896,152.837,92.2285,114.117,0.000128287,0.00012786,0.000443765
-9.81649,8.89168,-297.301,4.02455,-1.19444,-0.523029,-0.00583267,0.000911228,0.000571773,0.000959361,-0.00588081,1.48681,0.00641452,642.299,-85.7518,-8.74236,0.377599,-0.0772749,-0.190409,0.00498323,300,492,105.218,26.5159,200.792,153.472,94.2163,114.868,0.000131766,0.000124412,0.000455199
-9.50566,8.8782,-297.207,4.02087,-1.19,-0.51723,-0.00572849,0.000915694,0.000540837,0.00095943,-0.00577222,1.4901,0.00630691,642.016,-85.6206,-6.7336,0.380609,-0.0654341,-0.179684,0.00489361,307,492,105.143,26.4157,203.066,154.144,96.5908,115.666,0.000131,0.000118287,0.000452627
-9.18967,8.8657,-297.096,4.01664,-1.18447,-0.512232,-0.00560253,0.000919382,0.000507161,0.000958585,-0.00564173,1.49365,0.00617706,641.624,-85.3533,-4.78339,0.385149,-0.0558728,-0.170763,0.00470142,314,492,105.066,26.2924,205.605,154.742,99.2449,116.425,0.000123459,0.000117611,0.000425986
-8.86719,8.85201,-296.961,4.01195,-1.17825,-0.507106,-0.00547785,0.000921129,0.000478492,0.000956711,-0.00551343,1.49657,0.0060488,641.009,-85.2833,-2.96587,0.386691,-0.050821,-0.162014,0.00470302,321,492,104.983,26.154,208.487,155.399,102.248,117.259,0.000115021,0.00012281,0.000396356
-8.54567,8.8388,-296.829,4.008,-1.17276,-0.501244,-0.00538116,0.000921295,0.000460527,0.000954769,-0.00541463,1.49824,0.00594975,640.379,-85.2765,-1.07357,0.388592,-0.0512567,-0.154994,0.00502781,328,492,104.914,26.0383,211.356,156.046,105.211,118.068,0.000113924,0.000131834,0.000393209
-8.23829,8.82628,-296.743,4.00581,-1.16947,-0.495248,-0.00531857,0.000921593,0.000455683,0.000954693,-0.00535167,1.49828,0.00588736,640.094,-85.2917,0.625193,0.395584,-0.0560974,-0.151765,0.00494408,335,492,104.876,25.9683,213.527,156.696,107.439,118.812,0.00011607,0.000129613,0.000401177
-7.96398,8.81656,-296.764,4.00498,-1.16775,-0.489692,-0.00528454,0.000924997,0.000464206,0.000959508,-0.00531905,1.49659,0.00585804,640.15,-85.446,2.1278,0.402278,-0.064949,-0.151311,0.00472275,342,492,104.839,25.9208,213.96,157.173,107.921,119.342,0.000116461,0.00012409,0.000403023
-7.68952,8.80428,-296.785,4.00384,-1.16624,-0.484497,-0.00528061,0.000934204,0.000485595,0.000971918,-0.00531832,1.49329,0.00586499,640.209,-85.6703,3.69,0.401773,-0.0771739,-0.148818,0.00468671,349,492,104.8,25.8866,214.383,157.783,108.403,120.006,0.000121761,0.000122336,0.000421657
-7.41815,8.79303,-296.815,4.00258,-1.16463,-0.479126,-0.00530927,0.000948371,0.000521887,0.000991598,-0.0053525,1.48816,0.00591101,640.254,-86.0043,5.04175,0.398006,-0.0909349,-0.144663,0.00475348,356,492,104.752,25.8462,214.637,158.33,108.72,120.609,0.000127413,0.000118745,0.000441191
-7.12439,8.77957,-296.771,4.00001,-1.16163,-0.473165,-0.00534085,0.000973199,0.000558218,0.00102217,-0.00538982,1.48329,0.00596694,640.067,-86.3628,6.64639,0.404091,-0.105511,-0.143807,0.0049663,363,492,104.692,25.7805,216.069,159.006,110.227,121.375,0.000133053,0.000115798,0.000460843
-6.82582,8.76686,-296.71,3.99717,-1.15796,-0.466582,-0.00536958,0.0010018,0.00059369,0.00105665,-0.00542443,1.47867,0.00602268,639.835,-86.5722,7.83855,0.419017,-0.11988,-0.144097,0.00527693,370,492,104.625,25.6991,217.767,159.635,111.996,122.113,0.000140998,0.000116526,0.000488601
-6.52606,8.75404,-296.644,3.99408,-1.15394,-0.460399,-0.00540553,0.00103579,0.000626527,0.00109616,-0.00546591,1.47473,0.00608845,639.641,-86.6127,9.20168,0.431841,-0.134038,-0.141621,0.00543218,377,492,104.557,25.6101,219.525,160.262,113.834,122.859,0.000145112,0.000119115,0.000502505
-6.22528,8.74114,-296.575,3.99081,-1.14967,-0.453941,-0.00545307,0.00107573,0.000659414,0.00114166,-0.00551901,1.47114,0.00616958,639.516,-86.573,10.9214,0.4362,-0.147986,-0.134097,0.00533138,384,492,104.484,25.5146,221.344,160.889,115.733,123.612,0.000142749,0.0001222,0.000493661
-5.92364,8.72832,-296.501,3.9875,-1.14528,-0.446855,-0.00548303,0.00111848,0.000678917,0.00118758,-0.00555213,1.46937,0.00623138,639.312,-86.6008,12.6988,0.438515,-0.160534,-0.125903,0.0050052,391,492,104.407,25.4149,223.22,161.514,117.684,124.363,0.000133855,0.000122905,0.000462429
-5.6197,8.71541,-296.419,3.98399,-1.14068,-0.439454,-0.00546662,0.0011678,0.000673149,0.00123541,-0.00553423,1.47069,0.00624428,638.933,-86.621,14.3396,0.446315,-0.172857,-0.120331,0.00483992,398,492,104.325,25.3076,225.227,162.147,119.765,125.125,0.000125963,0.000123563,0.000435635
-5.31248,8.70274,-296.325,3.97989,-1.13581,-0.432619,-0.0053903,0.0012219,0.000640577,0.00128339,-0.00545179,1.4751,0.00619401,638.483,-86.5856,15.8308,0.456201,-0.182289,-0.119198,0.00471028,405,492,104.237,25.1969,227.404,162.766,122.033,125.882,0.000121244,0.000121628,0.000420606
-5.00443,8.69025,-296.227,3.97544,-1.13081,-0.426859,-0.00530938,0.00127407,0.000605795,0.00132935,-0.00536466,1.4798,0.00613826,638.149,-86.5567,17.4713,0.460376,-0.190401,-0.120201,0.00463394,412,492,104.149,25.0854,229.619,163.371,124.356,126.631,0.000119348,0.000119611,0.000415016
-4.69667,8.67753,-296.128,3.97105,-1.12571,-0.420786,-0.00523952,0.00132267,0.000566284,0.00137118,-0.00528803,1.48534,0.00609051,637.925,-86.6151,18.9569,0.466877,-0.197476,-0.125342,0.00461819,419,492,104.061,24.9706,231.832,163.987,126.67,127.394,0.000119184,0.000118516,0.000414754
-4.39117,8.66449,-296.037,3.96728,-1.1206,-0.413633,-0.0051925,0.00136891,0.000520286,0.00140991,-0.0052335,1.49216,0.00606268,637.658,-86.8204,19.9991,0.480804,-0.202726,-0.133337,0.00462407,426,492,103.978,24.8557,233.954,164.614,128.869,128.168,0.000119527,0.000120889,0.00041581
-4.08901,8.65163,-295.956,3.96404,-1.11565,-0.406043,-0.005157,0.0014119,0.000467695,0.00144503,-0.00519013,1.50007,0.00604363,637.392,-86.9924,20.8266,0.493819,-0.20644,-0.138667,0.00475796,433,492,103.903,24.7439,235.917,165.23,130.892,128.927,0.000121503,0.000123598,0.000422865
-3.78917,8.63973,-295.882,3.96118,-1.11095,-0.398581,-0.0051253,0.00145227,0.000411226,0.00147788,-0.00515091,1.5086,0.00602731,637.143,-87.0626,22.1393,0.499753,-0.209727,-0.137819,0.00489335,440,492,103.837,24.6374,237.769,165.798,132.796,129.631,0.000123673,0.000124652,0.000430673
-3.49066,8.62758,-295.812,3.9584,-1.10641,-0.391255,-0.00510037,0.00149081,0.000356504,0.00151004,-0.0051196,1.51692,0.00601841,636.957,-87.0894,23.9716,0.504154,-0.212433,-0.13349,0.00486855,447,492,103.773,24.5344,239.554,166.38,134.632,130.345,0.000123952,0.000124306,0.000430738
-3.19439,8.61509,-295.749,3.9557,-1.10211,-0.384026,-0.00508487,0.00152735,0.000307442,0.00154162,-0.00509913,1.52443,0.00601985,636.691,-87.1458,25.9204,0.511738,-0.214819,-0.129291,0.0049186,454,492,103.71,24.4352,241.22,166.984,136.349,131.073,0.000125703,0.000125626,0.000436258
-2.89837,8.60289,-295.686,3.95269,-1.09795,-0.37684,-0.00507978,0.00156381,0.000265086,0.00157437,-0.00509034,1.53098,0.00603359,636.363,-87.2401,27.8063,0.518035,-0.217144,-0.124734,0.00503213,461,492,103.64,24.3389,242.871,167.578,138.058,131.785,0.000130183,0.000128928,0.000451195
-2.60137,8.59078,-295.618,3.94941,-1.09367,-0.369559,-0.0050868,0.00160026,0.000233597,0.00160841,-0.00509495,1.53592,0.00606137,636.042,-87.4897,29.4593,0.515529,-0.220064,-0.115721,0.00518591,468,492,103.564,24.2389,244.579,168.167,139.829,132.496,0.000134514,0.000132269,0.000465948
-2.3025,8.57835,-295.543,3.94561,-1.08894,-0.362294,-0.00509823,0.00163587,0.000214288,0.00164268,-0.00510505,1.53902,0.00609474,635.814,-87.7587,31.0745,0.508504,-0.222477,-0.102321,0.00531685,475,492,103.478,24.1329,246.386,168.762,141.711,133.228,0.000136635,0.000134993,0.000474544
-2.00309,8.56568,-295.466,3.94174,-1.08405,-0.355113,-0.00509405,0.00166785,0.000207327,0.0016742,-0.0051004,1.54017,0.00611197,635.631,-87.9961,32.7726,0.503358,-0.223874,-0.0894118,0.00530678,482,492,103.391,24.0221,248.23,169.368,143.63,133.975,0.000134339,0.000133674,0.000466602
-1.70412,8.55305,-295.389,3.93803,-1.07922,-0.348189,-0.00506164,0.00169606,0.000210486,0.00170261,-0.00506819,1.53969,0.00610037,635.354,-87.9849,34.3542,0.495355,-0.22372,-0.0802637,0.00519545,489,492,103.311,23.9123,250.061,169.973,145.533,134.72,0.00012891,0.000132132,0.000446957
-1.40701,8.54012,-295.317,3.93481,-1.07462,-0.340599,-0.00499804,0.00172046,0.000221427,0.00172775,-0.00500533,1.53789,0.00605694,635.07,-87.9894,35.339,0.482463,-0.222869,-0.0720894,0.00506561,496,492,103.236,23.8057,251.81,170.599,147.336,135.477,0.000125118,0.000130053,0.000432544
-1.11213,8.52749,-295.253,3.93188,-1.07032,-0.332414,-0.00491024,0.00174061,0.000238838,0.00174918,-0.00491881,1.53495,0.00598817,634.793,-88.0299,36.6008,0.469263,-0.221577,-0.0633411,0.00500119,503,492,103.164,23.7038,253.453,171.215,149.021,136.213,0.000123783,0.000128067,0.000426631
-0.817327,8.51517,-295.188,3.92883,-1.06592,-0.324745,-0.00480059,0.00175694,0.000261194,0.00176733,-0.00481097,1.53105,0.00589674,634.605,-88.2001,38.3635,0.457387,-0.219949,-0.0539096,0.00502441,510,492,103.093,23.6025,255.092,171.81,150.708,136.934,0.000126636,0.000126872,0.000436414
-0.521483,8.50269,-295.118,3.9255,-1.06118,-0.317008,-0.00467524,0.001771,0.000289452,0.00178397,-0.00468822,1.52601,0.00579013,634.532,-88.4273,40.1133,0.442511,-0.217795,-0.0465586,0.00514171,517,492,103.015,23.4952,256.793,172.405,152.462,137.666,0.000131595,0.000125048,0.000452284
-0.224424,8.49034,-295.043,3.92208,-1.0562,-0.309282,-0.00453976,0.00178172,0.000320935,0.00179797,-0.00455602,1.5202,0.00567288,634.323,-88.5139,41.6906,0.422515,-0.215396,-0.0430851,0.0052847,524,492,102.938,23.3825,258.572,172.989,154.293,138.394,0.000135915,0.000122842,0.000466081
0.0727633,8.47784,-294.967,3.91857,-1.05112,-0.301862,-0.00438977,0.00178874,0.000348816,0.00180837,-0.0044094,1.51458,0.00553957,634.1,-88.4872,42.9358,0.405598,-0.211045,-0.0403173,0.00541908,531,492,102.86,23.2677,260.362,173.58,156.14,139.133,0.000139811,0.000124277,0.000477974
0.369186,8.46543,-294.892,3.91528,-1.04611,-0.294515,-0.00425143,0.00179247,0.000376339,0.00181581,-0.00427477,1.50885,0.005416,633.889,-88.4736,44.0004,0.394829,-0.204475,-0.0421077,0.00550302,538,492,102.789,23.1532,262.122,174.167,157.951,139.864,0.000141673,0.000131359,0.000485429
0.664887,8.453,-294.819,3.91217,-1.0412,-0.287222,-0.00412232,0.00179347,0.000404413,0.00182099,-0.00414984,1.50286,0.00530037,633.716,-88.4937,44.8208,0.386968,-0.196335,-0.045615,0.00609557,545,492,102.723,23.0415,263.854,174.757,159.728,140.596,0.000161583,0.000150728,0.000540725
0.959108,8.44089,-294.751,3.90924,-1.03649,-0.279754,-0.00397877,0.00179301,0.000431802,0.00182514,-0.00401089,1.49653,0.00517096,633.67,-88.3816,45.5829,0.368728,-0.188583,-0.0479943,0.00671996,552,492,102.659,22.9389,265.514,175.329,161.427,141.309,0.000184343,0.000170318,0.000604006
1.25142,8.42842,-294.689,3.90659,-1.03202,-0.27181,-0.00381899,0.00179351,0.000458931,0.00183079,-0.00385627,1.48974,0.00502818,633.494,-88.4176,47.1554,0.336093,-0.182834,-0.0528696,0.00732299,559,492,102.598,22.8407,267.081,175.924,163.022,142.036,0.000210904,0.000186922,0.000682483
1.54187,8.41627,-294.632,3.90421,-1.02774,-0.26334,-0.00368067,0.00179927,0.000491849,0.00184307,-0.00372446,1.48199,0.00491253,633.03,-88.4271,49.0281,0.295832,-0.179862,-0.0702448,0.00791375,566,492,102.539,22.7404,268.557,176.509,164.516,142.742,0.000229569,0.000196366,0.000744352
1.83144,8.40388,-294.578,3.90175,-1.02318,-0.255215,-0.00359627,0.00181573,0.000544608,0.00186999,-0.00365053,1.47149,0.00486309,632.405,-88.6684,51.0186,0.24329,-0.179865,-0.106635,0.00809042,573,492,102.479,22.6258,269.982,177.103,165.963,143.46,0.000229706,0.000192266,0.00075096
0,0,0,0,0,0,0,0,0,0,0,0,0,0,0,0,0,0,0,-1,580,492,0,0,0,0,0,0,0,0,0
0,0,0,0,0,0,0,0,0,0,0,0,0,0,0,0,0,0,0,-1,587,492,0,0,0,0,0,0,0,0,0
0,0,0,0,0,0,0,0,0,0,0,0,0,0,0,0,0,0,0,-1,594,492,0,0,0,0,0,0,0,0,0
0,0,0,0,0,0,0,0,0,0,0,0,0,0,0,0,0,0,0,-1,601,492,0,0,0,0,0,0,0,0,0
0,0,0,0,0,0,0,0,0,0,0,0,0,0,0,0,0,0,0,-1,62,499,0,0,0,0,0,0,0,0,0
0,0,0,0,0,0,0,0,0,0,0,0,0,0,0,0,0,0,0,-1,69,499,0,0,0,0,0,0,0,0,0
0,0,0,0,0,0,0,0,0,0,0,0,0,0,0,0,0,0,0,-1,76,499,0,0,0,0,0,0,0,0,0
-18.9028,9.0048,-298.141,4.09057,-1.26472,-0.614061,-0.00582824,0.00192838,0.0015099,0.00221193,-0.00611179,1.38516,0.00746763,644.471,-80.9,-61.6239,0.524766,-0.0484291,-0.0232396,0.00472151,83,499,106.472,28.0117,159.244,134.829,49.3082,93.91,0.000118519,0.000120967,0.000424689
-18.6219,8.99219,-298.156,4.08878,-1.26387,-0.613979,-0.00580866,0.00191842,0.00140869,0.00216722,-0.00605746,1.39598,0.0073836,644.737,-81.044,-60.2874,0.507357,-0.0686605,-0.0752875,0.00482891,90,499,106.444,27.9937,159.975,135.482,50.1794,94.6029,0.000124904,0.000122231,0.000445111
-18.3415,8.9799,-298.172,4.08699,-1.26304,-0.613587,-0.00583048,0.00189408,0.0013278,0.00211595,-0.00605235,1.40523,0.00734266,645.005,-81.2253,-58.8521,0.488812,-0.0850406,-0.113034,0.00492229,97,499,106.414,27.9783,160.683,136.115,51.0243,95.2783,0.000129343,0.000122822,0.000459232
-18.0593,8.9678,-298.182,4.08536,-1.26218,-0.612496,-0.00587698,0.00186015,0.001264,0.00206141,-0.00607824,1.4129,0.00732967,645.226,-81.4204,-57.1782,0.46736,-0.0998485,-0.140944,0.00480473,104,499,106.385,27.9654,161.484,136.739,51.9513,95.9467,0.000127559,0.0001177,0.000451897
-17.778,8.9561,-298.195,4.08395,-1.26128,-0.611331,-0.00593179,0.00181989,0.00121482,0.00200582,-0.00611772,1.41893,0.00732944,645.487,-81.7082,-54.8937,0.445242,-0.11393,-0.159882,0.00468318,111,499,106.359,27.9514,162.24,137.34,52.8264,96.5926,0.000125359,0.000114257,0.000442664
-17.4967,8.94434,-298.208,4.08247,-1.26025,-0.609903,-0.0059765,0.0017766,0.00117602,0.00195106,-0.00615096,1.42352,0.00732405,645.766,-81.9879,-52.341,0.424524,-0.126737,-0.170212,0.00476641,118,499,106.33,27.9319,162.994,137.942,53.6989,97.2411,0.000127181,0.000116682,0.000445886
-17.2131,8.93228,-298.214,4.08074,-1.259,-0.607951,-0.0059997,0.00173234,0.00114534,0.00189843,-0.00616579,1.42679,0.00730248,645.917,-82.2281,-50.3694,0.406436,-0.13676,-0.174537,0.00492467,125,499,106.293,27.9068,163.857,138.558,54.6813,97.9096,0.00013247,0.000122831,0.000460698
-16.927,8.9202,-298.211,4.07901,-1.2576,-0.605675,-0.0060014,0.00168782,0.00112265,0.00184837,-0.00616195,1.42874,0.00726469,645.93,-82.3827,-48.8254,0.390144,-0.142832,-0.176326,0.00493004,132,499,106.257,27.8803,164.844,139.176,55.7839,98.5836,0.000133153,0.000123298,0.000461747
-16.6382,8.90772,-298.201,4.07715,-1.25595,-0.603059,-0.00598713,0.00164498,0.00110049,0.00180049,-0.00614264,1.43041,0.00721343,645.872,-82.5332,-47.6742,0.373257,-0.14593,-0.180236,0.00479661,139,499,106.218,27.8506,165.96,139.811,57.013,99.2827,0.000128761,0.000119118,0.00044664
-16.3477,8.8953,-298.184,4.07514,-1.25419,-0.600729,-0.00596352,0.00160149,0.00108448,0.00175389,-0.00611591,1.43119,0.00715591,645.798,-82.6637,-46.4067,0.354899,-0.145183,-0.180429,0.00465651,146,499,106.179,27.8189,167.155,140.443,58.3251,99.982,0.000123843,0.000115085,0.000429057
-16.0557,8.88302,-298.163,4.0731,-1.25226,-0.598433,-0.00592899,0.00155939,0.00107295,0.00171009,-0.00607969,1.43125,0.00709112,645.748,-82.8995,-44.783,0.337937,-0.139435,-0.176771,0.00449475,153,499,106.142,27.782,168.42,141.068,59.7067,100.677,0.000119085,0.000112763,0.000411272
-15.7638,8.87076,-298.142,4.07103,-1.25024,-0.596313,-0.00588159,0.00152022,0.00106489,0.00167038,-0.00603175,1.43071,0.00701765,645.764,-83.0425,-42.8089,0.323073,-0.129113,-0.170295,0.00444995,160,499,106.106,27.7403,169.681,141.691,61.0859,101.371,0.000117554,0.000114497,0.000405771
-15.4729,8.85845,-298.123,4.06907,-1.24835,-0.593842,-0.0058193,0.00148387,0.00105533,0.00163331,-0.00596874,1.43013,0.00693126,645.749,-83.182,-40.6595,0.306233,-0.115573,-0.160977,0.00448119,167,499,106.069,27.7003,170.893,142.32,62.4099,102.066,0.000116316,0.000117071,0.000401863
-15.1829,8.8463,-298.107,4.06736,-1.2466,-0.590805,-0.00574498,0.0014506,0.00104236,0.00159855,-0.00589293,1.4298,0.0068339,645.764,-83.2998,-38.59,0.287795,-0.100292,-0.15038,0.00451535,174,499,106.034,27.6624,172.071,142.944,63.6897,102.75,0.000115615,0.000117967,0.000400343
-14.8924,8.83426,-298.088,4.0657,-1.24476,-0.587695,-0.00566758,0.00141832,0.00102622,0.00156394,-0.00581321,1.42983,0.00673282,645.739,-83.4785,-36.5007,0.272086,-0.0850699,-0.139458,0.00461341,181,499,106,27.6218,173.275,143.562,64.9918,103.43,0.000118318,0.00012024,0.000410786
-14.5997,8.82224,-298.063,4.0639,-1.24262,-0.584468,-0.00559015,0.00138478,0.00100421,0.00152648,-0.00573186,1.43061,0.00662827,645.691,-83.7095,-34.7733,0.262378,-0.0705034,-0.127252,0.00464531,188,499,105.965,27.5759,174.588,144.174,66.4034,104.113,0.000120053,0.000120932,0.000416856
-14.304,8.8099,-298.028,4.06185,-1.24013,-0.581112,-0.00551884,0.00134972,0.000975818,0.00148566,-0.00565479,1.43237,0.00652571,645.457,-83.8873,-33.5503,0.259114,-0.0587663,-0.114115,0.00473177,195,499,105.925,27.5198,176.047,144.801,67.9638,104.818,0.000121847,0.000122954,0.000423496
-14.0065,8.79713,-297.986,4.05978,-1.23746,-0.577006,-0.00546911,0.00131212,0.000941433,0.00144039,-0.00559739,1.43538,0.00643956,645.25,-83.9798,-32.0926,0.259178,-0.0518287,-0.100606,0.00483116,202,499,105.882,27.459,177.606,145.451,69.6169,105.55,0.000123774,0.00012532,0.000430843
-13.7088,8.78432,-297.943,4.0577,-1.23468,-0.572486,-0.00545416,0.00127107,0.00090084,0.00138965,-0.00557274,1.43992,0.00638206,645.051,-84.0604,-30.3113,0.262096,-0.0500873,-0.0903857,0.00498621,209,499,105.836,27.3973,179.177,146.1,71.2779,106.284,0.000128791,0.000129027,0.000448198
-13.4105,8.77164,-297.898,4.05548,-1.23184,-0.568297,-0.00547928,0.00122682,0.000857106,0.00133464,-0.00558709,1.44567,0.00636032,644.858,-84.1271,-28.2667,0.270181,-0.0531412,-0.0874227,0.00520057,216,499,105.791,27.3358,180.777,146.741,72.9728,107.014,0.000134689,0.000133797,0.000467172
-13.1108,8.75931,-297.848,4.05305,-1.22895,-0.564519,-0.00553269,0.00118137,0.000815506,0.001279,-0.00563032,1.45164,0.00636691,644.573,-84.1428,-26.4475,0.283393,-0.0605081,-0.0916463,0.00540429,223,499,105.745,27.2761,182.441,147.362,74.7391,107.727,0.000139987,0.000138869,0.000483866
-12.8108,8.74699,-297.797,4.05056,-1.22591,-0.561062,-0.00559333,0.00113782,0.000779014,0.0012268,-0.00568231,1.45707,0.00638473,644.288,-84.2661,-24.5982,0.295474,-0.0719801,-0.101164,0.00550114,230,499,105.701,27.2154,184.116,147.977,76.5186,108.441,0.000140401,0.000142519,0.000484822
-12.5108,8.73444,-297.744,4.04834,-1.22286,-0.55731,-0.00564865,0.00109775,0.000746521,0.00117937,-0.00573026,1.4619,0.00640195,644.007,-84.2979,-23.1324,0.30455,-0.0855294,-0.114126,0.00560072,237,499,105.662,27.152,185.81,148.607,78.3069,109.168,0.000143358,0.00014572,0.000493967
-12.2124,8.72188,-297.697,4.04644,-1.21984,-0.551711,-0.00570049,0.00106289,0.000718447,0.00113837,-0.00577596,1.46613,0.00642128,643.877,-84.3866,-21.7226,0.316445,-0.0987264,-0.132481,0.00642513,244,499,105.616,27.0931,187.442,149.232,80.0093,109.892,0.000168682,0.000164963,0.000578583
-11.9162,8.70956,-297.655,4.04449,-1.21692,-0.546142,-0.00576158,0.00103427,0.000694401,0.00110449,-0.00583181,1.47,0.00645531,643.71,-84.4774,-20.0211,0.333594,-0.111408,-0.156655,0.00733784,251,499,105.567,27.0366,188.961,149.843,81.6019,110.599,0.0001966,0.000182971,0.000671295
-11.6213,8.69748,-297.617,4.04224,-1.21408,-0.54098,-0.00583746,0.0010075,0.000680511,0.0010745,-0.00590446,1.47266,0.00650857,643.572,-84.5116,-18.2331,0.348908,-0.119055,-0.178217,0.00751914,258,499,105.513,26.982,190.407,150.44,83.1325,111.292,0.000202762,0.000186359,0.000693418
-11.3264,8.68517,-297.579,4.03948,-1.21142,-0.537035,-0.00591698,0.00098735,0.000670807,0.00105192,-0.00598155,1.47483,0.00657097,643.443,-84.6688,-16.5452,0.35677,-0.121509,-0.194947,0.00678948,265,499,105.457,26.9214,191.829,151.064,84.6627,111.997,0.000182776,0.000174464,0.000628799
-11.0297,8.67238,-297.534,4.03636,-1.20866,-0.533783,-0.00597404,0.000975864,0.000660138,0.00103801,-0.00603618,1.47693,0.00661654,643.28,-84.8815,-14.6853,0.360512,-0.118742,-0.206218,0.00590415,272,499,105.398,26.8505,193.332,151.721,86.2878,112.73,0.000152076,0.000153227,0.000526946
-10.7307,8.65953,-297.481,4.03358,-1.20544,-0.529793,-0.00597819,0.000970841,0.000634698,0.00102834,-0.00603569,1.48046,0.00661012,642.997,-85.1762,-13.0558,0.36777,-0.111821,-0.212689,0.00499888,279,499,105.346,26.7734,194.973,152.371,88.0326,113.472,0.00012479,0.000128137,0.000435628
-10.4308,8.64688,-297.424,4.03105,-1.20191,-0.525075,-0.00593022,0.00097228,0.000595253,0.00102324,-0.00598117,1.4854,0.00655299,642.638,-85.4255,-11.5816,0.378089,-0.102023,-0.213123,0.00499528,286,499,105.295,26.6923,196.677,153,89.8252,114.206,0.000125192,0.000128095,0.000434486
-10.1307,8.63435,-297.367,4.02857,-1.19838,-0.519833,-0.00585167,0.000972168,0.000557441,0.00101741,-0.00589691,1.48982,0.00646592,642.384,-85.5725,-10.0196,0.383286,-0.0901977,-0.207082,0.0050628,293,499,105.243,26.6144,198.403,153.623,91.633,114.934,0.000131116,0.000130291,0.000453851
-9.82846,8.62169,-297.301,4.02582,-1.19462,-0.514658,-0.00576889,0.000971937,0.000530071,0.00101337,-0.00581032,1.4928,0.00637767,642.168,-85.6777,-8.11642,0.381977,-0.0779322,-0.194646,0.00504106,300,499,105.187,26.5313,200.24,154.251,93.5575,115.674,0.000133512,0.000128822,0.000461457
-9.5202,8.60906,-297.215,4.02244,-1.19043,-0.509108,-0.00566195,0.000968866,0.000496114,0.00100578,-0.00569886,1.49653,0.00626262,641.943,-85.5919,-6.06453,0.38541,-0.0677104,-0.183171,0.00494234,307,499,105.119,26.4362,202.386,154.884,95.7993,116.426,0.000131314,0.00012254,0.000453918
-9.20476,8.59673,-297.106,4.01832,-1.18517,-0.504199,-0.0055359,0.000965638,0.000459961,0.000998017,-0.00556828,1.50052,0.00612854,641.57,-85.4793,-4.03231,0.389899,-0.0603396,-0.172761,0.0047026,314,499,105.045,26.3183,204.897,155.485,98.4249,117.178,0.000122488,0.000120255,0.000422677
-8.88215,8.58345,-296.971,4.0137,-1.17902,-0.498823,-0.00541293,0.000961647,0.000429619,0.00099047,-0.00544176,1.5038,0.00599864,640.939,-85.3376,-2.11114,0.391505,-0.0575224,-0.162435,0.00465942,321,499,104.963,26.1815,207.79,156.128,101.434,117.997,0.000114189,0.000121157,0.000393764
-8.55875,8.56994,-296.833,4.00952,-1.17322,-0.493372,-0.0053199,0.000957697,0.000410357,0.000984408,-0.00534661,1.5058,0.00590072,640.242,-85.1786,-0.367314,0.393267,-0.05987,-0.154332,0.00508692,328,499,104.893,26.0612,210.75,156.79,104.496,118.83,0.00011674,0.00013285,0.000403328
-8.24166,8.55612,-296.714,4.00662,-1.16954,-0.487802,-0.00526283,0.000955945,0.000403503,0.000982017,-0.0052889,1.50627,0.00584214,639.884,-85.2249,1.3366,0.398875,-0.0660165,-0.150058,0.00522193,335,499,104.851,25.9892,213.418,157.52,107.235,119.667,0.000123533,0.000136412,0.000427136
-7.94335,8.54103,-296.656,4.00468,-1.16718,-0.482057,-0.00523526,0.000959419,0.00040868,0.000986264,-0.00526211,1.5052,0.00581828,639.816,-85.3792,3.0857,0.403442,-0.0757651,-0.148403,0.00500762,342,499,104.812,25.9361,215.107,158.317,108.983,120.53,0.000123698,0.000130405,0.000428208
-7.69865,8.53564,-296.775,4.00488,-1.16628,-0.47692,-0.00523932,0.000970546,0.000425349,0.000999546,-0.00526832,1.50272,0.00583269,640.046,-85.6234,4.4798,0.400864,-0.0884199,-0.145149,0.00491461,349,499,104.773,25.9012,213.976,158.513,107.899,120.766,0.00012682,0.00012628,0.000439434
-7.42556,8.52381,-296.8,4.00357,-1.16454,-0.47153,-0.00527466,0.000989034,0.000455014,0.00102192,-0.00530754,1.49866,0.00588542,640.087,-85.9739,5.81667,0.396349,-0.101856,-0.141167,0.00481803,356,499,104.726,25.8609,214.322,159.088,108.306,121.402,0.000127886,0.00011834,0.000443274
-7.13122,8.51099,-296.754,4.00097,-1.16138,-0.465409,-0.0053088,0.00101889,0.000484635,0.00105579,-0.0053457,1.4948,0.00594434,639.899,-86.2766,7.26408,0.401806,-0.115195,-0.141071,0.00487421,363,499,104.665,25.7923,215.789,159.728,109.847,122.137,0.000129364,0.000112967,0.000448651
-6.83297,8.49858,-296.694,3.99816,-1.15768,-0.458625,-0.00533363,0.00105227,0.000513202,0.00109325,-0.00537461,1.49111,0.00599645,639.634,-86.4607,8.36742,0.415419,-0.12805,-0.142067,0.0051706,370,499,104.597,25.7105,217.473,160.342,111.601,122.86,0.000137134,0.000117516,0.000475469
-6.53361,8.4858,-296.63,3.99511,-1.15372,-0.452345,-0.00535992,0.00108984,0.000538578,0.00113451,-0.00540458,1.48806,0.00605212,639.366,-86.5509,9.48656,0.427647,-0.140403,-0.140189,0.00532806,377,499,104.529,25.6233,219.213,160.97,113.418,123.605,0.000142171,0.000122658,0.000492141
-6.23304,8.4727,-296.56,3.99195,-1.14947,-0.44546,-0.00539566,0.00113249,0.00056399,0.00118086,-0.00544402,1.48525,0.00612049,639.224,-86.5449,11.1735,0.433209,-0.152067,-0.133405,0.005265,384,499,104.456,25.5278,221.027,161.611,115.306,124.371,0.000141098,0.000125413,0.000487583
-5.93123,8.45983,-296.486,3.98862,-1.14505,-0.438397,-0.00541477,0.00117854,0.000577136,0.00122867,-0.00546491,1.48414,0.00617166,638.982,-86.5737,12.8268,0.437758,-0.161912,-0.12617,0.00504273,391,499,104.379,25.4258,222.912,162.243,117.266,125.128,0.000133069,0.00012687,0.000459176
-5.62535,8.44738,-296.398,3.98487,-1.14036,-0.431108,-0.00538709,0.00122983,0.000565629,0.00127784,-0.0054351,1.48613,0.006174,638.598,-86.5811,14.5081,0.446969,-0.171335,-0.1217,0.00495816,398,499,104.294,25.3163,225.021,162.858,119.454,125.873,0.000125617,0.000126555,0.000433722
-5.3162,8.43463,-296.297,3.98028,-1.1353,-0.424886,-0.00529369,0.00127964,0.000528447,0.00132185,-0.0053359,1.49109,0.00610511,638.147,-86.4885,16.0635,0.457027,-0.177982,-0.121382,0.00479806,405,499,104.2,25.202,227.288,163.484,121.829,126.642,0.000122413,0.000122833,0.000424184
-5.00653,8.42221,-296.193,3.9755,-1.13008,-0.419409,-0.00519844,0.00132684,0.000493228,0.00136391,-0.00523552,1.49578,0.00603421,637.881,-86.448,17.8809,0.459757,-0.183341,-0.12332,0.00468846,412,499,104.108,25.0882,229.583,164.085,124.241,127.396,0.00012092,0.000119774,0.000420034
-4.69849,8.40959,-296.094,3.97114,-1.12488,-0.413464,-0.00511605,0.00137026,0.000455862,0.00140215,-0.00514793,1.50097,0.00597372,637.648,-86.5121,19.6098,0.464181,-0.188226,-0.129325,0.00471236,419,499,104.022,24.9724,231.813,164.696,126.573,128.158,0.000122312,0.000119705,0.000425389
-4.39442,8.39711,-296.007,3.96792,-1.11995,-0.4055,-0.00506027,0.00141139,0.000413955,0.00143776,-0.00508664,1.50718,0.00593755,637.399,-86.7157,20.7574,0.47458,-0.192847,-0.137573,0.00470926,426,499,103.946,24.8614,233.88,165.301,128.696,128.903,0.000122845,0.000122174,0.000427412
-4.09461,8.38531,-295.935,3.96527,-1.11536,-0.397826,-0.00502176,0.00144954,0.000367326,0.00147032,-0.00504255,1.51428,0.00591636,637.145,-86.8887,21.6853,0.482707,-0.197522,-0.142565,0.00475879,433,499,103.883,24.7578,235.732,165.869,130.593,129.603,0.000122029,0.000122399,0.00042475
-3.79684,8.3734,-295.868,3.96275,-1.11093,-0.390461,-0.00499341,0.00148529,0.000318423,0.0015009,-0.00500902,1.5218,0.00590432,636.908,-86.9769,23.189,0.483879,-0.202723,-0.141564,0.00475762,440,499,103.824,24.6572,237.477,166.443,132.383,130.306,0.000119937,0.000121261,0.00041712
-3.50061,8.3609,-295.806,3.96015,-1.10666,-0.383303,-0.00497717,0.00151957,0.000272651,0.00153099,-0.00498859,1.52893,0.00590486,636.767,-87.0396,25.2329,0.484772,-0.207762,-0.137097,0.00468888,447,499,103.764,24.557,239.137,167.052,134.092,131.036,0.000118559,0.000119905,0.000411053
-3.20553,8.34841,-295.746,3.95751,-1.10251,-0.376158,-0.00497292,0.00155273,0.000233195,0.00156105,-0.00498124,1.53512,0.00591824,636.508,-87.0503,27.3949,0.490201,-0.212696,-0.132218,0.00473438,454,499,103.702,24.4595,240.737,167.661,135.743,131.763,0.000120443,0.000122059,0.000416522
-2.90993,8.33616,-295.685,3.95446,-1.09835,-0.369117,-0.00498101,0.00158604,0.000200954,0.00159218,-0.00498715,1.54023,0.00594535,636.171,-87.1652,29.3386,0.495238,-0.218232,-0.125925,0.00487526,461,499,103.631,24.3634,242.362,168.259,137.429,132.479,0.00012477,0.000125866,0.000430809
-2.61284,8.32396,-295.617,3.95104,-1.09397,-0.361853,-0.00500356,0.00161969,0.000179766,0.00162456,-0.00500843,1.54368,0.00598833,635.833,-87.4108,30.6603,0.492693,-0.225113,-0.114984,0.00510282,468,499,103.552,24.2623,244.071,168.853,139.205,133.197,0.000130904,0.000130409,0.000452479
-2.31374,8.31154,-295.541,3.9473,-1.08926,-0.354347,-0.00503113,0.00165306,0.000169832,0.00165737,-0.00503545,1.54541,0.00603723,635.585,-87.767,31.9486,0.487368,-0.231572,-0.1002,0.0052427,475,499,103.466,24.1569,245.896,169.451,141.1,133.932,0.000133452,0.00013517,0.000462783
-2.01414,8.29901,-295.463,3.94351,-1.08431,-0.347066,-0.00504028,0.00168359,0.000170378,0.00168791,-0.00504459,1.54548,0.00606727,635.396,-87.958,33.4839,0.485828,-0.236527,-0.0863155,0.00529507,482,499,103.381,24.0471,247.755,170.05,143.03,134.676,0.000132066,0.000135169,0.000458362
-1.71496,8.28659,-295.385,3.94005,-1.0795,-0.339856,-0.00501659,0.0017107,0.000179496,0.00171548,-0.00502137,1.54414,0.00606392,635.113,-87.889,34.826,0.483095,-0.239418,-0.0763374,0.00526466,489,499,103.305,23.9378,249.607,170.649,144.945,135.413,0.000127754,0.00013401,0.000443058
-1.41764,8.274,-295.313,3.93689,-1.07491,-0.332691,-0.00495874,0.00173417,0.00019524,0.00173987,-0.00496443,1.54166,0.00602579,634.731,-87.8212,35.5653,0.475774,-0.241059,-0.0675811,0.00514791,496,499,103.236,23.8309,251.368,171.262,146.761,136.155,0.000124968,0.000131615,0.000432311
-1.12235,8.26158,-295.247,3.93387,-1.07057,-0.324962,-0.00487496,0.00175403,0.000216092,0.00176107,-0.00488199,1.53824,0.00596094,634.441,-87.8311,36.8185,0.467935,-0.24127,-0.0586262,0.00507447,503,499,103.165,23.7284,253.029,171.87,148.47,136.884,0.000125232,0.000130347,0.000432134
-0.827304,8.2493,-295.181,3.93075,-1.06617,-0.317165,-0.00476829,0.00177091,0.000240426,0.00177974,-0.00477712,1.5341,0.00587285,634.282,-88.0583,38.7185,0.461939,-0.240162,-0.0493315,0.00510596,510,499,103.092,23.6254,254.681,172.467,150.171,137.605,0.000129648,0.000130477,0.000446765
-0.5316,8.23698,-295.112,3.92746,-1.0615,-0.309312,-0.00464571,0.0017859,0.000270267,0.00179723,-0.00465705,1.52887,0.00576957,634.186,-88.3012,40.7235,0.452668,-0.23729,-0.0423557,0.00527316,517,499,103.014,23.5191,256.377,173.06,151.918,138.332,0.000135219,0.000128921,0.000464186
-0.235171,8.22463,-295.039,3.9241,-1.05661,-0.301527,-0.00451386,0.0017987,0.000303596,0.00181327,-0.00452842,1.52285,0.00565737,633.989,-88.4398,42.4664,0.436991,-0.232952,-0.039509,0.00545399,524,499,102.937,23.4091,258.121,173.648,153.713,139.062,0.000139888,0.000126556,0.000479077
0.0609817,8.21225,-294.967,3.92081,-1.05177,-0.294067,-0.00436874,0.0018083,0.00033298,0.00182619,-0.00438663,1.5171,0.00553068,633.729,-88.4577,43.708,0.423403,-0.225233,-0.0378577,0.00562096,531,499,102.865,23.3002,259.858,174.24,155.5,139.794,0.000143711,0.000127066,0.000491386
0.356616,8.19996,-294.895,3.91766,-1.04694,-0.286868,-0.00423588,0.00181528,0.000361764,0.00183683,-0.00425744,1.51129,0.00541479,633.536,-88.6219,44.6754,0.414986,-0.214559,-0.040387,0.00564892,538,499,102.798,23.1912,261.574,174.826,157.265,140.52,0.000144239,0.000131381,0.000493815
0.651592,8.18775,-294.825,3.91471,-1.04211,-0.279655,-0.00411311,0.00182023,0.000390584,0.00184583,-0.00413871,1.50534,0.00530805,633.484,-88.7042,45.3764,0.40843,-0.202234,-0.0435384,0.00654031,545,499,102.735,23.0819,263.267,175.408,159.001,141.242,0.000175218,0.000157493,0.000581428
0.945511,8.1757,-294.758,3.9118,-1.03744,-0.272541,-0.00397802,0.00182439,0.000418236,0.00185438,-0.00400801,1.49921,0.00518992,633.617,-88.6333,45.598,0.391385,-0.189933,-0.0445845,0.00736618,552,499,102.674,22.9788,264.907,175.981,160.682,141.953,0.000209665,0.000183508,0.000679894
1.23812,8.16356,-294.694,3.90903,-1.03287,-0.264811,-0.0038298,0.00183004,0.000445568,0.0018649,-0.00386466,1.49271,0.00506168,633.636,-88.4917,46.4468,0.361784,-0.178574,-0.0475024,0.00816519,559,499,102.612,22.8794,266.487,176.558,162.295,142.666,0.000245728,0.00020515,0.000786958
1.52919,8.15161,-294.635,3.90642,-1.0285,-0.256896,-0.00370525,0.00184126,0.000479713,0.00188245,-0.00374643,1.48515,0.00496304,633.415,-88.4345,47.8214,0.327141,-0.168779,-0.0619057,0.00875966,566,499,102.551,22.7808,267.989,177.131,163.824,143.365,0.000266363,0.000213423,0.000853057
1.81984,8.13936,-294.577,3.90382,-1.02381,-0.249341,-0.00363386,0.00186208,0.000536747,0.00191401,-0.00368579,1.47435,0.00492982,632.909,-88.4997,49.98,0.280363,-0.162206,-0.0936075,0.00875507,573,499,102.493,22.6632,269.47,177.719,165.336,144.08,0.000259752,0.00020233,0.000836764
0,0,0,0,0,0,0,0,0,0,0,0,0,0,0,0,0,0,0,-1,580,499,0,0,0,0,0,0,0,0,0
0,0,0,0,0,0,0,0,0,0,0,0,0,0,0,0,0,0,0,-1,587,499,0,0,0,0,0,0,0,0,0
0,0,0,0,0,0,0,0,0,0,0,0,0,0,0,0,0,0,0,-1,594,499,0,0,0,0,0,0,0,0,0
0,0,0,0,0,0,0,0,0,0,0,0,0,0,0,0,0,0,0,-1,601,499,0,0,0,0,0,0,0,0,0
0,0,0,0,0,0,0,0,0,0,0,0,0,0,0,0,0,0,0,-1,62,506,0,0,0,0,0,0,0,0,0
0,0,0,0,0,0,0,0,0,0,0,0,0,0,0,0,0,0,0,-1,69,506,0,0,0,0,0,0,0,0,0
0,0,0,0,0,0,0,0,0,0,0,0,0,0,0,0,0,0,0,-1,76,506,0,0,0,0,0,0,0,0,0
-18.9125,8.73259,-298.134,4.09092,-1.26514,-0.60725,-0.00566049,0.00199394,0.00148768,0.00227292,-0.00593946,1.38543,0.0073446,644.279,-80.7682,-60.7893,0.564893,-0.0390579,-0.0434921,0.00459735,83,506,106.428,28.0311,158.749,135.722,48.7482,94.8322,0.000116579,0.000117604,0.00041917
-18.6305,8.7201,-298.145,4.08924,-1.26412,-0.607091,-0.00564711,0.0019899,0.00140019,0.00223852,-0.00589573,1.39507,0.00727793,644.496,-80.9307,-59.5562,0.537785,-0.0571118,-0.0880393,0.00465762,90,506,106.404,28.01,159.54,136.364,49.6744,95.5194,0.000121169,0.000117809,0.000433736
-18.3486,8.70779,-298.157,4.0876,-1.26307,-0.606488,-0.00568191,0.00197203,0.00133321,0.00219761,-0.00590748,1.40318,0.00726018,644.742,-81.0996,-58.3374,0.511959,-0.0731999,-0.119846,0.00473737,97,506,106.377,27.9905,160.324,136.992,50.5884,96.1965,0.000125149,0.000117902,0.000445899
-18.0658,8.69588,-298.165,4.08613,-1.26209,-0.605181,-0.00574532,0.00194428,0.0012812,0.00215213,-0.00595317,1.40997,0.00727214,645.014,-81.2701,-56.509,0.484644,-0.0885529,-0.1431,0.00471989,104,506,106.35,27.974,161.16,137.604,51.5441,96.8548,0.000125392,0.000114868,0.00044399
-17.7849,8.68422,-298.179,4.08478,-1.26117,-0.603996,-0.00581874,0.00191001,0.00124067,0.00210429,-0.00601301,1.41547,0.0072964,645.279,-81.5316,-54.3235,0.457712,-0.10362,-0.158543,0.00469413,111,506,106.326,27.9592,161.906,138.2,52.4078,97.4959,0.000125703,0.000112351,0.000442333
-17.5039,8.67248,-298.193,4.08323,-1.2602,-0.602747,-0.00588137,0.00187246,0.00120716,0.00205605,-0.00606496,1.41987,0.00731306,645.536,-81.8416,-52.0253,0.432809,-0.117467,-0.166726,0.00479348,118,506,106.296,27.9405,162.642,138.801,53.2653,98.1412,0.00012916,0.000114346,0.00045033
-17.2209,8.66046,-298.2,4.08148,-1.25898,-0.600623,-0.00592095,0.00183339,0.00117914,0.00200873,-0.00609629,1.42318,0.00731065,645.669,-82.1034,-50.0664,0.411195,-0.128306,-0.17006,0.00490132,125,506,106.257,27.9159,163.478,139.414,54.2202,98.8047,0.000132441,0.000118962,0.00045935
-16.9352,8.64849,-298.199,4.07978,-1.25762,-0.598161,-0.0059371,0.00179335,0.00115705,0.00196281,-0.00610657,1.42537,0.00728896,645.726,-82.3239,-48.4647,0.39226,-0.134965,-0.171407,0.00486701,132,506,106.22,27.8904,164.446,140.026,55.3012,99.4711,0.000131442,0.000119485,0.000455937
-16.6477,8.63636,-298.192,4.07797,-1.25612,-0.595505,-0.00593319,0.00175444,0.00113473,0.00191843,-0.00609718,1.42727,0.00724934,645.706,-82.521,-47.2345,0.371886,-0.138524,-0.174373,0.00470209,139,506,106.181,27.8633,165.501,140.645,56.469,100.149,0.000126607,0.000115468,0.000440137
-16.3586,8.62411,-298.18,4.07601,-1.25457,-0.592991,-0.00591536,0.00171394,0.00111647,0.00187396,-0.00607539,1.42843,0.00719772,645.653,-82.6547,-45.8808,0.350009,-0.138406,-0.174197,0.00449183,146,506,106.141,27.8346,166.63,141.273,57.713,100.837,0.00011997,0.000110675,0.000417543
-16.0687,8.61181,-298.165,4.07396,-1.25278,-0.590989,-0.00588246,0.00167418,0.00110085,0.00183128,-0.00603957,1.42904,0.00713373,645.586,-82.8795,-44.2515,0.330415,-0.133301,-0.170929,0.00436227,153,506,106.104,27.8008,167.789,141.897,58.9922,101.528,0.000115924,0.000109233,0.000401994
-15.7781,8.59945,-298.148,4.07192,-1.25084,-0.588912,-0.00583328,0.00163702,0.00108781,0.0017922,-0.00598846,1.4291,0.00705735,645.54,-82.9972,-42.4138,0.314063,-0.123758,-0.165327,0.0043463,160,506,106.068,27.763,168.981,142.523,60.302,102.224,0.000115368,0.000111362,0.000399402
-15.4871,8.58717,-298.129,4.06994,-1.24896,-0.586495,-0.00576486,0.00160222,0.00107307,0.00175534,-0.00591797,1.42906,0.0069636,645.47,-83.1474,-40.1871,0.296728,-0.111064,-0.157015,0.00440275,167,506,106.031,27.7239,170.201,143.15,61.6359,102.917,0.000115686,0.00011451,0.000400551
-15.1959,8.57512,-298.109,4.06811,-1.24708,-0.583503,-0.00567928,0.00156975,0.00105552,0.00172032,-0.00582985,1.42911,0.00685389,645.459,-83.2744,-38.0785,0.277873,-0.0965206,-0.147384,0.00443468,174,506,105.995,27.6837,171.435,143.768,62.9733,103.599,0.0001171,0.000115536,0.000406123
-14.9037,8.56316,-298.086,4.06639,-1.24507,-0.580181,-0.00558761,0.00153763,0.00103623,0.00168527,-0.00573525,1.42927,0.00673785,645.451,-83.4682,-36.0312,0.261774,-0.0822285,-0.137289,0.00455275,181,506,105.96,27.6398,172.727,144.38,64.3624,104.277,0.000120933,0.000118089,0.000420728
-14.6095,8.55098,-298.056,4.06455,-1.24275,-0.576657,-0.00549618,0.00150403,0.00101278,0.00164761,-0.00563976,1.42996,0.00661919,645.421,-83.6531,-34.2348,0.252755,-0.0688554,-0.125536,0.00467686,188,506,105.923,27.5883,174.118,145,65.8493,104.972,0.000122854,0.00012126,0.000428016
-14.3126,8.53845,-298.016,4.06244,-1.24001,-0.573206,-0.0054132,0.00146924,0.000984922,0.00160741,-0.00555138,1.43142,0.00650576,645.215,-83.8326,-32.8164,0.251732,-0.0583447,-0.112293,0.00480645,195,506,105.882,27.5287,175.638,145.632,67.4704,105.69,0.000123427,0.000124464,0.000430021
-14.0138,8.52562,-297.971,4.06035,-1.23718,-0.569129,-0.00535517,0.00143255,0.000953069,0.00156383,-0.00548645,1.43391,0.00641301,644.944,-83.9162,-31.38,0.254782,-0.0523677,-0.0983794,0.00496301,202,506,105.84,27.4658,177.26,146.284,69.1869,106.429,0.00012547,0.000128621,0.000436878
-13.7147,8.51291,-297.924,4.05819,-1.23433,-0.56484,-0.00533586,0.00139251,0.000916214,0.00151504,-0.00545839,1.43785,0.00635288,644.697,-83.9988,-29.5675,0.260847,-0.0510288,-0.0877494,0.00513624,209,506,105.796,27.4024,178.902,146.93,70.9218,107.162,0.000132073,0.000133358,0.000458432
-13.4144,8.50049,-297.872,4.05596,-1.23139,-0.560719,-0.00536144,0.00134879,0.000875946,0.00146125,-0.0054739,1.44311,0.00633227,644.459,-84.1073,-27.5402,0.271466,-0.0541144,-0.0843295,0.00539294,216,506,105.752,27.3392,180.604,147.56,72.7173,107.882,0.000140597,0.000139736,0.000485616
-13.1139,8.48826,-297.82,4.05369,-1.22841,-0.556678,-0.00541998,0.00130328,0.000836088,0.00140569,-0.00552239,1.44891,0.00634315,644.101,-84.1354,-25.978,0.286467,-0.0612381,-0.0877812,0.00554638,223,506,105.709,27.2785,182.314,148.177,74.5223,108.594,0.00014524,0.000142757,0.00050087
-12.8132,8.47613,-297.766,4.05137,-1.22519,-0.552931,-0.00548798,0.00125911,0.000799301,0.00135251,-0.00558137,1.45448,0.00636631,643.686,-84.1949,-24.6246,0.299982,-0.0722684,-0.0965041,0.00552978,230,506,105.668,27.2164,184.042,148.778,76.3466,109.301,0.000143394,0.0001429,0.000494583
-12.5131,8.4637,-297.714,4.04931,-1.22198,-0.548755,-0.00555155,0.00121798,0.000764627,0.00130327,-0.00563684,1.45971,0.00638896,643.441,-84.2279,-23.0455,0.309831,-0.0849578,-0.109368,0.00549164,237,506,105.63,27.1503,185.744,149.398,78.134,110.023,0.000141742,0.000141988,0.000489079
-12.2157,8.45107,-297.669,4.0476,-1.21886,-0.542545,-0.00561256,0.00118111,0.000733154,0.00125933,-0.00569078,1.46451,0.00641385,643.439,-84.2052,-21.3576,0.322588,-0.0968783,-0.128369,0.00677375,244,506,105.583,27.0948,187.339,150.018,79.791,110.75,0.000179218,0.000176825,0.000613249
-11.9214,8.43877,-297.633,4.04589,-1.21586,-0.536254,-0.00568285,0.00114894,0.00070506,0.00122094,-0.00575485,1.46902,0.00645255,643.452,-84.1646,-19.5637,0.339667,-0.107979,-0.153339,0.00794513,251,506,105.533,27.0433,188.778,150.617,81.2916,111.453,0.000215627,0.000206435,0.000734456
-11.628,8.42669,-297.6,4.04361,-1.21331,-0.531075,-0.00576522,0.00111759,0.000685532,0.0011852,-0.00583283,1.47248,0.0065069,643.386,-84.2303,-17.8016,0.353946,-0.114733,-0.176034,0.00853714,258,506,105.478,26.9957,190.143,151.22,82.743,112.143,0.00023528,0.000225188,0.000801437
-11.3339,8.41443,-297.564,4.0406,-1.21097,-0.527535,-0.00584881,0.00109178,0.000668309,0.00115554,-0.00591258,1.47567,0.00656705,643.25,-84.476,-16.1756,0.361017,-0.11678,-0.193941,0.00784333,265,506,105.417,26.9379,191.515,151.853,84.2343,112.844,0.000212947,0.000208553,0.000729282
-11.0377,8.40205,-297.521,4.03722,-1.2084,-0.52504,-0.00590997,0.00107404,0.000650089,0.00113404,-0.00596997,1.47877,0.00661035,643.036,-84.7486,-14.2727,0.364379,-0.113947,-0.206252,0.00655326,272,506,105.358,26.8645,192.981,152.501,85.8358,113.557,0.00016968,0.000170431,0.000586226
-10.7382,8.38942,-297.466,4.03422,-1.20522,-0.521416,-0.00591911,0.0010622,0.000618253,0.00111653,-0.00597344,1.48315,0.00660289,642.757,-85.0447,-12.3595,0.371418,-0.107569,-0.213429,0.00510127,279,506,105.303,26.784,194.637,153.147,87.6039,114.29,0.000131325,0.000130795,0.000458786
-10.4385,8.37684,-297.41,4.03172,-1.20159,-0.516695,-0.00587238,0.0010536,0.000572783,0.00110065,-0.00591943,1.48884,0.0065396,642.391,-85.2935,-10.8126,0.381555,-0.0986711,-0.214321,0.00500589,286,506,105.253,26.7006,196.337,153.772,89.3914,115.021,0.000129968,0.000127898,0.000451091
-10.1393,8.36454,-297.355,4.02944,-1.19821,-0.511167,-0.00579057,0.00104052,0.000530485,0.00108147,-0.00583152,1.49375,0.00644071,642.205,-85.4624,-9.23964,0.386827,-0.0883372,-0.20807,0.00513799,293,506,105.203,26.626,198.023,154.387,91.1526,115.737,0.000134847,0.000132002,0.000467066
-9.83932,8.35207,-297.297,4.027,-1.19464,-0.505901,-0.00570378,0.00102974,0.000499662,0.00106661,-0.00574065,1.49713,0.00634159,642.057,-85.5852,-7.34743,0.385646,-0.0778287,-0.194927,0.0051972,300,506,105.152,26.5463,199.749,155.008,92.9577,116.464,0.000136353,0.000134151,0.000471511
-9.53512,8.34007,-297.225,4.02395,-1.19079,-0.500794,-0.00559432,0.0010178,0.000462324,0.00104996,-0.00562649,1.50133,0.00621832,641.822,-85.6299,-5.54019,0.389603,-0.0699555,-0.182111,0.00507758,307,506,105.092,26.4576,201.686,155.611,94.9886,117.177,0.000132602,0.000131149,0.000458477
-9.22129,8.32768,-297.12,4.02006,-1.18599,-0.495719,-0.00546921,0.00100683,0.000423426,0.00103439,-0.00549677,1.50578,0.00608032,641.439,-85.6073,-3.59926,0.39433,-0.0650913,-0.169893,0.00479895,314,506,105.022,26.3481,204.118,156.232,97.5285,117.933,0.000123232,0.000124802,0.000425462
-8.89987,8.31479,-296.99,4.0155,-1.1801,-0.490414,-0.00534941,0.00099679,0.000391147,0.00102081,-0.00537342,1.50947,0.00594987,640.795,-85.3752,-1.69694,0.396356,-0.0644249,-0.158084,0.0046487,321,506,104.94,26.2188,206.948,156.864,100.475,118.734,0.000115802,0.000121169,0.000399707
-8.576,8.30139,-296.85,4.01112,-1.17406,-0.485259,-0.00526054,0.000989177,0.000370024,0.00101101,-0.00528238,1.51186,0.00585373,640.113,-85.1783,0.0335872,0.398051,-0.0681695,-0.149293,0.0051076,328,506,104.868,26.0916,209.925,157.52,103.561,119.567,0.000120615,0.000133367,0.000417025
-8.25636,8.2884,-296.723,4.00778,-1.16991,-0.479987,-0.00520829,0.000986419,0.000360389,0.00100731,-0.00522918,1.51288,0.00579883,639.717,-85.1586,1.83746,0.401888,-0.0749927,-0.14463,0.00546823,335,506,104.819,26.0115,212.717,158.201,106.436,120.371,0.000130533,0.00014246,0.000451669
-7.94209,8.27242,-296.612,4.00507,-1.16682,-0.474031,-0.00518565,0.000991339,0.000361586,0.00101243,-0.00520674,1.51252,0.00577985,639.555,-85.2895,3.71307,0.404048,-0.084871,-0.142558,0.00528787,342,506,104.777,25.9486,215.245,159.065,109.03,121.32,0.000130664,0.000136325,0.000452616
0,0,0,0,0,0,0,0,0,0,0,0,0,0,0,0,0,0,0,-1,349,506,0,0,0,0,0,0,0,0,0
-7.42847,8.2551,-296.77,4.00439,-1.16401,-0.463405,-0.00523336,0.00103022,0.00039423,0.00105493,-0.00525807,1.50819,0.00585723,639.847,-85.8862,6.35189,0.394426,-0.109496,-0.136963,0.00495724,356,506,104.697,25.8643,214.252,159.823,108.135,122.18,0.0001289,0.000118154,0.000447399
-7.13695,8.24266,-296.733,4.00208,-1.16104,-0.457288,-0.00526747,0.00106643,0.000415742,0.0010936,-0.00529464,1.50553,0.00591772,639.715,-86.1245,7.6752,0.399056,-0.121168,-0.138422,0.00485917,363,506,104.64,25.8005,215.576,160.441,109.526,122.89,0.000126496,0.000116086,0.000438991
-6.84035,8.23019,-296.679,3.99932,-1.15755,-0.450733,-0.00528692,0.00110593,0.000435951,0.00113552,-0.00531652,1.50302,0.00596588,639.451,-86.3036,8.82772,0.410655,-0.132068,-0.140592,0.00497323,370,506,104.574,25.7247,217.171,161.062,111.192,123.614,0.000130784,0.000121321,0.000453213
-6.54209,8.21747,-296.618,3.99641,-1.15377,-0.44402,-0.00530243,0.00114854,0.000452293,0.0011801,-0.00533399,1.50114,0.00601155,639.176,-86.4053,10.0724,0.421785,-0.142465,-0.139663,0.00508149,377,506,104.505,25.64,218.858,161.693,112.951,124.356,0.000136,0.000126337,0.000470265
-6.24172,8.20435,-296.549,3.99324,-1.1495,-0.437104,-0.00532503,0.00119523,0.000468343,0.0012287,-0.0053585,1.49946,0.00606689,638.959,-86.4521,11.6233,0.428714,-0.151828,-0.133902,0.00514668,384,506,104.432,25.5434,220.662,162.339,114.828,125.124,0.000135719,0.000128519,0.000468322
-5.93863,8.19175,-296.471,3.9898,-1.14497,-0.429945,-0.00533331,0.00124549,0.000473873,0.00127945,-0.00536727,1.49926,0.00610833,638.695,-86.4881,13.2799,0.435602,-0.159199,-0.127283,0.00514423,391,506,104.352,25.4389,222.617,162.96,116.859,125.873,0.000131273,0.00012912,0.000452555
-5.63064,8.1795,-296.375,3.98571,-1.14009,-0.423091,-0.00529653,0.00129911,0.000456185,0.00133051,-0.00532793,1.50207,0.00610295,638.296,-86.4578,14.8373,0.446054,-0.166136,-0.123127,0.00506453,398,506,104.265,25.3261,224.831,163.568,119.164,126.616,0.000126346,0.000127136,0.000435996
-5.32002,8.16665,-296.269,3.98079,-1.13485,-0.417475,-0.00519002,0.00134355,0.000414765,0.00136977,-0.00521625,1.50765,0.00601918,637.86,-86.356,16.4811,0.456422,-0.170583,-0.122466,0.00485452,405,506,104.169,25.2086,227.166,164.2,121.619,127.398,0.000124059,0.000121629,0.000429699
-5.0098,8.15448,-296.164,3.97596,-1.12948,-0.412265,-0.00508446,0.00138446,0.000379601,0.00140666,-0.00510666,1.51238,0.00593633,637.618,-86.3471,18.3615,0.45831,-0.173868,-0.124223,0.00473152,412,506,104.077,25.0929,229.491,164.788,124.063,128.144,0.000123474,0.000119031,0.000428995
-4.70325,8.14266,-296.07,3.97213,-1.12446,-0.405679,-0.00499317,0.00142137,0.000345027,0.00143988,-0.00501167,1.51721,0.00586569,637.381,-86.4407,20.1345,0.461159,-0.177405,-0.129834,0.00469116,419,506,103.998,24.9813,231.661,165.363,126.316,128.864,0.000123289,0.000118823,0.000428917
-4.4015,8.13049,-295.991,3.96946,-1.11974,-0.397274,-0.00493158,0.0014561,0.00030831,0.00147094,-0.00494643,1.52268,0.00582295,637.159,-86.6793,21.4662,0.468321,-0.181871,-0.137229,0.00457721,426,506,103.931,24.8759,233.619,165.954,128.313,129.591,0.000121282,0.000117816,0.000422129
-4.10464,8.11835,-295.928,3.96715,-1.11545,-0.389721,-0.00489271,0.00148812,0.000269228,0.00149946,-0.00490405,1.5287,0.00580099,636.911,-86.8694,22.5714,0.47208,-0.187729,-0.141256,0.00454945,433,506,103.875,24.777,235.314,166.546,130.048,130.305,0.000119877,0.000115995,0.000417171
-3.80905,8.10609,-295.869,3.96474,-1.11125,-0.382544,-0.00487027,0.00151812,0.000229511,0.00152635,-0.00487851,1.53493,0.00579447,636.671,-86.9461,24.1213,0.468935,-0.194745,-0.140047,0.00454907,440,506,103.818,24.6796,236.938,167.144,131.716,131.022,0.000118362,0.000114817,0.000411291
-3.51409,8.09372,-295.811,3.96215,-1.10717,-0.375782,-0.00486508,0.00154733,0.000193718,0.00155318,-0.00487093,1.54062,0.00580549,636.497,-86.9684,26.1237,0.46602,-0.201926,-0.135803,0.00456991,447,506,103.76,24.583,238.523,167.751,133.356,131.744,0.000118143,0.000114861,0.000409335
-3.21903,8.08139,-295.752,3.95952,-1.10309,-0.368626,-0.00487407,0.00157654,0.000164745,0.00158074,-0.00487827,1.54528,0.0058316,636.215,-86.9772,28.4806,0.468277,-0.209254,-0.130589,0.00462221,454,506,103.698,24.4864,240.122,168.357,135.005,132.465,0.000119503,0.000118565,0.000412774
-2.92269,8.06928,-295.688,3.95639,-1.09885,-0.361554,-0.0048964,0.00160603,0.000143312,0.00160918,-0.00489955,1.54877,0.00587191,635.871,-87.1373,30.2272,0.470889,-0.217807,-0.122976,0.00481804,461,506,103.626,24.3897,241.787,168.949,136.732,133.178,0.000123431,0.00012332,0.000425554
-2.62468,8.05706,-295.617,3.95289,-1.09432,-0.354228,-0.00493321,0.00163643,0.000132274,0.00163909,-0.00493587,1.55067,0.00592788,635.529,-87.3977,31.5073,0.467617,-0.228255,-0.110754,0.00508253,468,506,103.546,24.2885,243.547,169.542,138.56,133.903,0.000129015,0.000128198,0.000445224
-2.32493,8.04469,-295.539,3.94908,-1.08955,-0.346853,-0.00497364,0.00166758,0.000130432,0.00167014,-0.0049762,1.55117,0.00598856,635.303,-87.6644,32.6525,0.463565,-0.238516,-0.0955066,0.00515737,475,506,103.46,24.1837,245.407,170.14,140.491,134.64,0.000131082,0.000132292,0.000453265
-2.02481,8.03229,-295.459,3.9454,-1.08466,-0.339265,-0.00499292,0.00169663,0.000136658,0.00169942,-0.00499571,1.55038,0.00602785,635.17,-87.7949,34.1586,0.464995,-0.246785,-0.0814164,0.00520841,482,506,103.377,24.0754,247.301,170.739,142.451,135.38,0.000130754,0.000133735,0.000453034
-1.7255,8.02006,-295.38,3.94207,-1.07985,-0.332023,-0.00497582,0.00172254,0.000149711,0.00172588,-0.00497916,1.54846,0.00603027,634.893,-87.7463,35.2532,0.467119,-0.252712,-0.0709651,0.00521711,489,506,103.304,23.9663,249.166,171.332,144.374,136.111,0.00012613,0.000132777,0.000437065
-1.42801,8.00779,-295.308,3.93908,-1.07524,-0.324683,-0.00492224,0.00174508,0.000168147,0.00174932,-0.00492648,1.5456,0.00599569,634.471,-87.6451,36.0643,0.465658,-0.256928,-0.0618934,0.00515847,496,506,103.238,23.8575,250.944,171.933,146.201,136.84,0.000123153,0.000130676,0.000426069
-1.13286,7.99565,-295.242,3.93602,-1.07092,-0.317305,-0.00484119,0.00176442,0.000190594,0.00176992,-0.00484669,1.54198,0.00593306,634.159,-87.6659,37.3814,0.463783,-0.25879,-0.052835,0.00517238,503,506,103.169,23.7555,252.593,172.529,147.902,137.556,0.00012512,0.000131386,0.000432226
-0.838429,7.98342,-295.179,3.93285,-1.0666,-0.309468,-0.00473723,0.00178115,0.000215662,0.00178828,-0.00474436,1.53776,0.00584731,634.022,-87.8811,39.6421,0.464251,-0.258521,-0.0434754,0.00522226,510,506,103.093,23.6543,254.21,173.128,149.569,138.276,0.000131341,0.000133068,0.000452685
-0.543491,7.97122,-295.112,3.92947,-1.06204,-0.301909,-0.00461822,0.001796,0.000246437,0.00180546,-0.00462768,1.53245,0.00574718,633.88,-88.1158,41.6458,0.461321,-0.255417,-0.036452,0.00530766,517,506,103.015,23.5501,255.856,173.718,151.272,138.996,0.000136595,0.000131622,0.000469369
-0.247994,7.95895,-295.043,3.92619,-1.05727,-0.294156,-0.00449154,0.00180941,0.000281183,0.00182194,-0.00450407,1.52629,0.00564023,633.622,-88.3201,43.2249,0.451128,-0.24961,-0.0336416,0.00543499,524,506,102.94,23.443,257.548,174.306,153.013,139.723,0.000140088,0.000128776,0.000480707
0.0472915,7.94684,-294.973,3.92316,-1.05251,-0.286364,-0.00435315,0.00182006,0.000312188,0.0018358,-0.0043689,1.5204,0.00552068,633.301,-88.3928,44.3625,0.442218,-0.239417,-0.0322545,0.00555755,531,506,102.871,23.3373,259.244,174.886,154.751,140.441,0.000142321,0.000128728,0.000488467
0.342258,7.93481,-294.904,3.92022,-1.04782,-0.279177,-0.00422808,0.00182871,0.000342951,0.00184806,-0.00424743,1.51441,0.00541346,633.14,-88.6688,45.6213,0.437307,-0.225493,-0.0343259,0.00559161,538,506,102.808,23.2308,260.927,175.465,156.478,141.154,0.000142038,0.000131263,0.00048779
0.636433,7.92278,-294.837,3.91744,-1.04313,-0.272262,-0.00411457,0.00183606,0.000373822,0.00185945,-0.00413796,1.5083,0.00531738,633.126,-88.7738,46.2678,0.433236,-0.209666,-0.0358656,0.00655055,545,506,102.752,23.1239,262.575,176.042,158.166,141.867,0.000173742,0.000157616,0.000577261
0.929837,7.91074,-294.772,3.91456,-1.03847,-0.265273,-0.00399247,0.00184323,0.000403522,0.001871,-0.00402024,1.50208,0.0052139,633.301,-88.7189,46.2786,0.418838,-0.1933,-0.0343334,0.00747075,552,506,102.692,23.0203,264.183,176.617,159.817,142.579,0.000211831,0.000184289,0.000687404
1.22231,7.89873,-294.709,3.9117,-1.03384,-0.257709,-0.00386269,0.0018521,0.000433012,0.00188472,-0.00389531,1.4956,0.0051056,633.44,-88.6182,46.7393,0.39384,-0.176771,-0.0337801,0.00831077,559,506,102.628,22.9186,265.75,177.189,161.421,143.287,0.000250974,0.000206012,0.000803787
1.51345,7.88687,-294.65,3.90893,-1.02942,-0.250159,-0.00376088,0.00186578,0.000470289,0.00190482,-0.00379992,1.48798,0.00503049,633.401,-88.4418,47.9738,0.366277,-0.160723,-0.0430165,0.00880439,566,506,102.566,22.8177,267.249,177.76,162.954,143.985,0.000270868,0.000210292,0.000865493
1.80515,7.87499,-294.588,3.9062,-1.02472,-0.242766,-0.0037118,0.00188626,0.00053233,0.00193643,-0.00376197,1.47683,0.00501866,633.055,-88.4645,49.9318,0.32785,-0.148048,-0.0671111,0.0086432,573,506,102.507,22.7002,268.788,178.334,164.528,144.685,0.000260124,0.00019666,0.00083473
0,0,0,0,0,0,0,0,0,0,0,0,0,0,0,0,0,0,0,-1,580,506,0,0,0,0,0,0,0,0,0
0,0,0,0,0,0,0,0,0,0,0,0,0,0,0,0,0,0,0,-1,587,506,0,0,0,0,0,0,0,0,0
0,0,0,0,0,0,0,0,0,0,0,0,0,0,0,0,0,0,0,-1,594,506,0,0,0,0,0,0,0,0,0
0,0,0,0,0,0,0,0,0,0,0,0,0,0,0,0,0,0,0,-1,601,506,0,0,0,0,0,0,0,0,0
0,0,0,0,0,0,0,0,0,0,0,0,0,0,0,0,0,0,0,-1,62,513,0,0,0,0,0,0,0,0,0
0,0,0,0,0,0,0,0,0,0,0,0,0,0,0,0,0,0,0,-1,69,513,0,0,0,0,0,0,0,0,0
0,0,0,0,0,0,0,0,0,0,0,0,0,0,0,0,0,0,0,-1,76,513,0,0,0,0,0,0,0,0,0
-18.9219,8.46025,-298.125,4.09112,-1.26542,-0.600301,-0.00551352,0.00206931,0.00145053,0.00233731,-0.00578152,1.3881,0.00723894,644.065,-80.6876,-60.1836,0.590896,-0.0380925,-0.0654443,0.0044879,83,513,106.38,28.0508,158.263,136.617,48.1993,95.7625,0.000115264,0.000114864,0.00041522
-18.6387,8.44796,-298.133,4.0896,-1.26424,-0.599829,-0.00550896,0.00206617,0.00138306,0.00231078,-0.00575358,1.39574,0.00719296,644.238,-80.8384,-58.9776,0.555748,-0.0516666,-0.100806,0.00449415,90,513,106.358,28.0275,159.121,137.243,49.1844,96.44,0.000116147,0.000114726,0.000417003
-18.3557,8.43583,-298.142,4.08818,-1.2631,-0.599023,-0.00555567,0.00205108,0.00133487,0.00227852,-0.00578312,1.40203,0.00719813,644.474,-80.9884,-57.8125,0.524849,-0.0653768,-0.125362,0.00452817,97,513,106.336,28.0055,159.968,137.862,50.1533,97.1083,0.000118622,0.000114803,0.000423393
-18.0732,8.424,-298.151,4.08689,-1.26216,-0.597687,-0.00563234,0.002027,0.00129796,0.00224097,-0.00584631,1.40741,0.00723206,644.733,-81.1346,-56.1139,0.49389,-0.0795042,-0.142914,0.00457298,104,513,106.313,27.9874,160.796,138.471,51.0955,97.7601,0.000120372,0.000114015,0.000426166
-17.7932,8.41238,-298.168,4.0856,-1.2614,-0.596435,-0.00571945,0.00199699,0.00126808,0.00220003,-0.00592249,1.41202,0.00727638,644.993,-81.3721,-54.1241,0.464018,-0.0941277,-0.154114,0.00462947,111,513,106.289,27.9742,161.502,139.068,51.9172,98.3961,0.000123488,0.000112493,0.000433484
-17.5132,8.40081,-298.184,4.08408,-1.26053,-0.595144,-0.00579493,0.00196382,0.00124103,0.00215749,-0.0059886,1.41599,0.00731016,645.262,-81.7183,-51.9798,0.436361,-0.107895,-0.159798,0.00474576,118,513,106.259,27.9568,162.189,139.659,52.7259,99.0285,0.000127887,0.000113771,0.000444834
-17.2311,8.38891,-298.194,4.08236,-1.25936,-0.593064,-0.0058463,0.00192879,0.0012162,0.00211459,-0.0060321,1.4192,0.0073221,645.434,-82.0522,-49.9473,0.412042,-0.118693,-0.162194,0.00478262,125,513,106.221,27.9343,162.983,140.265,53.6389,99.683,0.000129332,0.000116934,0.000448166
-16.9465,8.37703,-298.197,4.08062,-1.25809,-0.590821,-0.00587304,0.00189217,0.00119475,0.00207184,-0.00605271,1.42154,0.00731218,645.547,-82.321,-48.1654,0.390903,-0.125343,-0.163321,0.00469891,132,513,106.183,27.9105,163.892,140.87,54.6649,100.341,0.000126755,0.00011672,0.00044015
-16.6603,8.36494,-298.194,4.07879,-1.25664,-0.588352,-0.00587681,0.00185602,0.00117232,0.00202984,-0.00605063,1.4236,0.00728095,645.612,-82.5329,-46.6731,0.367669,-0.128772,-0.165554,0.00451889,139,513,106.144,27.8849,164.883,141.484,55.7705,101.013,0.000121515,0.000113336,0.000423555
-16.3723,8.35266,-298.185,4.07677,-1.25512,-0.586047,-0.00586302,0.00181762,0.00115144,0.00198652,-0.00603192,1.42515,0.00723277,645.617,-82.6777,-45.1633,0.343088,-0.128767,-0.165454,0.00438485,146,513,106.103,27.8564,165.951,142.112,56.9578,101.699,0.000116911,0.000110034,0.000407437
-16.0828,8.34055,-298.172,4.07479,-1.25333,-0.583867,-0.00583061,0.00177935,0.00113107,0.0019439,-0.00599516,1.42633,0.00716761,645.537,-82.823,-43.5141,0.321847,-0.124098,-0.163081,0.00431413,153,513,106.066,27.822,167.095,142.726,58.2192,102.38,0.00011425,0.000108496,0.000396896
-15.7924,8.32827,-298.155,4.07279,-1.25142,-0.581697,-0.005779,0.00174342,0.0011123,0.00190444,-0.00594002,1.42703,0.00708683,645.426,-82.9357,-41.8392,0.304877,-0.115274,-0.158845,0.0043376,160,513,106.03,27.785,168.284,143.348,59.5245,103.071,0.00011533,0.00010974,0.000399802
-15.5005,8.31603,-298.133,4.07082,-1.24948,-0.579143,-0.00570473,0.00170932,0.00109203,0.00186682,-0.00586223,1.42756,0.0069853,645.259,-83.0512,-39.6701,0.28775,-0.103392,-0.152059,0.0043674,167,513,105.994,27.7452,169.548,143.973,60.8996,103.763,0.000116319,0.000111415,0.000403391
-15.2081,8.30384,-298.109,4.06895,-1.24752,-0.576011,-0.00560942,0.00167673,0.00106996,0.00183061,-0.0057633,1.42796,0.00686418,645.161,-83.1716,-37.5635,0.269295,-0.089537,-0.143866,0.00447678,174,513,105.957,27.7029,170.841,144.599,62.2952,104.454,0.000120149,0.000113231,0.000416952
-14.9142,8.29179,-298.081,4.0671,-1.24536,-0.572686,-0.00550574,0.00164392,0.00104806,0.00179439,-0.00565621,1.4282,0.00673513,645.146,-83.4234,-35.4096,0.253706,-0.0761716,-0.134923,0.00465002,181,513,105.921,27.6554,172.218,145.217,63.7713,105.141,0.000125139,0.000116532,0.000435556
-14.6183,8.27938,-298.045,4.06507,-1.24284,-0.569324,-0.00540296,0.00160971,0.00102412,0.00175621,-0.00554946,1.42871,0.00660506,645.096,-83.6191,-33.5577,0.246114,-0.0640667,-0.123949,0.0047789,188,513,105.882,27.6005,173.687,145.848,65.3415,105.852,0.000128539,0.000121442,0.000447688
-14.3198,8.26679,-298.001,4.06293,-1.23997,-0.565541,-0.00531124,0.00157501,0.000998057,0.00171675,-0.00545297,1.42973,0.0064841,644.883,-83.8232,-31.9957,0.247727,-0.0549016,-0.110935,0.0049384,195,513,105.84,27.5379,175.293,146.484,67.0455,106.578,0.00013062,0.000127338,0.000454049
-14.0196,8.25411,-297.951,4.06074,-1.23701,-0.56157,-0.00524731,0.00153943,0.000970355,0.00167544,-0.00538333,1.43153,0.00638802,644.584,-83.9426,-30.4579,0.253903,-0.049906,-0.0969699,0.00519266,202,513,105.798,27.4732,176.987,147.128,68.8351,107.313,0.000134419,0.000134935,0.00046581
-13.7191,8.2416,-297.9,4.05855,-1.23401,-0.557367,-0.00522452,0.00150108,0.00093891,0.00162969,-0.00535313,1.43466,0.00632739,644.28,-83.9919,-28.6888,0.263091,-0.0489254,-0.0861796,0.00541048,209,513,105.754,27.4079,178.698,147.763,70.6397,108.039,0.00014153,0.000140929,0.000488854
-13.4178,8.22932,-297.845,4.05632,-1.23093,-0.553448,-0.00524953,0.00145887,0.000903762,0.0015785,-0.00536916,1.4392,0.0063083,643.975,-84.0644,-26.8431,0.276015,-0.0518918,-0.0822846,0.00559884,216,513,105.714,27.343,180.448,148.384,72.4839,108.756,0.000147524,0.000144586,0.000508206
-13.1167,8.2173,-297.791,4.05421,-1.2278,-0.549221,-0.00531116,0.0014147,0.000867127,0.00152469,-0.00542116,1.44462,0.00632291,643.536,-84.1038,-25.579,0.292272,-0.0587326,-0.0848945,0.00561904,223,513,105.674,27.2808,182.204,148.988,74.3278,109.46,0.00014786,0.000144618,0.00050992
-12.8166,8.20517,-297.739,4.05228,-1.22454,-0.54469,-0.00538454,0.00137142,0.000831158,0.00147218,-0.0054853,1.45017,0.00635068,643.159,-84.1773,-24.1867,0.306668,-0.0694415,-0.0926951,0.0055113,230,513,105.636,27.2173,183.915,149.589,76.1185,110.167,0.000143901,0.000142072,0.000496498
-12.5174,8.19278,-297.689,4.05033,-1.22137,-0.540115,-0.00545469,0.00133067,0.000795275,0.00142263,-0.00554665,1.45567,0.0063781,642.983,-84.1897,-22.5227,0.316699,-0.0816081,-0.105334,0.00544947,237,513,105.597,27.1505,185.579,150.209,77.8634,110.886,0.000139859,0.000140597,0.000482878
-12.2211,8.18021,-297.647,4.04849,-1.21821,-0.534002,-0.00552318,0.00129312,0.000761136,0.00137708,-0.00560713,1.46093,0.00640763,643.034,-84.101,-20.734,0.329421,-0.0929197,-0.124521,0.0069024,244,513,105.547,27.0991,187.116,150.819,79.4656,111.609,0.000179928,0.000181808,0.000614752
-11.9272,8.16802,-297.613,4.04657,-1.2154,-0.527769,-0.0056006,0.0012589,0.000729407,0.00133561,-0.0056773,1.46602,0.00644967,643.103,-84.0173,-18.931,0.34556,-0.10325,-0.149465,0.00824411,251,513,105.492,27.0518,188.527,151.418,80.9446,112.306,0.000224086,0.000222566,0.000761371
-11.6343,8.15599,-297.581,4.04426,-1.21281,-0.522247,-0.00568771,0.0012247,0.000704195,0.00129571,-0.00575872,1.4703,0.0065041,643.128,-84.0565,-17.1973,0.358078,-0.10986,-0.172428,0.00876,258,513,105.433,27.0079,189.872,152.013,82.3744,112.993,0.000242652,0.000239986,0.000825803
-11.34,8.14382,-297.545,4.04119,-1.21063,-0.518872,-0.00577411,0.00119461,0.000679224,0.00126019,-0.00583969,1.47454,0.00656119,643.012,-84.3508,-15.5403,0.363964,-0.112471,-0.190626,0.00822274,265,513,105.373,26.9504,191.25,152.652,83.8748,113.691,0.000218564,0.000218564,0.000748483
-11.0433,8.13166,-297.5,4.03779,-1.20805,-0.516713,-0.00583871,0.00117155,0.000652763,0.00123181,-0.00589898,1.47874,0.00660165,642.781,-84.6003,-13.5009,0.36678,-0.110989,-0.202942,0.00688951,272,513,105.316,26.8748,192.737,153.291,85.5,114.394,0.000180441,0.000178469,0.000622182
-10.7433,8.11925,-297.444,4.03472,-1.20483,-0.513129,-0.0058532,0.00115367,0.000613965,0.00120706,-0.00590659,1.48405,0.00659352,642.483,-84.9539,-11.4804,0.373322,-0.106497,-0.209707,0.00515123,279,513,105.261,26.7926,194.424,153.929,87.3007,115.118,0.000137382,0.000129623,0.000479482
-10.4431,8.10677,-297.386,4.03232,-1.20115,-0.508013,-0.0058093,0.00113588,0.000562197,0.0011811,-0.00585451,1.49054,0.00652572,642.169,-85.1687,-9.80881,0.382747,-0.0997141,-0.21004,0.00508153,286,513,105.211,26.7066,196.152,154.552,89.1107,115.847,0.000134372,0.000126557,0.000466036
-10.1443,8.09464,-297.333,4.03008,-1.19775,-0.502508,-0.00572602,0.00111046,0.000515164,0.00114907,-0.00576463,1.496,0.00641679,642.009,-85.3508,-8.28242,0.387686,-0.0919307,-0.202809,0.0052622,293,513,105.162,26.6333,197.821,155.157,90.8535,116.555,0.000138713,0.00013373,0.000480436
-9.84621,8.0824,-297.281,4.02782,-1.19434,-0.497326,-0.00563624,0.00108985,0.000480066,0.00112394,-0.00567033,1.4999,0.00630785,641.867,-85.5166,-6.46773,0.386742,-0.083972,-0.188639,0.00531821,300,513,105.114,26.5566,199.455,155.769,92.5641,117.268,0.000139066,0.000138083,0.000481098
-9.5468,8.07043,-297.224,4.02515,-1.19078,-0.492514,-0.00552531,0.00106982,0.000439163,0.00109894,-0.00555443,1.5046,0.00617764,641.651,-85.6652,-4.90978,0.391557,-0.0787845,-0.174409,0.0051933,307,513,105.061,26.4733,201.147,156.369,94.3452,117.97,0.000132881,0.000135429,0.000459754
-9.23658,8.05863,-297.131,4.02163,-1.18647,-0.487306,-0.00540275,0.00105176,0.000397898,0.0010762,-0.00542719,1.50946,0.00603766,641.264,-85.6905,-3.08824,0.39721,-0.0762985,-0.160715,0.00485586,314,513,104.995,26.3726,203.4,156.97,96.6974,118.69,0.000125057,0.000126449,0.000432333
-8.91655,8.04586,-297.005,4.01713,-1.18101,-0.482114,-0.00528768,0.00103659,0.000363718,0.00105744,-0.00530853,1.51354,0.00590865,640.624,-85.4684,-1.24931,0.400496,-0.0773317,-0.148098,0.00465145,321,513,104.916,26.2532,206.156,157.61,99.5704,119.485,0.000118782,0.000120892,0.000410518
-8.59353,8.03281,-296.868,4.01262,-1.17495,-0.477246,-0.0052036,0.00102647,0.000340441,0.00104502,-0.00522214,1.51637,0.00581551,639.971,-85.1641,0.463933,0.402572,-0.0814919,-0.139445,0.00501536,328,513,104.841,26.1241,209.082,158.252,102.612,120.304,0.000122142,0.000130371,0.000422724
-8.27386,8.02012,-296.741,4.00903,-1.17035,-0.472061,-0.00515553,0.00102373,0.000327797,0.00104107,-0.00517287,1.51795,0.00576435,639.533,-85.1203,2.28319,0.404641,-0.0876241,-0.135293,0.00549731,335,513,104.786,26.0341,211.867,158.907,105.487,121.097,0.000133767,0.000142015,0.000463488
-7.96639,8.00536,-296.653,4.00652,-1.16688,-0.466095,-0.00513597,0.00103105,0.000324809,0.00104811,-0.00515303,1.51832,0.00574919,639.358,-85.2392,4.14416,0.404417,-0.096089,-0.1338,0.00543478,342,513,104.741,25.9593,214.037,159.681,107.722,121.969,0.000134861,0.000136597,0.00046786
0,0,0,0,0,0,0,0,0,0,0,0,0,0,0,0,0,0,0,-1,349,513,0,0,0,0,0,0,0,0,0
-7.42898,7.98568,-296.732,4.00513,-1.16315,-0.454704,-0.00518694,0.00107985,0.000342915,0.00109856,-0.00520565,1.51629,0.00583304,639.513,-85.777,6.85826,0.392456,-0.116207,-0.131873,0.00510847,356,513,104.664,25.8602,214.312,160.596,108.089,123.004,0.000131135,0.000121269,0.00045543
-7.14164,7.97346,-296.709,4.00319,-1.16055,-0.448773,-0.00521928,0.00112199,0.000355748,0.00114188,-0.00523917,1.51493,0.00589367,639.476,-85.9602,8.1175,0.395577,-0.125182,-0.135343,0.00503921,363,513,104.613,25.8043,215.42,161.203,109.259,123.693,0.000129574,0.000123433,0.000449617
-6.84755,7.96121,-296.663,4.00069,-1.15745,-0.442162,-0.00523261,0.00116749,0.000366707,0.00118843,-0.00525355,1.51375,0.00593765,639.296,-86.1284,9.49463,0.404327,-0.133193,-0.13886,0.005027,370,513,104.551,25.7353,216.888,161.82,110.792,124.401,0.000130862,0.000126816,0.00045318
-6.55083,7.94899,-296.607,3.9978,-1.15386,-0.43591,-0.00523691,0.0012153,0.000372943,0.00123679,-0.0052584,1.51325,0.0059736,639.049,-86.2564,11.0231,0.413639,-0.140755,-0.138964,0.0050873,377,513,104.485,25.6552,218.49,162.429,112.47,125.115,0.000133342,0.000130105,0.000460806
-6.25048,7.93622,-296.539,3.99452,-1.14961,-0.429185,-0.0052458,0.00126582,0.000378341,0.00128773,-0.00526771,1.51295,0.00601584,638.809,-86.354,12.6617,0.421389,-0.14763,-0.134135,0.00516454,384,513,104.41,25.5588,220.289,163.061,114.347,125.868,0.000132865,0.000130518,0.000458268
-5.94555,7.92402,-296.454,3.99091,-1.1449,-0.422082,-0.00524376,0.00131951,0.000375423,0.00134092,-0.00526517,1.51384,0.00604816,638.483,-86.3966,14.1963,0.43018,-0.152863,-0.127675,0.00518612,391,513,104.329,25.452,222.342,163.662,116.479,126.603,0.000129382,0.000130684,0.000446074
-5.63667,7.91157,-296.355,3.98671,-1.13987,-0.415408,-0.00520057,0.0013745,0.000351443,0.00139324,-0.0052193,1.51755,0.00603771,638.012,-86.3338,15.4502,0.441498,-0.157956,-0.123093,0.00506591,398,513,104.241,25.3367,224.602,164.281,118.833,127.362,0.00012589,0.000126996,0.000434556
-5.32589,7.89902,-296.249,3.98179,-1.13444,-0.410388,-0.00508651,0.00141252,0.000306608,0.00142695,-0.00510095,1.52376,0.0059443,637.616,-86.2438,17.1331,0.45218,-0.161469,-0.121145,0.00479286,405,513,104.149,25.2179,226.943,164.894,121.298,128.133,0.000123608,0.000119796,0.000428286
-5.01635,7.8872,-296.145,3.97733,-1.12917,-0.404725,-0.00497569,0.00144614,0.000272033,0.00145765,-0.0049872,1.52854,0.00585375,637.268,-86.2232,18.8328,0.45401,-0.164258,-0.121762,0.00467489,412,513,104.064,25.1027,229.246,165.471,123.707,128.864,0.000123772,0.0001163,0.000430571
-4.71164,7.87548,-296.058,3.97398,-1.12428,-0.397548,-0.00487996,0.00147575,0.000240698,0.00148485,-0.00488906,1.533,0.00577644,637.083,-86.3643,20.6228,0.456302,-0.167899,-0.126081,0.00460237,419,513,103.991,24.9942,231.333,166.044,125.86,129.577,0.000122408,0.000113333,0.000426171
-4.41252,7.86296,-295.988,3.97161,-1.1198,-0.389106,-0.004816,0.00150325,0.00021026,0.00151024,-0.00482299,1.53757,0.0057294,636.88,-86.61,21.9314,0.461197,-0.173203,-0.131935,0.00458152,426,513,103.929,24.8926,233.152,166.658,127.712,130.318,0.000121966,0.000112025,0.000424867
-4.11687,7.85079,-295.929,3.96935,-1.11573,-0.381747,-0.00477883,0.00152818,0.000180111,0.00153332,-0.00478397,1.54227,0.00570725,636.662,-86.8044,23.1919,0.461753,-0.180739,-0.134691,0.00459319,433,513,103.874,24.7984,234.778,167.257,129.379,131.033,0.000122093,0.000111503,0.000424831
-3.82264,7.83853,-295.875,3.96696,-1.11181,-0.374844,-0.00476313,0.00155161,0.000150607,0.0015552,-0.00476672,1.54696,0.00570557,636.448,-86.8894,24.9618,0.455481,-0.189726,-0.133411,0.00460558,440,513,103.818,24.7056,236.324,167.863,130.973,131.748,0.000122352,0.000111769,0.000424702
-3.52855,7.8263,-295.82,3.96441,-1.10787,-0.368064,-0.0047696,0.00157509,0.00012531,0.00157757,-0.00477208,1.55106,0.00572623,636.214,-86.8915,26.942,0.449149,-0.198744,-0.129952,0.00460072,447,513,103.76,24.612,237.861,168.467,132.564,132.463,0.000122263,0.000112587,0.000423007
-3.23334,7.8141,-295.76,3.96166,-1.10372,-0.360974,-0.00479214,0.00159965,0.000107047,0.00160144,-0.00479393,1.55405,0.00576399,635.91,-86.9097,29.1305,0.447735,-0.207861,-0.125191,0.0046276,454,513,103.696,24.5148,239.466,169.067,134.222,133.179,0.00012314,0.000115625,0.000425133
-2.93634,7.80206,-295.694,3.95852,-1.09935,-0.353715,-0.00482681,0.00162508,9.62888e-05,0.00162652,-0.00482824,1.55588,0.0058147,635.539,-87.0632,30.751,0.447202,-0.218448,-0.117,0.00481628,461,513,103.624,24.4163,241.17,169.656,135.986,133.893,0.000125871,0.000120573,0.00043365
-2.6377,7.78999,-295.621,3.955,-1.09479,-0.346307,-0.00487423,0.00165187,9.40989e-05,0.00165322,-0.00487559,1.55638,0.00587919,635.243,-87.3539,31.881,0.442836,-0.231027,-0.104633,0.0050316,468,513,103.543,24.3139,242.966,170.245,137.848,134.614,0.00012871,0.00012488,0.000443123
-2.33725,7.77776,-295.54,3.95122,-1.09006,-0.338767,-0.00492277,0.00168038,9.87698e-05,0.00168186,-0.00492425,1.55584,0.00594632,635.068,-87.6001,33.1847,0.439464,-0.243527,-0.0901657,0.00512933,475,513,103.458,24.2086,244.868,170.844,139.819,135.348,0.000130247,0.00012929,0.000448886
-2.03626,7.76549,-295.457,3.94749,-1.08518,-0.331638,-0.00494802,0.0017075,0.000109036,0.00170929,-0.0049498,1.55442,0.00599023,634.958,-87.6638,34.6757,0.442786,-0.253713,-0.0770755,0.00507899,482,513,103.377,24.1,246.807,171.444,141.828,136.088,0.00012963,0.000130695,0.000447744
-1.7365,7.7534,-295.377,3.94423,-1.08031,-0.324391,-0.00493495,0.00173181,0.00012437,0.00173413,-0.00493727,1.55215,0.00599547,634.711,-87.5862,35.8218,0.44877,-0.261476,-0.0670902,0.00508304,489,513,103.307,23.9915,248.7,172.031,143.777,136.816,0.000125949,0.000129381,0.000435547
-1.43894,7.74139,-295.304,3.94133,-1.07564,-0.317067,-0.00488423,0.00175334,0.00014388,0.00175645,-0.00488734,1.54913,0.00596286,634.28,-87.4823,36.704,0.452669,-0.267456,-0.0583908,0.00507431,496,513,103.244,23.8843,250.486,172.617,145.609,137.533,0.000123847,0.00012892,0.000427845
-1.1444,7.72947,-295.241,3.93842,-1.07136,-0.309661,-0.00480536,0.00177211,0.000166527,0.00177632,-0.00480958,1.5455,0.00590176,633.97,-87.5188,38.0688,0.456475,-0.270643,-0.0496263,0.00510777,503,513,103.178,23.7836,252.105,173.203,147.276,138.239,0.000125114,0.000129615,0.000431401
-0.850959,7.71734,-295.181,3.93514,-1.06712,-0.302123,-0.00470504,0.00178839,0.000191612,0.00179404,-0.00471069,1.54132,0.00581897,633.842,-87.7271,40.1874,0.463231,-0.271253,-0.04038,0.0051753,510,513,103.101,23.6841,253.659,173.799,148.886,138.953,0.000131078,0.000131672,0.00045134
-0.556912,7.70539,-295.118,3.93177,-1.06268,-0.29487,-0.00459154,0.00180273,0.000222905,0.00181049,-0.0045993,1.53599,0.0057235,633.647,-87.9328,42.1354,0.466766,-0.268252,-0.0332511,0.00528307,517,513,103.024,23.5826,255.251,174.379,150.538,139.66,0.00013634,0.000131448,0.000469306
-0.262254,7.69337,-295.052,3.92855,-1.05798,-0.287122,-0.00447224,0.00181614,0.000258646,0.00182676,-0.00448286,1.52976,0.00562337,633.314,-88.1045,43.8005,0.462623,-0.261748,-0.0299975,0.00534235,524,513,102.949,23.4787,256.896,174.956,152.232,140.374,0.000138514,0.000129203,0.000476702
0.0329372,7.68148,-294.983,3.92558,-1.05328,-0.279159,-0.00434331,0.00182731,0.000291185,0.00184102,-0.00435702,1.52375,0.00551311,632.934,-88.25,44.9412,0.459176,-0.250399,-0.0282276,0.00540296,531,513,102.881,23.3743,258.59,175.529,153.963,141.083,0.0001388,0.000129246,0.000477637
0.327402,7.66949,-294.915,3.92283,-1.04867,-0.271833,-0.00422921,0.00183692,0.000324104,0.00185419,-0.00424647,1.51757,0.00541704,632.733,-88.4979,46.2554,0.45885,-0.234701,-0.0289275,0.00546282,538,513,102.822,23.2687,260.249,176.111,155.661,141.796,0.000138685,0.000132236,0.000476636
0.621316,7.65759,-294.849,3.92013,-1.04401,-0.265077,-0.00412845,0.00184567,0.000357591,0.001867,-0.00414977,1.51122,0.00533422,632.735,-88.7362,47.2168,0.4585,-0.216697,-0.0277656,0.00621447,545,513,102.768,23.1639,261.882,176.683,157.334,142.503,0.000162857,0.000151965,0.000544478
0.914365,7.6458,-294.785,3.91739,-1.03937,-0.257814,-0.00402333,0.00185438,0.000390066,0.00188016,-0.0040491,1.50482,0.00524816,632.892,-88.7492,47.4624,0.44855,-0.197541,-0.0224206,0.0070465,552,513,102.71,23.0575,263.475,177.251,158.964,143.204,0.000196357,0.000173437,0.000642614
1.20648,7.63394,-294.724,3.91447,-1.03482,-0.25031,-0.00391729,0.00186452,0.000422392,0.00189521,-0.00394798,1.49825,0.0051634,633.02,-88.6413,47.906,0.430573,-0.177158,-0.0169656,0.00788734,559,513,102.645,22.9541,265.018,177.822,160.546,143.906,0.000232423,0.000191038,0.000751329
1.49835,7.62195,-294.662,3.91163,-1.03024,-0.242811,-0.00384396,0.00187785,0.000462951,0.00191506,-0.00388118,1.49058,0.00511505,633.07,-88.5172,48.9945,0.413108,-0.156303,-0.019022,0.00834903,566,513,102.583,22.8508,266.557,178.399,162.121,144.614,0.000249525,0.000194855,0.000803926
1.79045,7.61003,-294.599,3.90885,-1.02557,-0.235367,-0.00382143,0.00189451,0.00052843,0.00194295,-0.00386987,1.47938,0.00512542,632.913,-88.4751,50.6203,0.387681,-0.138532,-0.0329008,0.00817047,573,513,102.523,22.736,268.119,178.979,163.717,145.321,0.000240088,0.000183154,0.000776737
0,0,0,0,0,0,0,0,0,0,0,0,0,0,0,0,0,0,0,-1,580,513,0,0,0,0,0,0,0,0,0
0,0,0,0,0,0,0,0,0,0,0,0,0,0,0,0,0,0,0,-1,587,513,0,0,0,0,0,0,0,0,0
0,0,0,0,0,0,0,0,0,0,0,0,0,0,0,0,0,0,0,-1,594,513,0,0,0,0,0,0,0,0,0
0,0,0,0,0,0,0,0,0,0,0,0,0,0,0,0,0,0,0,-1,601,513,0,0,0,0,0,0,0,0,0
0,0,0,0,0,0,0,0,0,0,0,0,0,0,0,0,0,0,0,-1,62,520,0,0,0,0,0,0,0,0,0
0,0,0,0,0,0,0,0,0,0,0,0,0,0,0,0,0,0,0,-1,69,520,0,0,0,0,0,0,0,0,0
0,0,0,0,0,0,0,0,0,0,0,0,0,0,0,0,0,0,0,-1,76,520,0,0,0,0,0,0,0,0,0
-18.9347,8.18825,-298.127,4.09135,-1.26599,-0.593548,-0.00539274,0.00215252,0.00140682,0.00240629,-0.00564651,1.39233,0.00715964,643.917,-80.5981,-59.5807,0.600619,-0.0388655,-0.0854703,0.00447161,83,520,106.33,28.0761,157.612,137.496,47.4887,96.6694,0.000114759,0.000113963,0.000412556
-18.6496,8.17636,-298.129,4.0899,-1.26467,-0.592803,-0.00539845,0.00214482,0.00136358,0.00238374,-0.00563738,1.39734,0.00713444,644.048,-80.7666,-58.227,0.559772,-0.0483887,-0.112257,0.00444619,90,520,106.31,28.0504,158.567,138.101,48.5659,97.3284,0.000112121,0.000113603,0.000402347
-18.3655,8.1644,-298.134,4.08866,-1.2635,-0.591645,-0.00545469,0.00212828,0.00133674,0.00235703,-0.00568343,1.40132,0.00715912,644.241,-80.9132,-57.0039,0.52627,-0.059695,-0.12987,0.00446486,97,520,106.291,28.0268,159.479,138.713,49.5913,97.9892,0.000112617,0.000114234,0.000401654
-18.0839,8.15257,-298.147,4.08756,-1.26259,-0.590228,-0.00553966,0.00210497,0.00131627,0.00232526,-0.00575995,1.40497,0.00720952,644.446,-81.0682,-55.5671,0.494045,-0.0723582,-0.141658,0.00446595,104,520,106.271,28.0066,160.27,139.322,50.4911,98.6375,0.00011492,0.000114494,0.000406484
-17.8052,8.14081,-298.167,4.0864,-1.26194,-0.58891,-0.00563452,0.00207737,0.00129763,0.00228986,-0.00584701,1.40849,0.00726772,644.685,-81.2809,-53.9087,0.463303,-0.0860206,-0.148419,0.00452793,111,520,106.249,27.9944,160.911,139.926,51.2454,99.2756,0.000119908,0.000113873,0.000419989
-17.5264,8.12935,-298.188,4.08491,-1.26115,-0.587645,-0.00571699,0.00204725,0.00127728,0.00225197,-0.00592172,1.41187,0.00731257,644.949,-81.6687,-52.0514,0.434628,-0.0989976,-0.151429,0.00464362,118,520,106.219,27.9803,161.543,140.508,51.9979,99.8976,0.000124591,0.000114525,0.000432637
-17.2452,8.11758,-298.2,4.08319,-1.26007,-0.585695,-0.00577484,0.00201514,0.0012557,0.00221255,-0.00597225,1.41486,0.00733328,645.163,-82.0262,-50.0371,0.408861,-0.10899,-0.152809,0.00463425,125,520,106.181,27.9614,162.291,141.103,52.8663,100.542,0.000125296,0.000117167,0.000433574
-16.9621,8.10553,-298.207,4.08136,-1.25887,-0.583674,-0.00580775,0.001981,0.00123472,0.00217205,-0.0059988,1.41728,0.00733029,645.363,-82.3153,-48.0589,0.386213,-0.114917,-0.153827,0.00458488,132,520,106.142,27.94,163.125,141.714,53.8218,101.204,0.000123701,0.000117575,0.000428546
-16.6764,8.09331,-298.206,4.07948,-1.25746,-0.581435,-0.00581621,0.00194656,0.00121203,0.0021314,-0.00600105,1.41946,0.00730384,645.561,-82.5076,-46.1355,0.360858,-0.117605,-0.155523,0.00447369,139,520,106.103,27.9137,164.086,142.335,54.9006,101.881,0.00012045,0.000115071,0.00041851
-16.388,8.08111,-298.196,4.07753,-1.25587,-0.578964,-0.0058045,0.00190976,0.00118815,0.00208862,-0.00598335,1.42139,0.0072567,645.577,-82.6517,-44.528,0.334514,-0.117157,-0.155675,0.00441051,146,520,106.063,27.8814,165.176,142.959,56.1074,102.562,0.00011796,0.000111759,0.000409926
-16.0977,8.06912,-298.18,4.07554,-1.254,-0.576785,-0.00577156,0.00187248,0.00116235,0.00204532,-0.0059444,1.42318,0.0071887,645.508,-82.7928,-42.867,0.312591,-0.112575,-0.154353,0.00433881,153,520,106.027,27.8444,166.363,143.567,57.4105,103.238,0.000115542,0.00010887,0.000401514
-15.8064,8.05695,-298.16,4.07362,-1.25205,-0.574331,-0.00571726,0.00183702,0.00113719,0.00200449,-0.00588474,1.42458,0.0071024,645.374,-82.9076,-41.2353,0.295724,-0.104182,-0.151665,0.00436697,160,520,105.991,27.8064,167.596,144.185,58.7553,103.925,0.000116496,0.000108847,0.000404872
-15.5134,8.04479,-298.135,4.0717,-1.25003,-0.571472,-0.00563806,0.00180286,0.00111099,0.0019652,-0.0058004,1.4257,0.00699325,645.12,-83.0045,-39.2064,0.279511,-0.0929123,-0.146743,0.00438845,167,520,105.955,27.7657,168.92,144.807,60.1859,104.616,0.000117691,0.000109587,0.000409404
-15.2193,8.03253,-298.106,4.06979,-1.24793,-0.568145,-0.00553537,0.00176947,0.00108452,0.00192709,-0.00569298,1.42648,0.00686255,644.969,-83.1316,-36.9356,0.262319,-0.0796911,-0.140262,0.00454572,174,520,105.918,27.7212,170.304,145.436,61.6706,105.314,0.000122208,0.000112069,0.000424817
-14.9237,8.0203,-298.073,4.06778,-1.24557,-0.564991,-0.00542283,0.00173546,0.0010604,0.00188924,-0.00557661,1.42678,0.00672334,644.864,-83.3516,-34.7955,0.248048,-0.0672863,-0.132594,0.00474642,181,520,105.88,27.6705,171.758,146.061,63.2277,106.015,0.000127546,0.000115632,0.000444747
-14.626,8.00769,-298.031,4.06561,-1.24289,-0.561671,-0.00531205,0.00170029,0.00103655,0.00185031,-0.00546206,1.42707,0.00658516,644.785,-83.5754,-32.7623,0.24252,-0.05669,-0.122503,0.00499303,188,520,105.84,27.612,173.316,146.703,64.8899,106.741,0.000134398,0.000123879,0.000467029
-14.3257,7.99513,-297.982,4.06342,-1.23986,-0.557578,-0.00521506,0.00166528,0.00101291,0.0018113,-0.00536108,1.42762,0.00646007,644.551,-83.7894,-30.9979,0.247009,-0.0492042,-0.109856,0.00518697,195,520,105.796,27.5471,175.012,147.339,66.6815,107.47,0.000138308,0.000131892,0.000478998
-14.0237,7.98279,-297.926,4.0611,-1.23685,-0.553583,-0.00514786,0.00163051,0.000990004,0.00177214,-0.00528949,1.4287,0.0063634,644.205,-83.9137,-29.3366,0.25625,-0.0454742,-0.0959628,0.005457,202,520,105.753,27.4816,176.799,147.97,68.5659,108.193,0.000144157,0.000141587,0.000496819
-13.7219,7.97049,-297.871,4.05881,-1.23378,-0.549555,-0.00512237,0.00159381,0.000964805,0.00172966,-0.00525822,1.43091,0.00630361,643.844,-83.9573,-27.6078,0.268299,-0.045205,-0.0849456,0.00565358,209,520,105.71,27.4165,178.573,148.596,70.4364,108.913,0.000150166,0.000146888,0.000516554
-13.421,7.95847,-297.817,4.05673,-1.23065,-0.545692,-0.00514561,0.00155346,0.000935691,0.0016817,-0.00527384,1.43459,0.00628574,643.499,-84.0081,-26.0673,0.28315,-0.0484867,-0.0802987,0.00580721,216,520,105.673,27.3508,180.313,149.203,72.2665,109.617,0.000154198,0.000148636,0.000529942
-13.1219,7.94687,-297.769,4.05491,-1.22752,-0.541334,-0.00520779,0.00151145,0.000903308,0.00163077,-0.00532711,1.43947,0.00630275,643.189,-84.0452,-24.6307,0.300018,-0.0555202,-0.0815062,0.00566799,223,520,105.638,27.2884,181.97,149.78,74.0034,110.295,0.000150034,0.000145934,0.000517456
-12.8239,7.93502,-297.724,4.05319,-1.22442,-0.536714,-0.00528402,0.00147002,0.00086913,0.00158007,-0.00539406,1.44485,0.00633369,642.92,-84.0803,-23.3359,0.314461,-0.0664014,-0.087809,0.00548534,230,520,105.603,27.2266,183.585,150.37,75.6932,110.985,0.000143718,0.000141458,0.000496708
-12.527,7.92257,-297.681,4.05129,-1.22142,-0.531988,-0.00535832,0.00143063,0.00083302,0.00153135,-0.00545904,1.45047,0.00636443,642.788,-84.1043,-21.766,0.323718,-0.07879,-0.0994803,0.00535829,237,520,105.561,27.163,185.135,150.994,77.3227,111.703,0.000136634,0.000137664,0.000473004
-12.2321,7.91005,-297.644,4.04924,-1.21856,-0.526184,-0.00543157,0.0013935,0.00079701,0.00148533,-0.00552341,1.45608,0.00639674,642.838,-84.0255,-19.8394,0.335211,-0.0904381,-0.118066,0.00658354,244,520,105.507,27.1138,186.591,151.612,78.8543,112.42,0.000170286,0.000171731,0.000582571
-11.9374,7.89797,-297.607,4.04685,-1.21588,-0.520802,-0.00551321,0.00135844,0.000762408,0.00144202,-0.00559678,1.46162,0.00644004,642.899,-83.982,-18.0235,0.349472,-0.101147,-0.142039,0.00753111,251,520,105.448,27.0662,188.022,152.214,80.3723,113.114,0.000202191,0.000200748,0.000689072
-11.6426,7.88589,-297.569,4.04424,-1.21325,-0.515665,-0.00560267,0.00132271,0.000731987,0.00139924,-0.0056792,1.46663,0.00649289,642.877,-84.075,-16.3528,0.359543,-0.10886,-0.16435,0.0080496,258,520,105.387,27.0183,189.458,152.821,81.9027,113.809,0.000220497,0.000216349,0.000752405
-11.347,7.87384,-297.529,4.0413,-1.21077,-0.511829,-0.00568998,0.00128978,0.000699549,0.0013592,-0.0057594,1.47188,0.00654571,642.771,-84.3056,-14.6291,0.363821,-0.11342,-0.181908,0.00769504,265,520,105.328,26.958,190.911,153.445,83.47,114.504,0.000203134,0.000200716,0.000697005
-11.0494,7.86191,-297.481,4.03831,-1.20789,-0.50871,-0.00575672,0.00126252,0.000664776,0.00132492,-0.00581912,1.4772,0.00658237,642.539,-84.603,-12.657,0.365948,-0.114682,-0.193386,0.00655164,272,520,105.275,26.8825,192.469,154.063,85.1454,115.199,0.000170783,0.000167717,0.000589379
-10.748,7.84956,-297.42,4.03539,-1.20452,-0.504801,-0.00577642,0.00123971,0.000618761,0.00129386,-0.00583057,1.4835,0.00657371,642.265,-84.8765,-10.6242,0.371903,-0.113217,-0.199242,0.00515742,279,520,105.222,26.8016,194.233,154.694,87.0152,115.925,0.00013646,0.000129084,0.000475101
-10.4469,7.83698,-297.36,4.03291,-1.20073,-0.499787,-0.00573698,0.0012142,0.000560906,0.00125917,-0.00578195,1.49079,0.00650361,641.965,-85.0936,-8.94356,0.380653,-0.109409,-0.198641,0.00504296,286,520,105.172,26.7143,196.01,155.323,88.8749,116.663,0.000133415,0.000125935,0.000462521
-10.1476,7.82471,-297.304,4.03068,-1.19722,-0.494212,-0.00565475,0.00117829,0.000509255,0.00121604,-0.0056925,1.49681,0.00638793,641.717,-85.2882,-7.45586,0.385493,-0.104514,-0.190386,0.00520583,293,520,105.124,26.6393,197.709,155.936,90.6467,117.382,0.000137146,0.000132303,0.000475196
-9.85016,7.81257,-297.255,4.02841,-1.19386,-0.489234,-0.00556422,0.00114969,0.000469528,0.00118237,-0.00559689,1.50131,0.00627222,641.568,-85.4775,-5.69272,0.385384,-0.0992012,-0.175547,0.00519533,300,520,105.077,26.5633,199.307,156.544,92.3231,118.089,0.00013461,0.000134377,0.000466299
-9.55182,7.80063,-297.201,4.0259,-1.1905,-0.484171,-0.00545426,0.00112332,0.000425318,0.00115071,-0.00548165,1.50649,0.00613844,641.388,-85.6355,-4.05782,0.391647,-0.0962377,-0.160432,0.0050442,307,520,105.025,26.4828,200.95,157.148,94.0497,118.788,0.000128898,0.000130842,0.000446348
-9.2467,7.78861,-297.125,4.02265,-1.18649,-0.479018,-0.00533671,0.00110003,0.000382014,0.00112262,-0.0053593,1.51172,0.0059999,640.979,-85.6904,-2.37072,0.398956,-0.0953346,-0.14585,0.00477773,314,520,104.961,26.3878,202.939,157.76,96.1353,119.51,0.00012378,0.000123214,0.000428294
-8.93111,7.77637,-297.013,4.01841,-1.1815,-0.473928,-0.00522839,0.00108171,0.00034576,0.0011006,-0.00524728,1.51622,0.00587541,640.377,-85.4818,-0.683099,0.404163,-0.0969953,-0.133025,0.00462896,321,520,104.885,26.2787,205.465,158.378,98.7757,120.271,0.000119805,0.00011652,0.000414369
-8.60951,7.76372,-296.881,4.01392,-1.17559,-0.469113,-0.00515032,0.0010707,0.000319934,0.00108711,-0.00516673,1.51955,0.00578737,639.799,-85.1811,0.98604,0.407042,-0.100479,-0.124976,0.0047777,328,520,104.81,26.1513,208.315,159.006,101.742,121.07,0.000120659,0.000122235,0.000417837
-8.28958,7.75129,-296.753,4.01015,-1.17055,-0.463957,-0.00510624,0.00106913,0.000304002,0.00108406,-0.00512116,1.52173,0.00574048,639.374,-85.0946,2.86239,0.407592,-0.104828,-0.121647,0.00530321,335,520,104.751,26.0486,211.11,159.643,104.631,121.855,0.00013075,0.000133818,0.000453642
-7.98126,7.73843,-296.663,4.00762,-1.1666,-0.457973,-0.00508768,0.00107961,0.000296562,0.00109384,-0.0051019,1.52286,0.0057277,639.132,-85.1706,4.62276,0.405191,-0.110689,-0.121065,0.00539853,342,520,104.705,25.9638,213.33,160.307,106.914,122.633,0.000134512,0.000132039,0.000467097
0,0,0,0,0,0,0,0,0,0,0,0,0,0,0,0,0,0,0,-1,349,520,0,0,0,0,0,0,0,0,0
-7.4294,7.71623,-296.693,4.00579,-1.16225,-0.446143,-0.00513448,0.00113846,0.000299711,0.00115274,-0.00514877,1.52316,0.00581153,639.153,-85.6485,7.36648,0.390332,-0.124475,-0.123264,0.00520343,356,520,104.63,25.8561,214.374,161.373,108.048,123.834,0.000134091,0.00012513,0.000465461
-7.14496,7.70407,-296.68,4.00409,-1.16004,-0.440442,-0.0051612,0.00118557,0.000303688,0.00120007,-0.0051757,1.52309,0.0058685,639.173,-85.8197,8.79926,0.391114,-0.130164,-0.128606,0.00520184,363,520,104.584,25.8069,215.331,161.983,109.064,124.512,0.0001334,0.000129261,0.00046273
-6.85384,7.69211,-296.644,4.00169,-1.15723,-0.434334,-0.00516586,0.00123606,0.000305207,0.00125057,-0.00518038,1.52327,0.00590582,639.054,-85.9988,10.2811,0.396184,-0.134953,-0.133363,0.00515821,370,520,104.526,25.7427,216.638,162.588,110.44,125.199,0.000132379,0.000130741,0.000458452
-6.55864,7.68029,-296.593,3.99902,-1.15387,-0.427801,-0.00515743,0.00128779,0.000301435,0.00130185,-0.0051715,1.52416,0.00593057,638.847,-86.1446,11.9595,0.402959,-0.139585,-0.134365,0.00522981,377,520,104.462,25.6654,218.167,163.183,112.038,125.89,0.000133242,0.000133651,0.000460689
-6.258,7.66818,-296.524,3.99566,-1.14951,-0.421325,-0.00515129,0.00134034,0.000296435,0.00135385,-0.0051648,1.52526,0.00595822,638.58,-86.2464,13.6391,0.410977,-0.144219,-0.130342,0.00520758,384,520,104.387,25.569,219.98,163.777,113.933,126.611,0.00013151,0.000132906,0.000453771
-5.95196,7.65617,-296.435,3.99193,-1.14463,-0.414454,-0.00513851,0.00139539,0.000285496,0.00140784,-0.00515096,1.52721,0.00598048,638.163,-86.259,14.9645,0.421196,-0.147876,-0.124095,0.00519089,391,520,104.306,25.4604,222.09,164.369,116.126,127.343,0.00012892,0.000131358,0.000444805
-5.64296,7.64378,-296.336,3.98772,-1.13948,-0.408232,-0.00509067,0.00144996,0.000256201,0.00145998,-0.00510069,1.53171,0.0059662,637.691,-86.1553,16.1433,0.433077,-0.151897,-0.119031,0.00503403,398,520,104.221,25.3445,224.354,164.983,118.487,128.103,0.000126876,0.000126255,0.000438478
-5.3331,7.63163,-296.233,3.98321,-1.13421,-0.402811,-0.00497491,0.00148105,0.000209576,0.00148785,-0.0049817,1.53838,0.00586882,637.26,-86.0686,17.6251,0.444112,-0.155508,-0.115799,0.00476234,405,520,104.136,25.2279,226.661,165.584,120.904,128.855,0.000124513,0.000117644,0.000432083
-5.02431,7.62002,-296.132,3.9792,-1.12906,-0.396618,-0.00486449,0.00150725,0.000176056,0.00151211,-0.00486935,1.54319,0.00577581,636.939,-86.1379,19.3813,0.446871,-0.159037,-0.115204,0.00458614,412,520,104.057,25.1143,228.94,166.157,123.273,129.576,0.000122069,0.000111779,0.000424804
-4.72169,7.60781,-296.051,3.97619,-1.12426,-0.389107,-0.00477017,0.00152961,0.000148099,0.00153309,-0.00477365,1.5473,0.00569706,636.786,-86.3118,21.1921,0.449951,-0.163986,-0.118191,0.00455967,419,520,103.989,25.008,230.923,166.755,125.311,130.312,0.00012139,0.000108717,0.000422624
-4.42361,7.59527,-295.985,3.97378,-1.11996,-0.381147,-0.00470889,0.00154993,0.000124199,0.0015524,-0.00471135,1.55096,0.00564984,636.605,-86.5482,22.4666,0.453885,-0.171064,-0.122447,0.00463891,426,520,103.928,24.9095,232.68,167.376,127.107,131.054,0.000123349,0.000108385,0.000429318
-4.12879,7.58324,-295.929,3.97153,-1.11607,-0.373837,-0.00467659,0.00156787,0.000103043,0.00156957,-0.00467829,1.5543,0.00562964,636.397,-86.7357,23.8421,0.452779,-0.180696,-0.12414,0.00469493,433,520,103.873,24.8194,234.26,167.973,128.728,131.761,0.000124452,0.00010807,0.000432295
-3.8356,7.57119,-295.878,3.96917,-1.11224,-0.366994,-0.00466943,0.00158492,8.34162e-05,0.00158603,-0.00467054,1.55746,0.00563356,636.169,-86.8092,25.4714,0.445042,-0.191745,-0.123171,0.00474272,440,520,103.818,24.73,235.747,168.569,130.264,132.465,0.000125492,0.00010875,0.000434549
-3.5422,7.55907,-295.826,3.9666,-1.10839,-0.360308,-0.00468869,0.00160244,6.82044e-05,0.00160317,-0.00468943,1.55996,0.00566383,635.93,-86.7813,27.3615,0.436401,-0.20246,-0.121027,0.00481723,447,520,103.759,24.6392,237.244,169.17,131.817,133.173,0.000127963,0.000110399,0.000442148
-3.24718,7.54692,-295.767,3.96379,-1.10429,-0.353349,-0.0047252,0.00162185,5.99913e-05,0.00162242,-0.00472576,1.56135,0.00571246,635.569,-86.794,29.3427,0.431361,-0.212869,-0.117351,0.00489632,454,520,103.695,24.5427,238.836,169.771,133.465,133.889,0.000130191,0.000113038,0.000449574
-2.95004,7.53507,-295.7,3.96075,-1.09994,-0.345921,-0.00477033,0.00164218,5.89523e-05,0.00164272,-0.00477087,1.5616,0.00577035,635.211,-86.9762,30.9186,0.42707,-0.224307,-0.109511,0.00496373,461,520,103.624,24.4446,240.552,170.353,135.237,134.595,0.000131686,0.000118115,0.000454273
-2.65103,7.5233,-295.626,3.95736,-1.09537,-0.338309,-0.00482493,0.00166468,6.45158e-05,0.00166533,-0.00482557,1.56086,0.00583915,634.992,-87.2562,32.2435,0.421167,-0.237388,-0.0980242,0.00505133,468,520,103.546,24.3431,242.375,170.931,137.12,135.304,0.000132676,0.000122912,0.000457231
-2.3497,7.51119,-295.542,3.95352,-1.09062,-0.331038,-0.00487686,0.00168944,7.47798e-05,0.0016903,-0.00487771,1.55941,0.00590711,634.856,-87.4596,33.5849,0.41779,-0.250109,-0.0853192,0.00507596,475,520,103.462,24.2381,244.323,171.529,139.14,136.039,0.000132387,0.00012627,0.000456379
-2.04771,7.49897,-295.456,3.94974,-1.08566,-0.324232,-0.00490394,0.00171364,8.84469e-05,0.00171482,-0.00490512,1.55743,0.00595082,634.729,-87.4802,35.0645,0.4218,-0.260227,-0.0742419,0.0050487,482,520,103.384,24.1288,246.316,172.129,141.206,136.782,0.000131061,0.000125894,0.000452556
-1.74771,7.48687,-295.375,3.94644,-1.08076,-0.3171,-0.0048924,0.00173566,0.000105654,0.00173735,-0.00489408,1.55486,0.00595593,634.482,-87.4113,36.3206,0.430127,-0.267951,-0.0655901,0.0049615,489,520,103.314,24.0184,248.221,172.721,143.168,137.513,0.000128184,0.000124188,0.000442955
-1.45057,7.47482,-295.304,3.94358,-1.07613,-0.30965,-0.0048431,0.00175567,0.000125835,0.00175807,-0.0048455,1.55174,0.00592355,634.148,-87.3716,37.4167,0.438222,-0.274159,-0.0579309,0.00489774,496,520,103.251,23.912,249.985,173.313,144.976,138.235,0.000126146,0.000124857,0.000435276
-1.15715,7.46304,-295.244,3.9408,-1.07192,-0.302459,-0.00476626,0.00177367,0.000148658,0.00177704,-0.00476964,1.54808,0.00586372,633.886,-87.4128,38.677,0.446914,-0.277817,-0.0500148,0.00496915,503,520,103.188,23.8121,251.542,173.893,146.58,138.932,0.000127185,0.000126571,0.000438165
-0.864712,7.45121,-295.188,3.93768,-1.06776,-0.295216,-0.00467072,0.00178961,0.000174034,0.00179429,-0.0046754,1.54388,0.00578515,633.672,-87.5719,40.659,0.45919,-0.278905,-0.0413676,0.00508188,510,520,103.116,23.7147,253.039,174.475,148.133,139.63,0.00013157,0.000129003,0.00045309
-0.571139,7.4397,-295.126,3.9344,-1.0634,-0.287965,-0.00456412,0.00180375,0.000205844,0.00181039,-0.00457077,1.53852,0.00569599,633.428,-87.723,42.4442,0.468412,-0.276146,-0.0344912,0.00522882,517,520,103.042,23.6158,254.607,175.035,149.758,140.315,0.000136035,0.000130314,0.000469089
-0.276901,7.42785,-295.062,3.93117,-1.05875,-0.280311,-0.00445343,0.00181737,0.000242137,0.00182671,-0.00446277,1.53226,0.00560405,633.092,-87.8825,44.1036,0.470012,-0.269542,-0.0309377,0.00525734,524,520,102.967,23.5141,256.227,175.604,151.428,141.021,0.00013709,0.00012895,0.000473192
0.0182583,7.41592,-294.993,3.92815,-1.05401,-0.272408,-0.00433562,0.00182966,0.000275879,0.00184198,-0.00434794,1.52617,0.00550512,632.703,-88.0781,45.4993,0.472154,-0.258491,-0.0289253,0.00525483,531,520,102.898,23.4088,257.916,176.181,153.157,141.735,0.000135328,0.000128519,0.000466547
0.31319,7.40399,-294.924,3.92544,-1.0493,-0.264639,-0.00423423,0.00184066,0.000310364,0.00185648,-0.00425005,1.51988,0.00542213,632.49,-88.3251,46.7201,0.476601,-0.243084,-0.0282661,0.00526146,538,520,102.838,23.3006,259.608,176.763,154.881,142.449,0.000133382,0.000131733,0.000457865
0.607416,7.39213,-294.857,3.92273,-1.04464,-0.257588,-0.00414759,0.00185071,0.00034569,0.00187056,-0.00416745,1.51342,0.0053537,632.391,-88.5457,48.0338,0.480101,-0.225219,-0.0244051,0.00566227,545,520,102.782,23.1933,261.261,177.34,156.572,143.158,0.00014556,0.000143493,0.000490761
0.900395,7.38051,-294.793,3.91988,-1.03998,-0.250488,-0.00406053,0.00186034,0.000379828,0.00188461,-0.0040848,1.50699,0.00528541,632.387,-88.6357,48.8823,0.474966,-0.205661,-0.0154132,0.00622642,552,520,102.722,23.0874,262.846,177.9,158.198,143.851,0.00016823,0.000157074,0.000557748
1.19217,7.36876,-294.733,3.91699,-1.03547,-0.242873,-0.00397927,0.00187035,0.000413449,0.00189942,-0.00400835,1.50058,0.00522381,632.378,-88.5859,49.7766,0.464374,-0.183864,-0.00529311,0.00695941,559,520,102.657,22.9846,264.37,178.469,159.76,144.548,0.0001966,0.000168601,0.000646284
1.48445,7.35715,-294.67,3.91414,-1.03086,-0.235059,-0.00393508,0.00188086,0.000454873,0.00191622,-0.00397044,1.49321,0.00520044,632.445,-88.541,50.9765,0.456977,-0.160428,-0.000201049,0.00739695,566,520,102.593,22.8797,265.937,179.03,161.359,145.241,0.00021018,0.000170841,0.000689687
1.77693,7.3455,-294.605,3.91124,-1.02616,-0.227741,-0.00393843,0.00189023,0.000520149,0.00193628,-0.00398448,1.48249,0.0052288,632.316,-88.5674,52.2867,0.445252,-0.138861,-0.00342896,0.00734904,573,520,102.531,22.7661,267.518,179.597,162.978,145.937,0.000206814,0.000163768,0.000681349
0,0,0,0,0,0,0,0,0,0,0,0,0,0,0,0,0,0,0,-1,580,520,0,0,0,0,0,0,0,0,0
0,0,0,0,0,0,0,0,0,0,0,0,0,0,0,0,0,0,0,-1,587,520,0,0,0,0,0,0,0,0,0
0,0,0,0,0,0,0,0,0,0,0,0,0,0,0,0,0,0,0,-1,594,520,0,0,0,0,0,0,0,0,0
0,0,0,0,0,0,0,0,0,0,0,0,0,0,0,0,0,0,0,-1,601,520,0,0,0,0,0,0,0,0,0
0,0,0,0,0,0,0,0,0,0,0,0,0,0,0,0,0,0,0,-1,62,527,0,0,0,0,0,0,0,0,0
0,0,0,0,0,0,0,0,0,0,0,0,0,0,0,0,0,0,0,-1,69,527,0,0,0,0,0,0,0,0,0
0,0,0,0,0,0,0,0,0,0,0,0,0,0,0,0,0,0,0,-1,76,527,0,0,0,0,0,0,0,0,0
-18.953,7.91653,-298.145,4.09192,-1.26688,-0.58675,-0.00531201,0.00223551,0.00136538,0.00247492,-0.00555141,1.39722,0.00711918,644,-80.6038,-59.1744,0.600432,-0.0365372,-0.0984021,0.0044995,83,527,106.284,28.1068,156.7,138.358,46.5109,97.5492,0.000115289,0.000114588,0.00041299
-18.6678,7.90509,-298.147,4.0905,-1.26559,-0.5859,-0.00532538,0.00222019,0.0013485,0.00245395,-0.00555914,1.39916,0.0071111,644.134,-80.8029,-57.6512,0.554752,-0.0446606,-0.11885,0.00448215,90,527,106.263,28.0812,157.664,138.941,47.5955,98.1842,0.000111841,0.000114484,0.000399251
-18.3838,7.89346,-298.153,4.08929,-1.26446,-0.584605,-0.00538538,0.00219972,0.00134332,0.0024306,-0.00561626,1.40059,0.00714849,644.225,-80.9849,-56.3961,0.519441,-0.0551527,-0.131184,0.0044612,97,527,106.244,28.0573,158.573,139.536,48.6158,98.8258,0.000110653,0.00011432,0.000393503
-18.1021,7.88174,-298.165,4.08824,-1.26354,-0.583163,-0.00547094,0.00217544,0.00133857,0.002403,-0.0056985,1.40241,0.00720699,644.306,-81.1608,-55.1373,0.486921,-0.0671721,-0.138265,0.00444737,104,527,106.226,28.038,159.37,140.137,49.5199,99.4669,0.000112762,0.000114462,0.000397996
-17.8226,7.86968,-298.183,4.08713,-1.26287,-0.5819,-0.00556563,0.00214904,0.00133024,0.00237197,-0.00578856,1.40475,0.00727076,644.474,-81.3669,-53.624,0.456373,-0.0800372,-0.141217,0.00443792,111,527,106.206,28.0271,160.048,140.754,50.3089,100.12,0.000116528,0.000114403,0.000407806
-17.5437,7.85781,-298.203,4.0857,-1.26215,-0.58046,-0.00564787,0.00212083,0.00131595,0.00233769,-0.00586473,1.40747,0.00731914,644.741,-81.7015,-51.8483,0.427747,-0.0919051,-0.141911,0.00453361,118,527,106.177,28.0146,160.69,141.359,51.0692,100.762,0.000120865,0.000115247,0.000418957
-17.263,7.84602,-298.217,4.08391,-1.26116,-0.578911,-0.00570587,0.00209046,0.00129709,0.0023006,-0.005916,1.41019,0.00734181,645,-82.0396,-49.8051,0.401554,-0.100581,-0.142417,0.00459534,125,527,106.14,27.997,161.405,141.955,51.9097,101.403,0.000123724,0.000119149,0.000425379
-16.9804,7.83392,-298.226,4.08205,-1.25994,-0.576964,-0.00573963,0.00205779,0.00127606,0.00226131,-0.00594315,1.41264,0.00733988,645.274,-82.3118,-47.5948,0.378112,-0.105266,-0.143423,0.00462159,132,527,106.1,27.9746,162.216,142.566,52.8434,102.066,0.000124105,0.00012097,0.000426269
-16.694,7.82185,-298.222,4.08017,-1.25841,-0.574698,-0.00574906,0.00202422,0.00125265,0.00222109,-0.00594593,1.4149,0.00731395,645.508,-82.4902,-45.4803,0.351364,-0.106955,-0.144821,0.00450768,139,527,106.061,27.9444,163.209,143.178,53.9539,102.735,0.000122048,0.000117994,0.000420275
-16.4043,7.80974,-298.209,4.07824,-1.25665,-0.572065,-0.0057369,0.00198857,0.00122528,0.00217824,-0.00592658,1.41721,0.00726489,645.548,-82.6169,-43.6052,0.324244,-0.105854,-0.145417,0.00442888,146,527,106.022,27.908,164.369,143.796,55.2267,103.415,0.000119598,0.000113337,0.000413422
-16.1126,7.79767,-298.188,4.07637,-1.25473,-0.56937,-0.0057022,0.00195187,0.0011936,0.00213369,-0.00588401,1.41963,0.00719228,645.443,-82.7447,-42.0916,0.302607,-0.101103,-0.145261,0.00436827,153,527,105.987,27.8686,165.628,144.412,56.5948,104.097,0.000117457,0.000108456,0.000407804
-15.8199,7.78548,-298.165,4.07446,-1.25271,-0.566665,-0.00564525,0.00191624,0.00116149,0.00209063,-0.00581964,1.42177,0.00709969,645.274,-82.8688,-40.5474,0.286787,-0.0929252,-0.144262,0.00438875,160,527,105.951,27.8302,166.936,145.032,58.0105,104.788,0.000117751,0.000106872,0.000410381
-15.5256,7.77342,-298.136,4.0726,-1.25058,-0.563396,-0.00556279,0.0018812,0.00112903,0.00204867,-0.00573026,1.42354,0.00698372,645.056,-82.9618,-38.4962,0.272324,-0.0821124,-0.141333,0.00438753,167,527,105.915,27.7879,168.332,145.649,59.5077,105.477,0.000117986,0.00010764,0.000412093
-15.2295,7.76111,-298.101,4.07053,-1.24826,-0.560186,-0.0054561,0.00184639,0.001098,0.00200791,-0.00561763,1.42474,0.0068461,644.786,-83.0922,-36.3416,0.257199,-0.0696091,-0.136513,0.0044674,174,527,105.876,27.739,169.81,146.28,61.0905,106.183,0.000120116,0.000110938,0.000419783
-14.9322,7.74875,-298.061,4.06838,-1.24564,-0.557075,-0.00533866,0.00181081,0.00107156,0.00196796,-0.00549581,1.42518,0.00670017,644.597,-83.3137,-34.1313,0.245031,-0.058273,-0.129932,0.00466171,181,527,105.837,27.6844,171.35,146.908,62.736,106.896,0.000125213,0.000115783,0.00043825
-14.6325,7.73618,-298.014,4.06612,-1.24275,-0.553619,-0.00522375,0.00177459,0.00104785,0.00192812,-0.00537728,1.42532,0.0065575,644.422,-83.5369,-32.0161,0.241948,-0.0492893,-0.120396,0.00489282,188,527,105.796,27.622,173.008,147.548,64.497,107.625,0.000130941,0.000122856,0.000456447
-14.3308,7.7238,-297.96,4.06384,-1.23966,-0.549471,-0.00512518,0.00173918,0.00102658,0.00188941,-0.00527542,1.42548,0.00643175,644.153,-83.7194,-30.0752,0.249208,-0.0435443,-0.107845,0.00522578,195,527,105.751,27.5562,174.776,148.177,66.3617,108.349,0.000139011,0.000132224,0.00048095
-14.0278,7.71168,-297.901,4.06154,-1.23664,-0.545206,-0.00505753,0.00170496,0.00100816,0.00185206,-0.00520463,1.42591,0.00633699,643.785,-83.8109,-28.372,0.261053,-0.041209,-0.0937486,0.00555621,202,527,105.707,27.4905,176.613,148.803,68.2938,109.064,0.000146786,0.000142105,0.000504932
-13.7264,7.69975,-297.847,4.05926,-1.23364,-0.541237,-0.00503039,0.00166964,0.00098885,0.00181253,-0.00517328,1.42728,0.00627892,643.458,-83.8833,-26.5834,0.275475,-0.0418315,-0.0820161,0.00583426,209,527,105.665,27.4269,178.371,149.412,70.1471,109.766,0.000153962,0.000148759,0.000528467
-13.4275,7.68782,-297.8,4.05729,-1.23061,-0.537435,-0.0050511,0.00163132,0.000965441,0.00176801,-0.00518778,1.43015,0.00626187,643.23,-83.8885,-24.9414,0.291691,-0.0458311,-0.0758535,0.0059376,216,527,105.63,27.3638,180.012,150.013,71.878,110.462,0.000156839,0.000150574,0.000538411
-13.1306,7.67607,-297.759,4.05553,-1.22769,-0.533372,-0.00511171,0.00159197,0.000937368,0.00172058,-0.00524031,1.43445,0.00627994,643.07,-83.9983,-23.3062,0.308469,-0.0533836,-0.0747768,0.00575173,223,527,105.596,27.3046,181.559,150.6,73.5063,111.144,0.000150764,0.000147042,0.000520042
-12.8352,7.66413,-297.721,4.05395,-1.22471,-0.528764,-0.00518829,0.00155291,0.000905535,0.00167243,-0.00530781,1.43957,0.00631243,642.871,-84.0031,-22.1181,0.322143,-0.0646131,-0.0788063,0.00552835,230,527,105.562,27.2427,183.041,151.193,75.0615,111.832,0.000144181,0.000140953,0.000499616
-12.5414,7.65193,-297.688,4.05231,-1.22188,-0.524238,-0.00526435,0.00151521,0.000870015,0.00162508,-0.00537421,1.44518,0.00634481,642.819,-84.0149,-20.6574,0.329784,-0.0773708,-0.0888511,0.00534625,237,527,105.525,27.1768,184.437,151.807,76.5339,112.53,0.000136335,0.000135563,0.000474811
-12.2472,7.63989,-297.654,4.05012,-1.21916,-0.519528,-0.00533961,0.0014788,0.000832982,0.00157909,-0.0054399,1.45098,0.00637778,642.831,-83.9359,-18.9627,0.339067,-0.0895498,-0.10641,0.00594993,244,527,105.475,27.1219,185.846,152.411,78.0315,113.221,0.000153562,0.000150636,0.000530852
-11.9517,7.62778,-297.614,4.04749,-1.21651,-0.514926,-0.00542233,0.0014432,0.000796449,0.00153438,-0.00551351,1.45681,0.00641973,642.799,-83.899,-17.4128,0.350543,-0.10094,-0.129075,0.00652357,251,527,105.417,27.069,187.308,153.024,79.5937,113.919,0.000174395,0.000166531,0.000599133
-11.6548,7.61563,-297.57,4.04466,-1.21381,-0.510193,-0.00551108,0.00140636,0.000761667,0.00148923,-0.00559395,1.46242,0.00646845,642.686,-84.0019,-15.8983,0.357625,-0.110282,-0.150455,0.00676482,258,527,105.355,27.0152,188.84,153.643,81.2277,114.624,0.000183752,0.000174773,0.000630629
-11.3565,7.6038,-297.521,4.0418,-1.2109,-0.505403,-0.00559682,0.00137124,0.000722754,0.00144542,-0.005671,1.46852,0.0065151,642.528,-84.2472,-14.0939,0.359977,-0.117508,-0.167358,0.00655829,265,527,105.294,26.9542,190.448,154.245,82.9362,115.316,0.000174276,0.000171483,0.00059992
-11.0561,7.59201,-297.464,4.03895,-1.2077,-0.50083,-0.00566358,0.00134057,0.00068027,0.00140602,-0.00572904,1.47487,0.0065463,642.282,-84.5225,-12.2373,0.361495,-0.122145,-0.178328,0.00581815,272,527,105.237,26.8865,192.17,154.844,84.758,116.012,0.000150254,0.000150832,0.000519198
-10.7532,7.57993,-297.398,4.03615,-1.20416,-0.496672,-0.00568723,0.00131363,0.000627527,0.00136943,-0.00574304,1.4821,0.00653625,642.029,-84.7549,-10.0774,0.367012,-0.124156,-0.183815,0.00507257,279,527,105.187,26.8071,194.021,155.459,86.7072,116.73,0.000132041,0.000129101,0.000457967
-10.4509,7.56747,-297.334,4.03364,-1.20033,-0.491647,-0.00565309,0.00128191,0.00056414,0.0013275,-0.00569868,1.49016,0.00646546,641.725,-84.9336,-8.34754,0.375154,-0.123627,-0.182865,0.00495092,286,527,105.138,26.7211,195.86,156.085,88.6292,117.467,0.000129752,0.000125254,0.000449273
-10.151,7.55507,-297.276,4.03132,-1.19674,-0.486467,-0.00557403,0.00123786,0.000508337,0.00127559,-0.00561175,1.49672,0.00634643,641.431,-85.1173,-6.8568,0.380119,-0.121718,-0.174075,0.00498187,293,527,105.091,26.6435,197.589,156.706,90.4354,118.196,0.000131113,0.000127594,0.000454269
-9.85356,7.54287,-297.227,4.02914,-1.19345,-0.481238,-0.0054851,0.00120367,0.000464444,0.00123577,-0.00551719,1.5018,0.00622772,641.241,-85.369,-5.21788,0.381466,-0.119132,-0.15887,0.00489293,300,527,105.044,26.5678,199.19,157.322,92.1108,118.907,0.00012609,0.000126716,0.000437325
-9.55622,7.53094,-297.176,4.0266,-1.19008,-0.47613,-0.00537866,0.00117295,0.000417915,0.0011995,-0.00540521,1.50735,0.00609415,641,-85.5309,-3.38414,0.389681,-0.118182,-0.142956,0.00471146,307,527,104.991,26.4893,200.782,157.924,93.7864,119.605,0.000122724,0.000121808,0.000425606
-9.25419,7.51867,-297.11,4.02349,-1.18627,-0.470957,-0.00526836,0.00114649,0.000373406,0.00116815,-0.00529002,1.51285,0.00596057,640.633,-85.5646,-1.66985,0.399057,-0.118579,-0.127416,0.00459498,314,527,104.927,26.3997,202.611,158.546,95.7106,120.334,0.000120988,0.000114883,0.000419262
-8.94243,7.50667,-297.011,4.01949,-1.18151,-0.46595,-0.00516865,0.00112686,0.000335372,0.00114467,-0.00518647,1.51772,0.0058435,640.102,-85.4058,0.0823736,0.406499,-0.120248,-0.114034,0.00453403,321,527,104.854,26.2956,204.94,159.151,98.1509,121.077,0.000118985,0.000109136,0.000412172
-8.6233,7.49455,-296.887,4.01516,-1.17587,-0.461156,-0.00509821,0.00111636,0.000306877,0.00113148,-0.00511333,1.52158,0.00576299,639.598,-85.1381,1.84044,0.410388,-0.122542,-0.105975,0.00464008,328,527,104.781,26.1701,207.663,159.761,100.988,121.846,0.000119409,0.000112976,0.00041398
-8.30377,7.48255,-296.761,4.01135,-1.17046,-0.455997,-0.00505858,0.00111666,0.000287437,0.00113001,-0.00507193,1.52438,0.00572126,639.155,-85.0332,3.55515,0.409788,-0.124706,-0.102781,0.00506323,335,527,104.72,26.0579,210.437,160.368,103.857,122.612,0.000128197,0.000123017,0.000444953
-7.99106,7.47076,-296.656,4.00865,-1.16599,-0.450059,-0.00503974,0.0011298,0.000275489,0.00114207,-0.00505202,1.52626,0.00570938,638.824,-85.0818,5.13417,0.405796,-0.127505,-0.102507,0.00531891,342,527,104.675,25.9652,212.891,160.975,106.374,123.35,0.000135418,0.000128372,0.000469996
0,0,0,0,0,0,0,0,0,0,0,0,0,0,0,0,0,0,0,-1,349,527,0,0,0,0,0,0,0,0,0
-7.43039,7.44699,-296.657,4.00642,-1.16134,-0.437663,-0.00507656,0.00119675,0.000264474,0.00120788,-0.00508769,1.52874,0.00578696,638.74,-85.4833,7.84436,0.388122,-0.134243,-0.108042,0.00526792,356,527,104.595,25.8521,214.404,162.141,107.976,124.655,0.000137505,0.000128779,0.000476779
-7.14671,7.43487,-296.646,4.00475,-1.15929,-0.431995,-0.00509459,0.00124723,0.000259911,0.00125787,-0.00510522,1.5299,0.00583672,638.823,-85.66,9.51391,0.386164,-0.136154,-0.115166,0.00530002,363,527,104.55,25.8047,215.322,162.754,108.954,125.33,0.000138108,0.00013247,0.000478634
-6.85793,7.42275,-296.617,4.0024,-1.15657,-0.426136,-0.00508847,0.00130074,0.000252488,0.0013107,-0.00509844,1.53136,0.00586468,638.772,-85.8365,11.1055,0.387292,-0.137409,-0.121234,0.00529557,370,527,104.492,25.7418,216.502,163.364,110.206,126.019,0.000137791,0.00013472,0.000476979
-6.56397,7.41101,-296.571,3.99977,-1.15321,-0.419737,-0.00506628,0.00135427,0.00023971,0.0013632,-0.00507522,1.53353,0.00587662,638.629,-85.9673,12.914,0.391311,-0.139018,-0.123412,0.00536195,377,527,104.429,25.6642,217.965,163.953,111.739,126.703,0.000138419,0.000136757,0.000478708
-6.26195,7.39948,-296.497,3.99638,-1.14884,-0.413352,-0.00504434,0.00140673,0.000225391,0.00141459,-0.00505221,1.53591,0.00588835,638.304,-86.0717,14.5008,0.399542,-0.141434,-0.12074,0.00520756,384,527,104.355,25.5678,219.856,164.524,113.71,127.401,0.00013382,0.000132947,0.000462017
-5.95568,7.38768,-296.408,3.99267,-1.14393,-0.406804,-0.0050204,0.00146114,0.000207554,0.00146778,-0.00502704,1.53882,0.0058995,637.825,-86.078,15.6686,0.411152,-0.143788,-0.115403,0.00507796,391,527,104.278,25.4597,221.979,165.107,115.917,128.126,0.000129725,0.00012913,0.00044817
-5.6474,7.3757,-296.311,3.98871,-1.13878,-0.400617,-0.0049692,0.0015141,0.000174201,0.00151878,-0.00497388,1.54395,0.00588221,637.356,-86.0044,16.7682,0.423522,-0.147199,-0.110505,0.00487649,398,527,104.199,25.3449,224.211,165.701,118.241,128.866,0.000126553,0.000123508,0.000438176
-5.33908,7.36403,-296.213,3.98478,-1.13372,-0.39441,-0.00485697,0.0015394,0.000127496,0.00154194,-0.00485951,1.55087,0.00578667,636.931,-86.0031,18.2629,0.434714,-0.15143,-0.10654,0.00464167,405,527,104.121,25.2315,226.458,166.284,120.577,129.592,0.000122387,0.000115849,0.000425076
-5.03175,7.3524,-296.117,3.98114,-1.12877,-0.387816,-0.00475206,0.00155999,9.53257e-05,0.00156143,-0.0047535,1.5557,0.00569703,636.598,-86.1245,20.0246,0.43871,-0.156263,-0.104906,0.00446193,412,527,104.048,25.1221,228.67,166.865,122.866,130.314,0.000118879,0.000108791,0.000413716
-4.73104,7.34026,-296.043,3.97821,-1.1242,-0.380635,-0.00466464,0.00157692,7.06886e-05,0.00157772,-0.00466544,1.55947,0.00562284,636.385,-86.2825,21.8101,0.443275,-0.163171,-0.106454,0.004482,419,527,103.982,25.0198,230.548,167.464,124.801,131.045,0.000119263,0.000104881,0.000415053
-4.43387,7.3278,-295.98,3.97575,-1.12006,-0.373075,-0.00461068,0.00159145,5.31688e-05,0.0015919,-0.00461114,1.56222,0.00558007,636.238,-86.4393,23.1692,0.447359,-0.172755,-0.109013,0.00461861,426,527,103.922,24.9248,232.249,168.086,126.546,131.782,0.000122326,0.000103276,0.000425016
-4.13974,7.31575,-295.926,3.97351,-1.11625,-0.365799,-0.00458606,0.00160359,4.03472e-05,0.00160385,-0.00458633,1.56428,0.0055644,636.094,-86.5737,24.6283,0.44602,-0.185049,-0.109483,0.0047259,433,527,103.868,24.8368,233.791,168.686,128.131,132.49,0.00012457,0.000104563,0.000431906
-3.84739,7.30369,-295.878,3.97123,-1.11256,-0.35885,-0.00458904,0.00161541,2.96706e-05,0.00161555,-0.00458918,1.56601,0.00557536,635.924,-86.5964,26.1029,0.438218,-0.198507,-0.108671,0.00484363,440,527,103.813,24.7492,235.235,169.288,129.621,133.193,0.000127646,0.000107249,0.000441441
-3.55444,7.29159,-295.827,3.96871,-1.10876,-0.352121,-0.00462194,0.00162793,2.34006e-05,0.00162801,-0.00462203,1.56705,0.0056159,635.699,-86.6382,27.829,0.428278,-0.211167,-0.107751,0.00498549,447,527,103.755,24.6609,236.709,169.888,131.149,133.901,0.000132286,0.000112674,0.000456983
-3.2599,7.27961,-295.77,3.96597,-1.10474,-0.345285,-0.00467227,0.00164225,2.3947e-05,0.00164234,-0.00467236,1.567,0.00567467,635.38,-86.7552,29.4138,0.420112,-0.222738,-0.105353,0.00509782,454,527,103.693,24.5677,238.274,170.482,132.77,134.609,0.000135384,0.00011644,0.000467742
-2.96289,7.26807,-295.703,3.96299,-1.10049,-0.337903,-0.00472604,0.001657,3.13618e-05,0.00165715,-0.0047262,1.56588,0.00573717,635.054,-86.9701,30.9238,0.412,-0.234428,-0.0985595,0.00510206,461,527,103.624,24.4716,239.984,171.055,134.535,135.301,0.00013565,0.000119962,0.00046861
-2.66379,7.25654,-295.629,3.95951,-1.09588,-0.330924,-0.00478494,0.00167502,4.37513e-05,0.00167531,-0.00478523,1.56402,0.00580706,634.821,-87.1905,32.4274,0.404389,-0.247066,-0.0888302,0.00508075,468,527,103.548,24.3701,241.806,171.621,136.424,136,0.00013499,0.000122212,0.000466123
-2.3621,7.24463,-295.544,3.95564,-1.09103,-0.323714,-0.00483613,0.00169565,5.90934e-05,0.00169619,-0.00483666,1.56175,0.00587148,634.638,-87.2951,33.9249,0.400653,-0.258537,-0.0788362,0.00505027,475,527,103.464,24.2634,243.773,172.21,138.464,136.728,0.000133163,0.000123743,0.000459717
-2.05981,7.23261,-295.457,3.95191,-1.08606,-0.316883,-0.00486122,0.00171653,7.60718e-05,0.00171741,-0.0048621,1.55923,0.00591098,634.433,-87.3032,35.5528,0.404518,-0.267025,-0.070776,0.00502257,482,527,103.388,24.1535,245.786,172.804,140.547,137.465,0.000131525,0.000123025,0.000454058
-1.76033,7.22043,-295.378,3.94863,-1.08119,-0.309789,-0.00484874,0.00173619,9.53763e-05,0.00173758,-0.00485012,1.55632,0.00591357,634.108,-87.3026,36.7901,0.413846,-0.273124,-0.0644484,0.00496194,489,527,103.319,24.0446,247.661,173.402,142.48,138.203,0.000129413,0.000121922,0.000446554
-1.46374,7.20817,-295.308,3.94573,-1.07673,-0.302455,-0.00479966,0.0017548,0.000116722,0.00175688,-0.00480174,1.553,0.00588043,633.862,-87.3158,38.1283,0.424725,-0.277967,-0.0586327,0.00491136,496,527,103.255,23.9422,249.39,174.012,144.255,138.937,0.000127296,0.00012141,0.000438531
-1.17105,7.19671,-295.252,3.94309,-1.0726,-0.295342,-0.00472466,0.00177254,0.000140234,0.00177556,-0.00472769,1.54923,0.00582219,633.69,-87.4125,39.4892,0.437065,-0.280688,-0.0524168,0.00495427,503,527,103.196,23.8452,250.909,174.577,145.818,139.617,0.0001273,0.000123668,0.000438115
-0.879128,7.18527,-295.197,3.9402,-1.06845,-0.288251,-0.0046345,0.00178916,0.000166177,0.00179346,-0.0046388,1.54495,0.0057493,633.515,-87.5002,41.0988,0.453802,-0.28145,-0.0452241,0.00501239,510,527,103.13,23.7498,252.382,175.137,147.343,140.295,0.000130138,0.000126398,0.000447922
-0.585574,7.17392,-295.136,3.93701,-1.06409,-0.281167,-0.00453574,0.00180427,0.000198571,0.00181048,-0.00454195,1.53952,0.00566836,633.308,-87.6043,42.6428,0.467762,-0.278883,-0.0392812,0.00516318,517,527,103.059,23.6502,253.95,175.693,148.967,140.974,0.000134075,0.000129249,0.000462575
-0.290999,7.16215,-295.07,3.93386,-1.05941,-0.273523,-0.00443444,0.00181894,0.000235099,0.00182777,-0.00444326,1.53327,0.0055861,632.963,-87.7618,44.162,0.474289,-0.27271,-0.0359772,0.00524116,524,527,102.987,23.546,255.591,176.263,150.655,141.679,0.000134511,0.000128379,0.000464848
0.00478651,7.15028,-294.999,3.93083,-1.05455,-0.265667,-0.00432872,0.00183361,0.000269536,0.00184537,-0.00434048,1.52717,0.00550046,632.615,-87.8911,45.6742,0.481435,-0.263183,-0.0341066,0.00525194,531,527,102.919,23.4369,257.316,176.839,152.421,142.394,0.000133202,0.000128772,0.000458978
0.300521,7.13846,-294.927,3.92785,-1.04973,-0.258091,-0.00424118,0.00184682,0.00030475,0.00186203,-0.0042564,1.52091,0.00543228,632.404,-88.068,47.1855,0.490324,-0.250132,-0.0326218,0.00522964,538,527,102.854,23.3256,259.047,177.417,154.191,143.108,0.000131084,0.000131755,0.000448861
0.595418,7.12669,-294.857,3.92491,-1.04496,-0.250821,-0.00416966,0.00185834,0.000340667,0.00187753,-0.00418885,1.51452,0.00537925,632.193,-88.2543,48.8199,0.497587,-0.23519,-0.0268832,0.00528169,545,527,102.792,23.217,260.735,177.992,155.92,143.817,0.000130513,0.000134694,0.000444777
0.888886,7.1151,-294.792,3.92201,-1.04031,-0.243305,-0.00410155,0.00186835,0.000375019,0.00189181,-0.00412501,1.50831,0.00532902,631.943,-88.406,50.3519,0.497481,-0.218584,-0.0155246,0.00539928,552,527,102.729,23.1112,262.351,178.556,157.575,144.513,0.000138036,0.000137512,0.000468652
1.18103,7.10341,-294.73,3.91913,-1.03577,-0.235328,-0.00404597,0.0018768,0.000408348,0.00190482,-0.004074,1.50228,0.00529018,631.717,-88.4933,51.8696,0.494347,-0.19924,-0.00245956,0.00567786,559,527,102.662,23.0081,263.902,179.125,159.159,145.211,0.000151503,0.000140181,0.000514833
1.47393,7.09189,-294.665,3.91625,-1.03118,-0.227556,-0.0040321,0.00188225,0.000448652,0.00191609,-0.00406594,1.49551,0.00529093,631.656,-88.5941,53.1542,0.496377,-0.177254,0.00763458,0.00607458,566,527,102.598,22.9025,265.505,179.689,160.795,145.904,0.000162085,0.000142131,0.000552048
1.76641,7.08027,-294.601,3.91323,-1.02645,-0.220206,-0.00406278,0.00188143,0.000511059,0.00192505,-0.0041064,1.48565,0.00533604,631.562,-88.6902,54.2495,0.497527,-0.155907,0.0126235,0.00626045,573,527,102.533,22.7921,267.083,180.254,162.414,146.601,0.000167727,0.000141699,0.000569043
0,0,0,0,0,0,0,0,0,0,0,0,0,0,0,0,0,0,0,-1,580,527,0,0,0,0,0,0,0,0,0
0,0,0,0,0,0,0,0,0,0,0,0,0,0,0,0,0,0,0,-1,587,527,0,0,0,0,0,0,0,0,0
0,0,0,0,0,0,0,0,0,0,0,0,0,0,0,0,0,0,0,-1,594,527,0,0,0,0,0,0,0,0,0
0,0,0,0,0,0,0,0,0,0,0,0,0,0,0,0,0,0,0,-1,601,527,0,0,0,0,0,0,0,0,0
0,0,0,0,0,0,0,0,0,0,0,0,0,0,0,0,0,0,0,-1,62,534,0,0,0,0,0,0,0,0,0
0,0,0,0,0,0,0,0,0,0,0,0,0,0,0,0,0,0,0,-1,69,534,0,0,0,0,0,0,0,0,0
0,0,0,0,0,0,0,0,0,0,0,0,0,0,0,0,0,0,0,-1,76,534,0,0,0,0,0,0,0,0,0
-18.9744,7.64468,-298.173,4.09273,-1.26794,-0.579982,-0.00528326,0.00230188,0.00133807,0.002531,-0.00551239,1.40121,0.0071235,644.083,-80.6518,-58.5718,0.59261,-0.0258414,-0.0987978,0.00465513,83,534,106.24,28.14,155.643,139.225,45.383,98.4279,0.00011573,0.000118962,0.000413095
-18.6904,7.63323,-298.178,4.09126,-1.26679,-0.579053,-0.00529778,0.00227778,0.00134547,0.00250965,-0.00552965,1.40014,0.0071241,644.275,-80.8697,-57.0558,0.543632,-0.035326,-0.116242,0.00461985,90,534,106.217,28.117,156.545,139.807,46.4077,99.0584,0.000113149,0.000118219,0.000401365
-18.4072,7.62161,-298.186,4.08996,-1.26581,-0.577668,-0.00535259,0.00225257,0.00135918,0.00248818,-0.0055882,1.39915,0.00716404,644.337,-81.027,-55.7321,0.50712,-0.0470637,-0.126012,0.0045464,97,534,106.195,28.0962,157.413,140.404,47.3893,99.6966,0.000112392,0.000116644,0.000397297
-18.1252,7.60988,-298.197,4.08882,-1.26491,-0.576187,-0.00542908,0.0022268,0.00136753,0.00246374,-0.00566602,1.39924,0.00722035,644.352,-81.2628,-54.608,0.4746,-0.059803,-0.13052,0.00444863,104,534,106.174,28.0786,158.22,141.004,48.3053,100.337,0.00011325,0.000114379,0.000398812
-17.8444,7.598,-298.212,4.08772,-1.26413,-0.574983,-0.00551456,0.00220093,0.0013676,0.00243617,-0.0057498,1.40045,0.00728029,644.46,-81.4656,-53.1216,0.444619,-0.0726257,-0.131316,0.0044632,111,534,106.157,28.068,158.965,141.608,49.1607,100.981,0.000116414,0.000115044,0.000406956
-17.5642,7.58606,-298.228,4.08633,-1.26338,-0.573473,-0.00558861,0.00217375,0.00135825,0.00240456,-0.00581941,1.40248,0.00732397,644.698,-81.7368,-51.3613,0.416612,-0.0838058,-0.130914,0.0045123,118,534,106.129,28.0556,159.669,142.217,49.9801,101.628,0.000119982,0.000116091,0.000415572
-17.2829,7.57426,-298.241,4.08456,-1.26235,-0.57211,-0.00563983,0.00214425,0.00134139,0.00236892,-0.0058645,1.40485,0.00734143,644.983,-82.0128,-49.1626,0.390675,-0.0915553,-0.1314,0.00460501,125,534,106.095,28.0371,160.417,142.812,50.8545,102.27,0.000122706,0.00011965,0.000420639
-16.9993,7.56223,-298.246,4.0827,-1.26106,-0.570248,-0.00566868,0.00211241,0.00131968,0.00233014,-0.00588641,1.40728,0.00733454,645.241,-82.2403,-46.7321,0.367089,-0.0954319,-0.13295,0.00462056,132,534,106.057,28.0127,161.271,143.42,51.831,102.929,0.000123749,0.000121557,0.000423005
-16.7118,7.5502,-298.239,4.08084,-1.25944,-0.567871,-0.00567474,0.00207935,0.00129479,0.00228984,-0.00588523,1.40964,0.00730449,645.384,-82.3894,-44.5032,0.339816,-0.0967257,-0.134664,0.00450408,139,534,106.019,27.979,162.324,144.031,52.9984,103.599,0.000122294,0.000118483,0.000418987
-16.4205,7.53814,-298.221,4.07898,-1.25752,-0.564955,-0.00565937,0.00204459,0.00126327,0.00224645,-0.00586123,1.41235,0.00725035,645.387,-82.5266,-42.5121,0.312846,-0.0955762,-0.136202,0.00442756,146,534,105.981,27.9392,163.566,144.646,54.3491,104.279,0.000120316,0.00011289,0.000414492
-16.127,7.52612,-298.195,4.07707,-1.25549,-0.562144,-0.0056215,0.00200847,0.00122537,0.00220043,-0.00581346,1.4154,0.0071715,645.303,-82.6354,-40.948,0.29239,-0.0912283,-0.13754,0.00437181,153,534,105.945,27.8972,164.919,145.262,55.8097,104.963,0.000118083,0.000106831,0.000409507
-15.8323,7.51389,-298.165,4.07509,-1.25337,-0.559276,-0.00556192,0.00197257,0.00118593,0.00215483,-0.00574418,1.41831,0.00707224,645.157,-82.752,-39.3283,0.278307,-0.0838644,-0.138417,0.00435774,160,534,105.909,27.8554,166.327,145.888,57.3245,105.661,0.000117091,0.000103394,0.000408938
-15.5362,7.50189,-298.131,4.07316,-1.25105,-0.555903,-0.00547795,0.00193678,0.00114668,0.00211006,-0.00565123,1.42081,0.00695077,644.921,-82.8977,-37.452,0.266033,-0.0740391,-0.137428,0.00433589,167,534,105.872,27.8089,167.81,146.502,58.9076,106.352,0.000116458,0.000104678,0.000408127
-15.2386,7.48967,-298.091,4.07115,-1.24848,-0.552271,-0.00537053,0.00190111,0.00111031,0.00206686,-0.00553628,1.4226,0.00680919,644.636,-83.0849,-35.262,0.253611,-0.0627966,-0.134069,0.0043361,174,534,105.833,27.7549,169.372,147.127,60.5686,107.058,0.000116393,0.000108703,0.00040878
-14.9398,7.47746,-298.047,4.06894,-1.24565,-0.549086,-0.00525231,0.00186485,0.00108047,0.00202526,-0.00541272,1.42341,0.00666044,644.318,-83.2744,-33.152,0.244077,-0.052953,-0.128154,0.00448068,181,534,105.793,27.6959,170.985,147.746,62.2864,107.766,0.000119551,0.000114607,0.000420318
-14.6385,7.46507,-297.995,4.06664,-1.24255,-0.545434,-0.00513734,0.00182892,0.00105589,0.00198544,-0.00529387,1.42363,0.00651749,644.064,-83.4324,-31.0044,0.243414,-0.0457145,-0.118651,0.00476884,188,534,105.751,27.6313,172.726,148.374,64.1295,108.491,0.000125165,0.000122599,0.000437457
-14.3355,7.45284,-297.937,4.06431,-1.23938,-0.541216,-0.00504072,0.00179471,0.00103596,0.00194826,-0.00519428,1.42364,0.00639501,643.735,-83.559,-29.1805,0.252958,-0.0415487,-0.105657,0.00509595,195,534,105.706,27.5658,174.562,148.998,66.0611,109.213,0.000133553,0.000130316,0.000463232
-14.0329,7.44075,-297.88,4.06208,-1.23643,-0.53686,-0.00497523,0.00176268,0.00102079,0.00191393,-0.00512649,1.42369,0.00630522,643.414,-83.6746,-27.4135,0.26665,-0.040315,-0.0907819,0.00542876,202,534,105.663,27.5016,176.381,149.624,67.9724,109.927,0.000142119,0.00013836,0.000490402
-13.7324,7.42895,-297.828,4.0599,-1.23364,-0.532803,-0.00494741,0.00173047,0.00100613,0.00187877,-0.00509571,1.42446,0.00625057,643.142,-83.7598,-25.5777,0.282421,-0.0414279,-0.0775894,0.00579125,209,534,105.622,27.4395,178.099,150.236,69.7843,110.621,0.000150778,0.000146735,0.000518848
-13.436,7.41704,-297.789,4.05801,-1.23077,-0.52912,-0.00496498,0.0016961,0.000987376,0.00183938,-0.00510826,1.42669,0.00623487,643.029,-83.8325,-23.8322,0.299111,-0.0455034,-0.0688886,0.00597061,216,534,105.587,27.3778,179.615,150.835,71.3898,111.31,0.000155464,0.000150873,0.000534683
-13.1414,7.4054,-297.755,4.05627,-1.22804,-0.525212,-0.00502257,0.00166109,0.000963152,0.00179711,-0.0051586,1.43049,0.00625391,642.961,-83.9426,-22.1033,0.315316,-0.0526401,-0.0647077,0.00585685,223,534,105.553,27.3204,181.043,151.419,72.9019,111.981,0.000151842,0.000148684,0.000524216
-12.8482,7.39374,-297.724,4.05467,-1.22521,-0.520831,-0.00509776,0.00162565,0.000934124,0.00175302,-0.00522513,1.43528,0.00628767,642.891,-83.9521,-20.77,0.327956,-0.0630092,-0.0658366,0.00567648,230,534,105.518,27.2602,182.41,151.998,74.3463,112.65,0.000147625,0.000143282,0.000512482
-12.5556,7.38202,-297.695,4.05304,-1.22246,-0.516684,-0.0051732,0.00159041,0.000900116,0.00170815,-0.00529094,1.44073,0.00632056,642.831,-83.9638,-19.4647,0.333794,-0.0747659,-0.0739898,0.00547915,237,534,105.484,27.1956,183.744,152.586,75.7594,113.32,0.000141638,0.000137497,0.00049525
-12.2614,7.37025,-297.66,4.05083,-1.21976,-0.51275,-0.00524753,0.00155506,0.000863129,0.00166287,-0.00535534,1.44654,0.00635216,642.743,-83.8746,-17.9725,0.340661,-0.0862308,-0.0905198,0.00543066,244,534,105.439,27.1315,185.148,153.185,77.2587,113.998,0.000142482,0.000132675,0.000498726
-11.965,7.35805,-297.618,4.04808,-1.21694,-0.508686,-0.00532798,0.00151888,0.000825806,0.00161707,-0.00542617,1.45245,0.00639006,642.624,-83.8488,-16.4186,0.349293,-0.0972379,-0.111892,0.00538044,251,534,105.383,27.0679,186.649,153.807,78.8661,114.704,0.000143384,0.000129339,0.000501125
-11.6665,7.34564,-297.569,4.04522,-1.21393,-0.504051,-0.00541302,0.0014811,0.000787586,0.00156993,-0.00550185,1.45848,0.00643215,642.493,-83.9431,-14.9245,0.353626,-0.10747,-0.132578,0.00524278,258,534,105.323,27.0074,188.262,154.436,80.5818,115.427,0.00014044,0.000128802,0.000489126
-11.3665,7.33365,-297.514,4.04243,-1.21076,-0.498877,-0.00549449,0.00144393,0.000743463,0.0015227,-0.00557326,1.46524,0.00647041,642.299,-84.1292,-13.4104,0.354475,-0.116797,-0.149328,0.00508111,265,534,105.262,26.9491,189.961,155.039,82.3742,116.133,0.00013618,0.000130173,0.000472454
-11.0642,7.32178,-297.451,4.03974,-1.20745,-0.493203,-0.00555866,0.00140993,0.000694245,0.00147842,-0.00562715,1.47246,0.00649383,642.026,-84.4015,-11.8393,0.355809,-0.124551,-0.160691,0.00496636,272,534,105.203,26.8888,191.795,155.639,84.2931,116.841,0.000129021,0.000130014,0.000445735
-10.7604,7.30992,-297.383,4.0371,-1.20388,-0.488543,-0.00558398,0.00137878,0.000635583,0.00143632,-0.00564152,1.48051,0.00648019,641.748,-84.599,-9.83185,0.361018,-0.12998,-0.166722,0.00489297,279,534,105.155,26.8145,193.708,156.243,86.2943,117.552,0.000127239,0.000127769,0.000439306
-10.457,7.29794,-297.315,4.03458,-1.20014,-0.483744,-0.0055541,0.001342,0.00056734,0.00138837,-0.00560046,1.48926,0.00640845,641.415,-84.7595,-8.15126,0.368281,-0.132647,-0.166225,0.00482881,286,534,105.109,26.7337,195.606,156.849,88.2765,118.269,0.0001252,0.000125177,0.000432847
-10.1561,7.28579,-297.254,4.03223,-1.19655,-0.479078,-0.00548051,0.00129204,0.000507842,0.00132991,-0.00551838,1.49637,0.00628969,641.081,-84.9161,-6.59454,0.373047,-0.134087,-0.1574,0.00473522,293,534,105.065,26.6536,197.378,157.464,90.1292,118.989,0.000123083,0.000122503,0.000426441
-9.85874,7.2737,-297.204,4.03003,-1.19324,-0.474079,-0.00539578,0.00125392,0.000460617,0.00128567,-0.00542753,1.50197,0.00617164,640.911,-85.1854,-4.88055,0.37566,-0.134804,-0.141824,0.00456398,300,534,105.02,26.5757,198.978,158.077,91.8064,119.696,0.000119872,0.000117815,0.000415994
-9.56161,7.26171,-297.155,4.02742,-1.18982,-0.469078,-0.00529476,0.00121957,0.000413232,0.00124568,-0.00532087,1.5077,0.00604082,640.663,-85.3684,-2.9321,0.385532,-0.136433,-0.124664,0.00449352,307,534,104.966,26.4963,200.557,158.681,93.4724,120.398,0.000119547,0.000113156,0.000414873
-9.26107,7.24927,-297.093,4.02437,-1.18607,-0.463924,-0.00519227,0.00119049,0.000368793,0.00121173,-0.00521351,1.51327,0.00591323,640.355,-85.4009,-1.02389,0.396719,-0.138594,-0.107452,0.00448138,314,534,104.902,26.4092,202.31,159.311,95.319,121.134,0.000119122,0.000107895,0.000413237
-8.95182,7.23739,-297.002,4.02061,-1.18148,-0.458721,-0.00510161,0.00117041,0.000329382,0.00118766,-0.00511886,1.51847,0.00580454,639.888,-85.2421,0.838488,0.406231,-0.140555,-0.0926917,0.00449953,321,534,104.831,26.307,204.514,159.912,97.6283,121.866,0.000118361,0.000107144,0.000410462
-8.6348,7.22547,-296.885,4.0165,-1.17606,-0.453559,-0.00503958,0.00116089,0.000298225,0.0011752,-0.00505389,1.52285,0.00573256,639.328,-85.0163,2.41652,0.411114,-0.141818,-0.083498,0.00460505,328,534,104.759,26.186,207.134,160.518,100.355,122.624,0.000119173,0.000113025,0.000413241
-8.31631,7.21358,-296.762,4.01271,-1.17052,-0.44822,-0.00500464,0.00116277,0.000275201,0.00117502,-0.00501689,1.52629,0.00569604,638.839,-84.9223,4.05782,0.409739,-0.141847,-0.0795727,0.0049328,335,534,104.696,26.0714,209.854,161.116,103.169,123.386,0.000126597,0.000122101,0.000439036
-8.00211,7.20237,-296.653,4.0099,-1.1658,-0.4423,-0.00498555,0.00117728,0.000259057,0.00118815,-0.00499642,1.52886,0.0056844,638.422,-84.9491,5.48667,0.405048,-0.141584,-0.0791071,0.00525792,342,534,104.65,25.9757,212.387,161.692,105.766,124.101,0.000135741,0.000131057,0.000470531
-7.71928,7.191,-296.645,4.00862,-1.16276,-0.435931,-0.00498627,0.00120601,0.000246423,0.0012158,-0.00499606,1.53108,0.00570202,638.306,-85.1073,6.75082,0.395277,-0.141844,-0.0811816,0.00528477,349,534,104.607,25.902,213.278,162.234,106.702,124.734,0.000138119,0.000131313,0.000478666
-7.43293,7.17792,-296.626,4.00711,-1.1605,-0.429343,-0.00500923,0.00124985,0.00023514,0.00125867,-0.00501805,1.5333,0.00575162,638.298,-85.3218,8.16724,0.386422,-0.140955,-0.0878836,0.00530188,356,534,104.561,25.8509,214.351,162.901,107.822,125.466,0.000140404,0.000130229,0.000486282
-7.14885,7.16575,-296.613,4.00536,-1.15844,-0.42372,-0.00501671,0.00130166,0.00022254,0.00130949,-0.00502454,1.53563,0.0057914,638.413,-85.5578,9.94852,0.382087,-0.139008,-0.097112,0.00539084,363,534,104.515,25.8012,215.29,163.52,108.823,126.145,0.000142928,0.000134293,0.000494835
-6.86081,7.15379,-296.587,4.00303,-1.15574,-0.417883,-0.0049996,0.00135607,0.000206648,0.00136278,-0.00500631,1.53833,0.00580885,638.4,-85.7586,11.6028,0.379779,-0.136827,-0.104977,0.00544752,370,534,104.458,25.7372,216.432,164.122,110.037,126.824,0.000143173,0.000137395,0.000495335
-6.56616,7.14227,-296.538,4.00029,-1.15231,-0.411666,-0.00496475,0.00140952,0.000185824,0.00141494,-0.00497017,1.54168,0.00580836,638.257,-85.8787,13.4048,0.381548,-0.135651,-0.108952,0.00546861,377,534,104.394,25.6572,217.931,164.703,111.609,127.501,0.000142061,0.000138726,0.000491212
-6.26265,7.13158,-296.459,3.99686,-1.14782,-0.405501,-0.00492857,0.00146045,0.000163541,0.00146463,-0.00493275,1.54522,0.00580533,637.853,-85.9532,14.887,0.390087,-0.136279,-0.108303,0.00523095,384,534,104.323,25.5593,219.903,165.233,113.664,128.162,0.000135771,0.000133437,0.000468819
-5.95574,7.12005,-296.368,3.99322,-1.14282,-0.39911,-0.00489522,0.00151249,0.000140657,0.00151558,-0.00489831,1.54886,0.00580639,637.364,-85.9286,16.029,0.402733,-0.138047,-0.104333,0.00508721,391,534,104.248,25.4496,222.065,165.805,115.908,128.878,0.000132322,0.000128614,0.000457474
-5.64837,7.10842,-296.274,3.98961,-1.13771,-0.39254,-0.00484165,0.00156291,0.000104852,0.00156463,-0.00484336,1.55443,0.00578656,636.977,-85.8901,17.3824,0.414908,-0.141364,-0.0998502,0.00489798,398,534,104.175,25.3362,224.263,166.383,118.186,129.602,0.000128237,0.000122417,0.000444304
-5.34145,7.09665,-296.18,3.98608,-1.13286,-0.38575,-0.00473691,0.00158407,5.95427e-05,0.00158463,-0.00473747,1.56138,0.00569753,636.609,-85.9516,18.9792,0.425277,-0.146674,-0.0951603,0.00461581,405,534,104.102,25.2275,226.45,166.978,120.446,130.332,0.000121638,0.000115023,0.000422363
-5.03789,7.08459,-296.097,3.98278,-1.1283,-0.37893,-0.00464184,0.00160127,2.90845e-05,0.00160141,-0.00464198,1.56614,0.0056166,636.299,-86.1056,20.7518,0.430055,-0.153297,-0.0922254,0.00434875,412,534,104.032,25.1242,228.465,167.587,122.531,131.069,0.000115332,0.000105872,0.000400828
-4.73826,7.07258,-296.027,3.97995,-1.12398,-0.37196,-0.0045663,0.00161459,8.21567e-06,0.0016146,-0.00456631,1.56947,0.00555256,636.081,-86.2219,22.6634,0.436073,-0.162537,-0.0919667,0.00434192,419,534,103.969,25.028,230.284,168.186,124.408,131.792,0.00011491,0.000101131,0.000399108
-4.44254,7.06033,-295.968,3.97746,-1.12001,-0.36501,-0.00452305,0.00162435,-2.33836e-06,0.00162435,-0.00452305,-1.57042,0.00551757,635.892,-86.2575,23.9408,0.440549,-0.174922,-0.0923058,0.00446164,426,534,103.912,24.9381,231.9,168.798,126.075,132.516,0.000117544,9.99527e-05,0.000407423
-4.14955,7.04832,-295.919,3.97533,-1.11634,-0.357627,-0.00450734,0.00163194,-6.99096e-06,0.00163194,-0.00450735,-1.56966,0.00550774,635.83,-86.343,25.5746,0.439831,-0.190007,-0.0910531,0.00461466,433,534,103.858,24.8528,233.382,169.399,127.596,133.22,0.000121467,0.000103164,0.000420292
-3.85822,7.03629,-295.874,3.97317,-1.11275,-0.350663,-0.00452082,0.00163999,-9.62404e-06,0.00164001,-0.00452084,-1.56923,0.00552646,635.739,-86.4004,26.9744,0.433434,-0.205809,-0.0899005,0.00481405,440,534,103.805,24.7678,234.773,170,129.031,133.92,0.000127226,0.000110178,0.000439464
-3.56582,7.02434,-295.825,3.97077,-1.10901,-0.343825,-0.00456684,0.00164925,-8.36424e-06,0.00164926,-0.00456685,-1.56945,0.00557747,635.555,-86.5667,28.3994,0.423682,-0.22013,-0.0898229,0.00501172,447,534,103.749,24.6825,236.221,170.593,130.528,134.62,0.000133116,0.00011692,0.000459808
-3.27197,7.01261,-295.771,3.96808,-1.10508,-0.33717,-0.0046301,0.00165919,-5.31382e-07,0.00165919,-0.0046301,-1.57071,0.00564561,635.258,-86.7351,29.6591,0.41336,-0.232167,-0.0889071,0.00509495,454,534,103.689,24.5927,237.749,171.176,132.112,135.314,0.000135381,0.000120445,0.000467483
-2.9756,7.00128,-295.706,3.9651,-1.10093,-0.330361,-0.0046923,0.00166989,1.37859e-05,0.00166992,-0.00469233,1.56863,0.00571336,634.952,-86.9465,31.0384,0.402281,-0.243324,-0.0838365,0.00505753,461,534,103.624,24.499,239.418,171.74,133.841,135.996,0.000134557,0.000123184,0.00046482
-2.67679,6.98983,-295.633,3.96172,-1.09637,-0.323221,-0.0047537,0.00168439,3.17448e-05,0.00168455,-0.00475386,1.56587,0.00578316,634.688,-87.0827,32.67,0.393417,-0.254255,-0.0767347,0.00499409,468,534,103.55,24.3972,241.227,172.307,135.714,136.693,0.000131704,0.000123122,0.000454931
-2.37518,6.97819,-295.549,3.95796,-1.09147,-0.315995,-0.00480118,0.00170159,5.11936e-05,0.001702,-0.00480159,1.56292,0.0058416,634.445,-87.1667,34.2,0.389377,-0.263229,-0.070406,0.00495382,475,534,103.469,24.2891,243.195,172.885,137.751,137.41,0.000128456,0.000122887,0.00044362
-2.07311,6.96651,-295.462,3.9542,-1.08647,-0.309532,-0.00482144,0.00171943,7.09838e-05,0.0017202,-0.00482221,1.55995,0.00587435,634.13,-87.1793,35.6996,0.392644,-0.2689,-0.0661665,0.00491663,482,534,103.394,24.1794,245.191,173.461,139.822,138.132,0.000126825,0.000122884,0.000437338
-1.77408,6.95433,-295.385,3.95086,-1.08174,-0.30259,-0.00480633,0.00173682,9.20155e-05,0.00173812,-0.00480762,1.55674,0.00587286,633.753,-87.2071,37.1349,0.401869,-0.272244,-0.0628955,0.00495197,489,534,103.324,24.073,247.037,174.067,141.728,138.871,0.000126939,0.000123939,0.00043734
-1.47815,6.94227,-295.317,3.94795,-1.07742,-0.295514,-0.00475637,0.00175418,0.000114201,0.00175618,-0.00475837,1.55326,0.00583805,633.54,-87.2809,38.6797,0.41444,-0.274692,-0.0596081,0.00496448,496,534,103.261,23.9743,248.726,174.67,143.467,139.595,0.000126196,0.000123103,0.000434219
-1.18557,6.93094,-295.261,3.94534,-1.07332,-0.288371,-0.00468238,0.00177193,0.000137974,0.00177487,-0.00468533,1.54943,0.00578086,633.42,-87.3646,40.1648,0.429379,-0.275601,-0.0556205,0.00504902,503,534,103.203,23.8803,250.239,175.23,145.023,140.27,0.000127754,0.000125477,0.000439506
-0.893359,6.91944,-295.206,3.94253,-1.06924,-0.281331,-0.00459733,0.00178944,0.000164197,0.00179366,-0.00460154,1.54511,0.00571358,633.271,-87.4549,41.5925,0.448995,-0.275675,-0.0500996,0.00503307,510,534,103.14,23.7865,251.731,175.799,146.563,140.954,0.000130231,0.000128041,0.000448295
-0.599255,6.90806,-295.142,3.93945,-1.06474,-0.274255,-0.0045061,0.00180587,0.000196647,0.00181199,-0.00451222,1.53968,0.00564088,633.009,-87.5262,42.8047,0.465991,-0.273424,-0.0449838,0.00520716,517,534,103.073,23.6849,253.334,176.355,148.219,141.639,0.000133348,0.000130959,0.000459976
-0.303804,6.89636,-295.073,3.9364,-1.05994,-0.266502,-0.00441332,0.00182198,0.000232493,0.00183063,-0.00442197,1.53358,0.00556777,632.706,-87.6754,44.2994,0.476055,-0.268471,-0.0416272,0.00530336,524,534,103.003,23.5779,255.03,176.925,149.957,142.346,0.000134221,0.00013156,0.000463228
-0.00731861,6.88461,-295,3.93324,-1.05502,-0.258807,-0.00431871,0.00183938,0.000266623,0.0018509,-0.00433023,1.52761,0.00549468,632.446,-87.7747,46.0089,0.487266,-0.261601,-0.0395251,0.00532055,531,534,102.934,23.4642,256.791,177.502,151.763,143.06,0.000134607,0.00013273,0.000462333
0.289107,6.87287,-294.926,3.93012,-1.05006,-0.25131,-0.00424387,0.00185515,0.000301348,0.00187,-0.00425872,1.52155,0.00544035,632.314,-87.8667,47.8476,0.499686,-0.252615,-0.0369356,0.00530571,538,534,102.867,23.3496,258.558,178.078,153.573,143.775,0.000134487,0.000134149,0.000458841
0.584652,6.86117,-294.854,3.92702,-1.04513,-0.243695,-0.00418624,0.00186854,0.000336439,0.00188718,-0.00420488,1.51546,0.00540165,632.122,-87.9397,49.5826,0.509711,-0.242825,-0.0292346,0.00537905,545,534,102.799,23.2386,260.284,178.649,155.341,144.485,0.000135111,0.000135871,0.000459035
0.878624,6.84974,-294.786,3.92401,-1.04045,-0.236092,-0.00413567,0.00187925,0.000369444,0.00190186,-0.00415828,1.50968,0.00536813,631.823,-88.0972,51.2885,0.513548,-0.231902,-0.0157419,0.00542914,552,534,102.733,23.1324,261.928,179.208,157.025,145.177,0.000140193,0.000137451,0.000474802
1.17123,6.83827,-294.723,3.92107,-1.03601,-0.228097,-0.00410405,0.00188642,0.000400725,0.0019131,-0.00413073,1.5043,0.00535027,631.489,-88.257,52.7351,0.516092,-0.21819,-0.000279106,0.00561515,559,534,102.666,23.0314,263.506,179.774,158.638,145.868,0.000149993,0.000137774,0.000509481
1.46409,6.82682,-294.658,3.91812,-1.03146,-0.220337,-0.00411882,0.00188715,0.00043769,0.00191888,-0.00415054,1.49843,0.00537341,631.362,-88.4042,53.8933,0.524184,-0.201215,0.0139416,0.00589546,566,534,102.6,22.9267,265.105,180.339,160.272,146.559,0.000157672,0.000138912,0.000536093
1.75715,6.81522,-294.591,3.91506,-1.02671,-0.212819,-0.00417674,0.00187664,0.000494149,0.00191671,-0.00421681,1.48988,0.00543486,631.193,-88.5195,54.9476,0.533144,-0.183733,0.0259882,0.00611239,573,534,102.534,22.8181,266.719,180.906,161.925,147.26,0.000163708,0.000139892,0.000555182
0,0,0,0,0,0,0,0,0,0,0,0,0,0,0,0,0,0,0,-1,580,534,0,0,0,0,0,0,0,0,0
0,0,0,0,0,0,0,0,0,0,0,0,0,0,0,0,0,0,0,-1,587,534,0,0,0,0,0,0,0,0,0
0,0,0,0,0,0,0,0,0,0,0,0,0,0,0,0,0,0,0,-1,594,534,0,0,0,0,0,0,0,0,0
0,0,0,0,0,0,0,0,0,0,0,0,0,0,0,0,0,0,0,-1,601,534,0,0,0,0,0,0,0,0,0
0,0,0,0,0,0,0,0,0,0,0,0,0,0,0,0,0,0,0,-1,62,541,0,0,0,0,0,0,0,0,0
0,0,0,0,0,0,0,0,0,0,0,0,0,0,0,0,0,0,0,-1,69,541,0,0,0,0,0,0,0,0,0
0,0,0,0,0,0,0,0,0,0,0,0,0,0,0,0,0,0,0,-1,76,541,0,0,0,0,0,0,0,0,0
-18.996,7.37224,-298.201,4.09362,-1.26925,-0.573138,-0.00529183,0.00233486,0.00133428,0.00256155,-0.00551852,1.4025,0.00715203,644.099,-80.8023,-57.9296,0.583631,-0.00888994,-0.0875575,0.00492247,83,541,106.199,28.1771,154.576,140.129,44.2435,99.3343,0.000119114,0.000125669,0.000427968
-18.7131,7.36052,-298.21,4.09205,-1.26824,-0.572013,-0.00530412,0.00230648,0.00135941,0.00254201,-0.00553965,1.39924,0.0071576,644.43,-80.9951,-56.3089,0.531959,-0.0201431,-0.104018,0.00470125,90,541,106.171,28.1566,155.42,140.726,45.2121,99.9748,0.000114432,0.00012053,0.000404781
-18.4301,7.34888,-298.218,4.09058,-1.2673,-0.570644,-0.00534778,0.00228011,0.00138594,0.00252412,-0.00559179,1.39652,0.007194,644.532,-81.1299,-54.9595,0.493802,-0.0337758,-0.113275,0.00457633,97,541,106.144,28.1376,156.269,141.323,46.1806,100.612,0.000115317,0.000117392,0.000405762
-18.1477,7.33732,-298.228,4.08928,-1.26641,-0.569262,-0.00540831,0.00225536,0.00140251,0.00250397,-0.00565691,1.39536,0.00724122,644.534,-81.3493,-53.8271,0.460705,-0.0479394,-0.117281,0.00446784,104,541,106.121,28.122,157.096,141.912,47.121,101.242,0.000115481,0.00011454,0.000406124
-17.8659,7.32574,-298.24,4.08811,-1.26555,-0.568118,-0.00547776,0.00223155,0.00140745,0.00248046,-0.00572667,1.39575,0.00729056,644.612,-81.5504,-52.2982,0.43095,-0.0614079,-0.117823,0.00450304,111,541,106.103,28.1109,157.888,142.498,48.0242,101.872,0.000118522,0.000114923,0.000414176
-17.5845,7.31411,-298.253,4.08675,-1.26462,-0.566549,-0.00553729,0.00220642,0.00140054,0.00245194,-0.00578281,1.39726,0.00732338,644.794,-81.7645,-50.4789,0.4036,-0.0727861,-0.117843,0.00452923,118,541,106.077,28.0964,158.655,143.086,48.9043,102.504,0.000120607,0.000115572,0.000418125
-17.302,7.30233,-298.262,4.0851,-1.26346,-0.565084,-0.00557583,0.00217874,0.00138384,0.00241829,-0.00581539,1.39939,0.00733009,645.059,-81.95,-48.2493,0.37824,-0.0807778,-0.119407,0.0045494,125,541,106.046,28.074,159.463,143.68,49.8336,103.146,0.000121121,0.000117242,0.000415807
-17.0171,7.29039,-298.263,4.08333,-1.26209,-0.563038,-0.00559442,0.00214867,0.00136008,0.00238062,-0.00582637,1.40188,0.0073133,645.247,-82.1389,-45.8069,0.3549,-0.0852356,-0.122253,0.00452017,132,541,106.011,28.0458,160.386,144.285,50.8741,103.803,0.000121298,0.00011796,0.00041454
-16.7285,7.27834,-298.253,4.08153,-1.26034,-0.560558,-0.005593,0.00211723,0.00133235,0.00234097,-0.00581674,1.40442,0.0072754,645.287,-82.2698,-43.5405,0.327847,-0.0874546,-0.12489,0.00443714,139,541,105.974,28.0095,161.497,144.895,52.0971,104.475,0.00012086,0.000115849,0.000413643
-16.4357,7.26616,-298.23,4.07961,-1.25835,-0.557722,-0.00557156,0.0020843,0.00129593,0.00229772,-0.00578497,1.40758,0.00721371,645.167,-82.4167,-41.5728,0.301812,-0.0874997,-0.127751,0.00436505,146,541,105.937,27.9681,162.811,145.519,53.5196,105.165,0.000118654,0.00011018,0.000408658
-16.1402,7.25434,-298.198,4.07763,-1.2562,-0.554866,-0.00552886,0.00204943,0.00125144,0.00225074,-0.00573017,1.4113,0.00712726,645.025,-82.5222,-39.9302,0.283008,-0.0847419,-0.130756,0.00432847,153,541,105.901,27.925,164.262,146.126,55.0782,105.844,0.000116971,0.000104954,0.000405639
-15.8437,7.24232,-298.163,4.07558,-1.25392,-0.551825,-0.00546614,0.00201368,0.00120438,0.00220282,-0.00565528,1.41502,0.00702084,644.871,-82.6354,-38.2543,0.270952,-0.079348,-0.133415,0.00427936,160,541,105.864,27.8809,165.76,146.743,56.6829,106.537,0.000114987,0.000100877,0.00040201
-15.546,7.23037,-298.124,4.07357,-1.25144,-0.548446,-0.00538183,0.00197775,0.00115772,0.00215557,-0.00555965,1.41839,0.00689496,644.652,-82.8035,-36.3599,0.261096,-0.071568,-0.134192,0.00426416,167,541,105.826,27.8312,167.324,147.354,58.3486,107.229,0.000114434,0.000102987,0.000401835
-15.247,7.21818,-298.08,4.07156,-1.24869,-0.544676,-0.00527653,0.00194189,0.00111526,0.00211027,-0.00544491,1.42095,0.00675208,644.385,-83.0159,-34.296,0.251564,-0.062541,-0.131973,0.00427552,174,541,105.788,27.7714,168.956,147.979,60.076,107.938,0.000113935,0.000108865,0.000401274
-14.9468,7.20604,-298.032,4.06941,-1.24568,-0.541301,-0.00516159,0.00190555,0.00108115,0.00206724,-0.00532329,1.42234,0.0066042,644.064,-83.199,-32.2264,0.244678,-0.0549286,-0.126219,0.00446574,181,541,105.75,27.708,170.646,148.595,61.8673,108.648,0.000115561,0.000114785,0.000407517
-14.6442,7.19393,-297.975,4.06712,-1.24246,-0.537647,-0.00505078,0.00187031,0.00105476,0.00202748,-0.00520795,1.42287,0.00646471,643.718,-83.293,-30.2482,0.246024,-0.0499255,-0.116218,0.00470798,188,541,105.709,27.6413,172.455,149.21,63.7759,109.363,0.00011979,0.000121319,0.000420763
-14.3412,7.18195,-297.917,4.0648,-1.23925,-0.533619,-0.00495962,0.00183751,0.00103521,0.00199168,-0.00511379,1.42296,0.00634844,643.34,-83.3701,-28.5451,0.256961,-0.047446,-0.102478,0.00490842,195,541,105.666,27.5763,174.293,149.82,65.711,110.073,0.000127476,0.00012658,0.000444752
-14.0395,7.17002,-297.863,4.06263,-1.23629,-0.529204,-0.00489886,0.00180783,0.00102216,0.00196016,-0.00505119,1.42286,0.00626561,643.058,-83.5078,-26.678,0.271368,-0.0471509,-0.0865246,0.00515869,202,541,105.623,27.5144,176.071,150.435,67.579,110.778,0.0001348,0.000130966,0.000468096
-13.7403,7.15822,-297.815,4.06055,-1.23355,-0.524965,-0.00487181,0.00177901,0.00101099,0.00192929,-0.0050221,1.42323,0.00621552,642.838,-83.6879,-24.7761,0.287269,-0.048303,-0.0716131,0.00553284,209,541,105.582,27.4544,177.727,151.045,69.3252,111.47,0.000143299,0.000138622,0.00049565
-13.4448,7.14631,-297.779,4.05872,-1.23092,-0.520909,-0.00488662,0.00174905,0.000996208,0.00189538,-0.00503296,1.42495,0.00620181,642.788,-83.8077,-22.9484,0.303687,-0.0515846,-0.0602618,0.00576794,216,541,105.546,27.3952,179.197,151.653,70.8814,112.157,0.00014923,0.00014351,0.000515294
-13.1511,7.13489,-297.747,4.0569,-1.2283,-0.517113,-0.00494079,0.00171866,0.00097596,0.00185874,-0.00508087,1.42824,0.00622208,642.788,-83.8946,-21.1532,0.319257,-0.0569161,-0.053001,0.0057943,223,541,105.51,27.3383,180.581,152.228,72.3535,112.814,0.00014975,0.000144369,0.000517624
-12.858,7.12363,-297.717,4.05518,-1.2255,-0.512629,-0.0050137,0.00168702,0.000950566,0.00181926,-0.00514593,1.43257,0.00625716,642.813,-83.9306,-19.6974,0.331251,-0.0646426,-0.0514149,0.00564134,230,541,105.471,27.2783,181.944,152.788,73.7958,113.462,0.000147386,0.000140035,0.000512289
-12.565,7.11223,-297.687,4.05346,-1.22269,-0.508828,-0.00508688,0.00165449,0.000919335,0.00177761,-0.00521,1.43766,0.0062901,642.689,-83.9231,-18.5941,0.335979,-0.0733096,-0.058001,0.00546671,237,541,105.438,27.2135,183.292,153.359,75.2286,114.117,0.000144373,0.000134939,0.000505191
-12.2704,7.10066,-297.651,4.05143,-1.21986,-0.505178,-0.0051576,0.00162033,0.000883941,0.00173372,-0.00527098,1.44322,0.00631881,642.575,-83.8619,-17.2794,0.34061,-0.0819933,-0.0737411,0.00543265,244,541,105.4,27.1428,184.717,153.948,76.7451,114.786,0.000144902,0.000129293,0.000508314
-11.9737,7.08872,-297.608,4.04894,-1.21688,-0.501175,-0.00523276,0.00158401,0.000847059,0.00168769,-0.00533644,1.449,0.00635076,642.455,-83.8158,-15.8966,0.346393,-0.0908197,-0.0942209,0.00555185,251,541,105.351,27.0738,186.242,154.556,78.3698,115.481,0.000148439,0.000129739,0.000519673
-11.6751,7.07632,-297.558,4.04619,-1.21384,-0.496437,-0.00531144,0.00154607,0.000806974,0.00163976,-0.00540512,1.45522,0.00638492,642.228,-83.9157,-14.6895,0.348278,-0.100163,-0.114548,0.00544102,258,541,105.293,27.0151,187.865,155.183,80.0905,116.205,0.000145176,0.000131178,0.00050612
-11.3758,7.0639,-297.505,4.04348,-1.21068,-0.491232,-0.00538617,0.00150777,0.000759374,0.00159042,-0.00546882,1.46238,0.00641367,642.129,-84.0946,-13.0573,0.3479,-0.109799,-0.131552,0.0052738,265,541,105.233,26.959,189.535,155.807,81.8522,116.934,0.000139648,0.000132246,0.000483947
-11.0736,7.05167,-297.443,4.04079,-1.20738,-0.485505,-0.00544489,0.00147118,0.000705191,0.00154235,-0.00551606,1.47021,0.00642756,641.831,-84.3494,-11.7156,0.348978,-0.118986,-0.143773,0.00501073,272,541,105.174,26.9005,191.362,156.427,83.7631,117.661,0.000130309,0.000129921,0.000448959
-10.77,7.03974,-297.375,4.0382,-1.20384,-0.480478,-0.00546952,0.00143659,0.000641902,0.00149574,-0.00552868,1.4789,0.00640882,641.525,-84.4687,-9.93133,0.353253,-0.126383,-0.151055,0.00482404,279,541,105.124,26.8266,193.27,157.037,85.7556,118.377,0.000125264,0.000126924,0.000431353
-10.4662,7.02801,-297.306,4.03568,-1.20016,-0.47593,-0.00544534,0.00139535,0.000570006,0.00144252,-0.00549251,1.48823,0.00633811,641.141,-84.6093,-8.19263,0.358791,-0.131473,-0.151521,0.00467636,286,541,105.08,26.7459,195.187,157.638,87.7582,119.085,0.000120221,0.000122944,0.000414509
-10.1647,7.01614,-297.243,4.03333,-1.19657,-0.471576,-0.00538072,0.00134148,0.000507945,0.00137964,-0.00541888,1.4958,0.00622445,640.79,-84.7716,-6.43787,0.362199,-0.135807,-0.142947,0.00454926,293,541,105.04,26.6657,196.992,158.242,89.6454,119.794,0.000116643,0.000118839,0.000403321
-9.86712,7.00418,-297.193,4.0311,-1.1932,-0.466814,-0.0053051,0.00130014,0.000458921,0.00133188,-0.00533683,1.50176,0.00611258,640.602,-85.063,-4.58771,0.364981,-0.139856,-0.12686,0.00442134,300,541,104.997,26.5877,198.602,158.848,91.3342,120.497,0.000116267,0.000114382,0.000402818
-9.5695,6.9923,-297.141,4.02845,-1.18978,-0.461977,-0.00521398,0.00126227,0.000412269,0.00128841,-0.00524012,1.50748,0.00598918,640.367,-85.2582,-2.63369,0.375611,-0.144527,-0.108181,0.00442186,307,541,104.943,26.5088,200.205,159.45,93.0263,121.196,0.000117638,0.00010972,0.000407878
-9.26936,6.98015,-297.081,4.02541,-1.18601,-0.456844,-0.00512119,0.00123079,0.000368566,0.0012521,-0.00514251,1.51303,0.00586959,640.096,-85.2833,-0.596792,0.38811,-0.148982,-0.0889456,0.00446158,314,541,104.88,26.423,201.938,160.062,94.853,121.917,0.000118408,0.000107408,0.000410669
-8.96127,6.96824,-296.994,4.0218,-1.18148,-0.451411,-0.00504033,0.00121025,0.000327825,0.00122739,-0.00505747,1.51854,0.00576992,639.678,-85.1126,1.37344,0.399383,-0.151873,-0.0722606,0.00450047,321,541,104.809,26.3206,204.088,160.669,97.1025,122.651,0.000117893,0.000109589,0.000408948
-8.64534,6.95632,-296.881,4.01789,-1.17616,-0.445853,-0.00498787,0.00120139,0.000293844,0.00121531,-0.00500179,1.52346,0.00570732,639.161,-84.939,3.15818,0.405631,-0.152799,-0.0611416,0.00466387,328,541,104.739,26.2016,206.658,161.279,99.7717,123.41,0.0001202,0.000116495,0.000416771
-8.32772,6.94451,-296.761,4.01418,-1.17063,-0.44034,-0.00495837,0.00120409,0.000266831,0.00121563,-0.0049699,1.5276,0.00567619,638.568,-84.8352,4.57993,0.405095,-0.151405,-0.0557741,0.00497718,335,541,104.676,26.0866,209.335,161.876,102.54,124.169,0.00012766,0.000125326,0.000442552
-8.01356,6.93367,-296.651,4.01132,-1.16574,-0.434612,-0.00493774,0.00121925,0.000245524,0.00122902,-0.00494752,1.531,0.00566295,638.051,-84.8367,5.77,0.40174,-0.148754,-0.0546101,0.00533439,342,541,104.63,25.989,211.864,162.429,105.136,124.869,0.000137753,0.000135165,0.000477283
-7.72444,6.92227,-296.623,4.00974,-1.16233,-0.428182,-0.00492948,0.00124895,0.000226324,0.00125723,-0.00493775,1.53423,0.00567185,637.874,-84.9739,7.01371,0.393803,-0.145928,-0.0573756,0.00538746,349,541,104.585,25.9116,213.089,162.981,106.407,125.522,0.000141117,0.000136284,0.000488764
-7.43732,6.90921,-296.601,4.00807,-1.15988,-0.421361,-0.00493847,0.00129373,0.000206478,0.00130057,-0.00494531,1.53771,0.00570782,637.882,-85.144,8.55166,0.386059,-0.141594,-0.0661729,0.00537305,356,541,104.535,25.8553,214.203,163.645,107.57,126.256,0.000143052,0.000133421,0.000494969
-7.15252,6.8969,-296.586,4.00617,-1.15768,-0.415538,-0.0049296,0.00134475,0.000185434,0.00135022,-0.00493507,1.54128,0.00573075,637.97,-85.4082,10.358,0.380337,-0.136385,-0.0774119,0.00542389,363,541,104.485,25.8016,215.179,164.271,108.61,126.945,0.000144434,0.000135044,0.000499442
-6.86368,6.88492,-296.557,4.00367,-1.15483,-0.409499,-0.00489766,0.00139796,0.000161095,0.00140208,-0.00490178,1.54523,0.00573289,637.927,-85.6003,11.916,0.375327,-0.131439,-0.0871437,0.00544535,370,541,104.422,25.7342,216.363,164.874,109.868,127.628,0.000143426,0.000135623,0.000495456
-6.56609,6.87372,-296.498,4.00062,-1.15107,-0.403368,-0.00484908,0.00144955,0.000132811,0.00145235,-0.00485188,1.54972,0.00571811,637.768,-85.7455,13.6944,0.375142,-0.128214,-0.0928772,0.00543041,377,541,104.354,25.6487,218.017,165.438,111.6,128.3,0.000141577,0.00013561,0.000488898
-6.25983,6.86344,-296.41,3.99705,-1.14642,-0.397316,-0.00479918,0.00149757,0.000103947,0.00149929,-0.0048009,1.55429,0.00570039,637.317,-85.7744,14.9826,0.383471,-0.127778,-0.0939728,0.00529334,384,541,104.284,25.5452,220.138,165.958,113.807,128.95,0.000136889,0.000131684,0.000472514
-5.95149,6.8526,-296.313,3.99342,-1.14135,-0.391044,-0.00475546,0.0015463,7.70968e-05,0.00154724,-0.0047564,1.55856,0.00569005,636.868,-85.7893,16.2891,0.395963,-0.129306,-0.0912251,0.00517941,391,541,104.212,25.4342,222.382,166.5,116.133,129.638,0.000134495,0.000128273,0.000464982
-5.64511,6.84156,-296.223,3.99015,-1.13651,-0.384041,-0.00469997,0.00159269,4.07485e-05,0.00159296,-0.00470024,1.56432,0.00566719,636.563,-85.8171,17.8192,0.406715,-0.132916,-0.0869693,0.00496521,398,541,104.143,25.3257,224.543,167.058,118.36,130.332,0.000129516,0.000123707,0.000448641
-5.3408,6.82977,-296.138,3.98699,-1.13201,-0.377052,-0.00460625,0.00161072,-9.04458e-07,0.00161072,-0.00460625,-1.57065,0.0055885,636.266,-85.9191,19.5469,0.414638,-0.13924,-0.0813935,0.00463887,405,541,104.076,25.2237,226.6,167.661,120.481,131.059,0.000121255,0.000116827,0.000420664
-5.04058,6.81745,-296.066,3.98404,-1.12778,-0.370307,-0.0045258,0.00162592,-2.77926e-05,0.00162605,-0.00452592,-1.56628,0.00552154,636.022,-86.0711,21.3768,0.419167,-0.147484,-0.0769604,0.00433049,412,541,104.012,25.1277,228.44,168.285,122.385,131.802,0.000113439,0.000109026,0.000393663
-4.74355,6.80538,-296.004,3.98143,-1.1238,-0.363638,-0.00446869,0.0016368,-4.27134e-05,0.0016371,-0.00446898,-1.5638,0.00547432,635.78,-86.1592,23.2604,0.426097,-0.158889,-0.0745888,0.0042489,419,541,103.955,25.0384,230.119,168.892,124.12,132.522,0.000111372,0.000102907,0.000386087
-4.44988,6.79319,-295.953,3.97914,-1.11998,-0.356826,-0.00444155,0.00164351,-4.48469e-05,0.00164384,-0.00444188,-1.56343,0.00545291,635.633,-86.1256,24.8573,0.430911,-0.173657,-0.0724417,0.00436265,426,541,103.901,24.952,231.626,169.5,125.676,133.239,0.000114167,0.000100829,0.000395106
-4.15849,6.7812,-295.909,3.97709,-1.11639,-0.34965,-0.004437,0.00164884,-4.10208e-05,0.00164911,-0.00443727,-1.56406,0.0054522,635.564,-86.1825,26.4081,0.431434,-0.190823,-0.0694422,0.00448936,433,541,103.85,24.8693,233.021,170.098,127.11,133.938,0.000117949,0.000104297,0.000407532
-3.86829,6.76926,-295.868,3.97507,-1.11293,-0.342612,-0.00446146,0.00165579,-3.60171e-05,0.00165601,-0.00446167,-1.56491,0.00548064,635.56,-86.3212,27.8351,0.427604,-0.20806,-0.0678272,0.00470556,440,541,103.799,24.7878,234.353,170.695,128.483,134.631,0.000124567,0.000113069,0.00042983
-3.5768,6.75733,-295.822,3.97284,-1.10928,-0.335597,-0.00452107,0.00166427,-2.79044e-05,0.0016644,-0.00452119,-1.56629,0.00554405,635.419,-86.5046,29.0754,0.419933,-0.223116,-0.0685868,0.00491185,447,541,103.745,24.7062,235.757,171.288,129.931,135.329,0.000130579,0.000119767,0.00045067
-3.28379,6.74562,-295.77,3.97015,-1.10545,-0.329332,-0.00459755,0.00167281,-1.4054e-05,0.00167285,-0.00459758,-1.56855,0.00562381,635.154,-86.747,30.0818,0.409646,-0.234707,-0.0694322,0.00499978,454,541,103.687,24.6204,237.233,171.87,131.467,136.022,0.000132723,0.000122723,0.000458225
-2.98813,6.73443,-295.709,3.96722,-1.1014,-0.322799,-0.00466703,0.00168146,5.41899e-06,0.00168146,-0.00466703,1.56994,0.00569701,634.873,-86.9423,31.4368,0.39715,-0.244235,-0.0668615,0.00500766,461,541,103.625,24.5301,238.864,172.429,133.158,136.696,0.000131932,0.000124162,0.000455931
-2.68956,6.72295,-295.636,3.96389,-1.09683,-0.315492,-0.00472907,0.00169388,2.69569e-05,0.00169399,-0.00472918,1.5666,0.00576593,634.608,-87.0354,33.1867,0.388073,-0.252314,-0.0631778,0.00493181,468,541,103.55,24.4291,240.661,172.999,135.017,137.396,0.000128377,0.000124177,0.000443715
-2.38804,6.71137,-295.552,3.96011,-1.09188,-0.308533,-0.0047706,0.0017084,4.88184e-05,0.00170877,-0.00477097,1.56326,0.00581674,634.261,-87.0424,34.5616,0.384109,-0.258013,-0.0611222,0.00487181,475,541,103.471,24.3193,242.621,173.575,137.049,138.113,0.000123598,0.000123736,0.000426611
-2.0862,6.6999,-295.466,3.95638,-1.08686,-0.302094,-0.00478382,0.00172344,7.0048e-05,0.00172419,-0.00478458,1.56003,0.00584076,633.831,-87.0441,36.1249,0.386454,-0.260525,-0.0611246,0.00485562,482,541,103.397,24.2088,244.605,174.144,139.106,138.827,0.000122021,0.000124028,0.000420351
-1.78766,6.68795,-295.391,3.95304,-1.08223,-0.295347,-0.00476439,0.00173842,9.15306e-05,0.00173971,-0.00476568,1.55672,0.00583345,633.393,-87.072,37.5203,0.394733,-0.261046,-0.0611963,0.00489723,489,541,103.328,24.1023,246.422,174.744,140.986,139.555,0.000122651,0.000124833,0.00042208
-1.49237,6.67627,-295.326,3.95016,-1.07796,-0.288264,-0.00471259,0.00175422,0.000113235,0.0017562,-0.00471457,1.55329,0.00579579,633.191,-87.204,39.1473,0.40791,-0.261399,-0.0605094,0.0049489,496,541,103.265,24.0036,248.075,175.33,142.689,140.259,0.000123844,0.000124834,0.000425943
-1.19966,6.66494,-295.269,3.94746,-1.0739,-0.281295,-0.00463917,0.00177137,0.000136194,0.00177427,-0.00464207,1.54956,0.00573873,633.106,-87.3041,40.7865,0.424161,-0.261163,-0.0585219,0.00499856,503,541,103.206,23.9108,249.591,175.893,144.252,140.937,0.000125802,0.000126423,0.000432701
-0.906871,6.6534,-295.211,3.94462,-1.0698,-0.274253,-0.00455874,0.00178872,0.000161769,0.00179284,-0.00456286,1.54533,0.00567578,632.967,-87.4304,42.146,0.444828,-0.261347,-0.0544453,0.00498061,510,541,103.143,23.8177,251.116,176.468,145.825,141.627,0.000127986,0.000127758,0.000440414
-0.611999,6.64216,-295.146,3.94168,-1.06522,-0.266932,-0.00447407,0.00180558,0.00019308,0.00181151,-0.00448,1.54009,0.0056096,632.732,-87.5168,43.4082,0.462808,-0.260305,-0.0499405,0.00524082,517,541,103.079,23.715,252.769,177.02,147.524,142.309,0.00013216,0.000131694,0.000455467
-0.315407,6.6306,-295.073,3.93858,-1.06035,-0.259379,-0.0043881,0.00182221,0.000227249,0.00183051,-0.0043964,1.53427,0.00554318,632.441,-87.6257,44.7986,0.474825,-0.257533,-0.0462259,0.00535183,524,541,103.011,23.6051,254.529,177.589,149.329,143.016,0.000134523,0.000134305,0.000462823
-0.0184109,6.61901,-294.997,3.9354,-1.05534,-0.251683,-0.00430236,0.00184118,0.000260072,0.00185217,-0.00431335,1.52856,0.00547947,632.211,-87.6789,46.5693,0.489023,-0.254505,-0.0434808,0.00539085,531,541,102.941,23.4896,256.321,178.161,151.164,143.726,0.000137471,0.000135866,0.000470877
0.277998,6.60732,-294.923,3.93224,-1.05029,-0.243893,-0.00423789,0.00185868,0.000293288,0.00187276,-0.00425197,1.52284,0.00543593,632.058,-87.7354,48.4611,0.503963,-0.25072,-0.0395586,0.00544583,538,541,102.871,23.3723,258.089,178.736,152.974,144.441,0.000139244,0.000136578,0.000474173
0.573492,6.59569,-294.851,3.92906,-1.0454,-0.23617,-0.00419163,0.00187357,0.000326543,0.0018911,-0.00420916,1.51716,0.00540862,631.898,-87.7748,50.2174,0.515806,-0.24694,-0.0301554,0.00555039,545,541,102.801,23.2608,259.811,179.309,154.739,145.151,0.000140245,0.000136528,0.000475657
0.867254,6.58433,-294.785,3.9261,-1.04068,-0.228457,-0.00415554,0.00188495,0.000357356,0.00190602,-0.00417661,1.51191,0.00538866,631.578,-87.8843,51.684,0.522627,-0.242123,-0.0153133,0.00553883,552,541,102.736,23.1553,261.446,179.865,156.411,145.842,0.000142711,0.00013597,0.000482683
1.16019,6.57298,-294.72,3.92313,-1.03625,-0.220817,-0.004144,0.00189105,0.000385975,0.00191564,-0.00416858,1.50719,0.00538816,631.191,-88.0442,52.8938,0.529369,-0.233985,0.00131628,0.00557491,559,541,102.67,23.0546,263.039,180.428,158.043,146.529,0.00014786,0.000134592,0.000500921
1.45316,6.56174,-294.655,3.92016,-1.03177,-0.213153,-0.00418331,0.00188749,0.000419062,0.00191628,-0.00421211,1.5022,0.00543006,631.048,-88.1696,54.3216,0.540747,-0.22135,0.0179186,0.00570666,566,541,102.606,22.9509,264.644,180.988,159.684,147.213,0.000152749,0.000135276,0.000517939
1.74649,6.5502,-294.587,3.91705,-1.02707,-0.205777,-0.00426553,0.00186822,0.000468987,0.00190387,-0.00430118,1.49492,0.00550579,630.85,-88.3003,55.4497,0.553647,-0.205882,0.0345963,0.00587713,573,541,102.54,22.845,266.272,181.557,161.354,147.914,0.000157882,0.000137954,0.000534457
0,0,0,0,0,0,0,0,0,0,0,0,0,0,0,0,0,0,0,-1,580,541,0,0,0,0,0,0,0,0,0
0,0,0,0,0,0,0,0,0,0,0,0,0,0,0,0,0,0,0,-1,587,541,0,0,0,0,0,0,0,0,0
0,0,0,0,0,0,0,0,0,0,0,0,0,0,0,0,0,0,0,-1,594,541,0,0,0,0,0,0,0,0,0
0,0,0,0,0,0,0,0,0,0,0,0,0,0,0,0,0,0,0,-1,601,541,0,0,0,0,0,0,0,0,0
0,0,0,0,0,0,0,0,0,0,0,0,0,0,0,0,0,0,0,-1,62,548,0,0,0,0,0,0,0,0,0
0,0,0,0,0,0,0,0,0,0,0,0,0,0,0,0,0,0,0,-1,69,548,0,0,0,0,0,0,0,0,0
0,0,0,0,0,0,0,0,0,0,0,0,0,0,0,0,0,0,0,-1,76,548,0,0,0,0,0,0,0,0,0
-19.0151,7.09972,-298.221,4.09438,-1.27047,-0.566439,-0.00531503,0.00230895,0.0013508,0.0025412,-0.00554729,1.40052,0.00716428,643.963,-80.8619,-57.2615,0.56997,0.00465731,-0.0673363,0.00512386,83,548,106.157,28.2128,153.626,141.042,43.2241,100.251,0.000122838,0.000131124,0.00044335
-18.733,7.08808,-298.233,4.09274,-1.26956,-0.565281,-0.00532671,0.00228997,0.00138519,0.00253406,-0.0055708,1.39637,0.00718137,644.393,-81.0168,-55.7595,0.518238,-0.00638678,-0.0845027,0.00476554,90,548,106.127,28.1945,154.427,141.634,44.1514,100.883,0.000114375,0.000122856,0.000403377
-18.4503,7.07665,-298.242,4.09117,-1.26867,-0.5639,-0.005358,0.00227281,0.00141739,0.00252758,-0.00561277,1.39295,0.00721655,644.57,-81.1871,-54.3309,0.479143,-0.0205804,-0.0948333,0.00462312,97,548,106.098,28.1782,155.265,142.217,45.1112,101.506,0.000116393,0.000118991,0.000407625
-18.1677,7.06538,-298.252,4.08973,-1.26779,-0.562647,-0.00539972,0.0022567,0.00143653,0.00251736,-0.00566038,1.3913,0.00725439,644.613,-81.4515,-52.9736,0.445606,-0.0354364,-0.0999168,0.00453006,104,548,106.073,28.1645,156.091,142.789,46.056,102.121,0.000117527,0.000115403,0.000412093
-17.8851,7.05391,-298.261,4.0885,-1.26685,-0.561358,-0.00544953,0.00224052,0.00144204,0.00250204,-0.00571105,1.39139,0.00729147,644.717,-81.6442,-51.2723,0.416111,-0.0493715,-0.101587,0.00455416,111,548,106.053,28.152,156.922,143.368,46.9984,102.745,0.0001195,0.000115381,0.000417585
-17.6024,7.04226,-298.27,4.08708,-1.26576,-0.559668,-0.00549071,0.00222177,0.00143431,0.00247988,-0.00574882,1.39275,0.00731129,644.85,-81.8083,-49.4022,0.389536,-0.0613502,-0.102975,0.00452877,118,548,106.026,28.1336,157.754,143.955,47.9432,103.38,0.000119431,0.000114917,0.000414496
-17.3184,7.03026,-298.275,4.08552,-1.26446,-0.557996,-0.00551277,0.00219936,0.00141528,0.00245088,-0.00576429,1.39491,0.00730489,645.062,-81.9347,-47.2379,0.364966,-0.0705309,-0.106167,0.00446006,125,548,105.997,28.1075,158.64,144.56,48.9449,104.035,0.000117395,0.000114835,0.000404777
-17.032,7.01828,-298.272,4.08382,-1.26297,-0.555917,-0.00551739,0.00217376,0.0013877,0.00241648,-0.00576012,1.39764,0.00727582,645.186,-82.0733,-44.9011,0.34209,-0.0768807,-0.110538,0.00442663,132,548,105.964,28.0763,159.639,145.168,50.0583,104.697,0.000117991,0.000114911,0.000404329
-16.7419,7.00639,-298.257,4.08207,-1.26108,-0.553408,-0.00550575,0.00214668,0.00135557,0.00237972,-0.00573878,1.40055,0.00722865,645.128,-82.198,-42.6764,0.315846,-0.0812637,-0.114346,0.00443586,139,548,105.931,28.0365,160.826,145.77,51.3537,105.364,0.000119933,0.000114772,0.000410667
-16.448,6.9944,-298.231,4.08017,-1.2589,-0.550463,-0.00547605,0.00211763,0.00131372,0.00233848,-0.0056969,1.40424,0.00715858,644.9,-82.3153,-40.7426,0.291266,-0.0836519,-0.118531,0.00439597,146,548,105.894,27.9924,162.202,146.381,52.8363,106.048,0.000119184,0.000111141,0.000409959
-16.1511,6.98271,-298.195,4.07807,-1.25657,-0.54761,-0.00542709,0.0020849,0.00126292,0.00229153,-0.00563373,1.40861,0.00706398,644.691,-82.4419,-38.9217,0.274319,-0.0836743,-0.122955,0.00433179,153,548,105.857,27.9467,163.719,146.98,54.4632,106.724,0.000116884,0.000105993,0.000404662
-15.8528,6.97086,-298.154,4.07585,-1.25413,-0.544649,-0.00536064,0.00204973,0.00120866,0.00224188,-0.00555279,1.41313,0.00695041,644.485,-82.5541,-37.1484,0.264352,-0.0813131,-0.127063,0.0042141,160,548,105.818,27.899,165.303,147.589,56.1571,107.413,0.000112967,0.000100553,0.000394699
-15.5536,6.95892,-298.11,4.07379,-1.25155,-0.541099,-0.00527675,0.00201376,0.00115504,0.00219237,-0.00545537,1.41737,0.00682113,644.28,-82.7212,-35.0903,0.257018,-0.0766007,-0.129261,0.00420453,167,548,105.779,27.846,166.939,148.204,57.8938,108.11,0.000112305,0.000103327,0.000394733
-15.2538,6.94675,-298.064,4.07183,-1.24871,-0.537215,-0.00517623,0.00197737,0.00110709,0.00214479,-0.00534365,1.42071,0.0066795,644.026,-82.9657,-33.123,0.250461,-0.0707429,-0.127826,0.00434779,174,548,105.742,27.7839,168.617,148.829,59.6648,108.821,0.000113575,0.000111587,0.000400346
-14.9528,6.93469,-298.013,4.06979,-1.24565,-0.533622,-0.00506844,0.00194018,0.00106936,0.00209971,-0.00522797,1.42271,0.00653587,643.717,-83.1332,-31.2639,0.246163,-0.0661017,-0.121866,0.00458815,181,548,105.706,27.7188,170.353,149.445,61.4964,109.53,0.000115986,0.000117889,0.000409518
-14.6505,6.92279,-297.957,4.06758,-1.24245,-0.530084,-0.00496557,0.00190419,0.00104157,0.00205864,-0.00512001,1.42359,0.00640256,643.371,-83.2223,-29.5087,0.24925,-0.0636423,-0.111196,0.00473162,188,548,105.668,27.6517,172.151,150.051,63.3932,110.235,0.000118953,0.000121666,0.000419644
-14.3482,6.91113,-297.902,4.06532,-1.23927,-0.526147,-0.00488282,0.00187093,0.00102253,0.00202235,-0.00503424,1.42378,0.00629401,643.064,-83.2515,-27.876,0.260839,-0.0627842,-0.0968449,0.00477841,195,548,105.627,27.5877,173.951,150.644,65.2893,110.928,0.000123151,0.000122917,0.00043284
-14.0476,6.89941,-297.85,4.06315,-1.23629,-0.521917,-0.00482885,0.00184171,0.00101148,0.00199171,-0.00497885,1.42357,0.0062187,642.746,-83.396,-26.2125,0.27488,-0.0630993,-0.080151,0.00493346,202,548,105.584,27.5281,175.676,151.242,67.1058,111.62,0.000128697,0.000124924,0.000449825
-13.7494,6.8876,-297.806,4.06119,-1.23358,-0.517402,-0.00480368,0.00181455,0.00100357,0.00196338,-0.00495251,1.42357,0.006173,642.554,-83.5741,-24.2788,0.289951,-0.0636819,-0.064084,0.00530539,209,548,105.543,27.4694,177.287,151.851,68.802,112.31,0.000137267,0.000132027,0.000476802
-13.4537,6.87574,-297.769,4.05933,-1.23095,-0.513179,-0.00481602,0.0017875,0.000992726,0.00193351,-0.00496203,1.42476,0.00616071,642.509,-83.6724,-22.4019,0.30554,-0.0654862,-0.050835,0.00555333,216,548,105.505,27.4114,178.773,152.458,70.3731,112.996,0.000144147,0.000136211,0.000499219
-13.1591,6.86427,-297.734,4.05746,-1.22835,-0.508906,-0.00486649,0.00176064,0.000976798,0.00190162,-0.00500747,1.42746,0.00618168,642.513,-83.7502,-20.6195,0.320634,-0.06816,-0.0413771,0.005639,223,548,105.465,27.3529,180.204,153.044,71.89,113.66,0.0001473,0.000137396,0.000509672
-12.8643,6.85299,-297.699,4.0555,-1.2254,-0.504557,-0.00493638,0.00173239,0.000955651,0.00186664,-0.00507062,1.43123,0.00621776,642.458,-83.7502,-19.3,0.332751,-0.0721469,-0.0378813,0.00552993,230,548,105.423,27.29,181.647,153.606,73.4183,114.314,0.000146579,0.000133691,0.000509045
-12.5696,6.84173,-297.663,4.05366,-1.22243,-0.500703,-0.00500582,0.00170272,0.000927972,0.00182871,-0.00513182,1.43584,0.00625015,642.338,-83.7746,-18.0076,0.337165,-0.0765196,-0.0434766,0.00533653,237,548,105.389,27.2217,183.083,154.171,74.9401,114.967,0.000142919,0.000128663,0.000499515
-12.2746,6.83037,-297.626,4.05173,-1.21946,-0.497115,-0.00507065,0.00167064,0.000895018,0.00178745,-0.00518746,1.44102,0.00627511,642.229,-83.7619,-16.5851,0.339848,-0.0810667,-0.0587009,0.00525866,244,548,105.354,27.1491,184.533,154.746,76.4786,115.627,0.000141306,0.000123948,0.00049539
-11.9792,6.81852,-297.587,4.04962,-1.21657,-0.493016,-0.0051383,0.0016357,0.000859137,0.00174296,-0.00524557,1.44659,0.00630053,642.128,-83.7706,-15.1179,0.342837,-0.0866171,-0.0787205,0.00541017,251,548,105.313,27.0817,186.002,155.35,78.0368,116.314,0.000144753,0.000124686,0.000506458
-11.6819,6.8063,-297.541,4.04713,-1.21365,-0.488084,-0.00520851,0.00159942,0.000818195,0.00169638,-0.00530546,1.45285,0.00632658,641.956,-83.8873,-13.9436,0.342357,-0.0936771,-0.0988438,0.00540361,258,548,105.259,27.0255,187.571,155.969,79.6963,117.027,0.000143518,0.000126643,0.000499861
-11.3837,6.794,-297.492,4.04463,-1.21059,-0.482761,-0.00527455,0.00156191,0.000768342,0.00164719,-0.00535984,1.46024,0.00634585,641.82,-84.0481,-12.6542,0.340854,-0.10217,-0.116247,0.00520217,265,548,105.203,26.9707,189.189,156.588,81.3992,117.747,0.000137441,0.000125496,0.000475852
-11.083,6.78181,-297.434,4.04199,-1.20739,-0.477543,-0.0053255,0.00152455,0.000710389,0.00159745,-0.00539839,1.46854,0.00634966,641.528,-84.2874,-11.3215,0.341576,-0.111176,-0.1295,0.00491225,272,548,105.147,26.9137,190.939,157.207,83.2367,118.47,0.000129438,0.000123488,0.000445029
-10.7801,6.76997,-297.369,4.03939,-1.20392,-0.472658,-0.00534641,0.00148856,0.000643422,0.00154861,-0.00540645,1.47775,0.00632458,641.229,-84.3768,-9.63196,0.344492,-0.118939,-0.138248,0.00470093,279,548,105.098,26.8423,192.807,157.814,85.1912,119.181,0.0001242,0.000121275,0.000426623
-10.4766,6.75836,-297.301,4.03686,-1.20029,-0.468233,-0.00532663,0.00144605,0.000568621,0.00149346,-0.00537404,1.48761,0.00625593,640.849,-84.5107,-7.64304,0.347333,-0.125192,-0.139917,0.00452883,286,548,105.054,26.7635,194.707,158.41,87.1775,119.884,0.00011909,0.000119092,0.000409931
-10.1753,6.74663,-297.239,4.03452,-1.19674,-0.463979,-0.00527294,0.00139017,0.000504881,0.0014282,-0.00531098,1.4956,0.00615073,640.512,-84.7136,-5.74294,0.348065,-0.131645,-0.131667,0.00447466,293,548,105.015,26.6844,196.505,159.01,89.059,120.587,0.000116513,0.000116855,0.00040245
-9.87714,6.73482,-297.186,4.0323,-1.19329,-0.459365,-0.00520983,0.00134724,0.000454978,0.00137866,-0.00524125,1.50185,0.00604957,640.31,-84.9983,-4.00171,0.349622,-0.138419,-0.115224,0.00444053,300,548,104.974,26.6055,198.143,159.609,90.776,121.285,0.000117065,0.000114335,0.000405312
-9.57909,6.72307,-297.134,4.02967,-1.18977,-0.454822,-0.0051308,0.00130685,0.00040891,0.00133272,-0.00515667,1.50762,0.00593631,640.074,-85.1672,-2.37882,0.359952,-0.14606,-0.0953315,0.00446203,307,548,104.923,26.5256,199.769,160.202,92.4914,121.98,0.000118162,0.000112572,0.000409651
-9.27862,6.71098,-297.072,4.02672,-1.18598,-0.449592,-0.00504691,0.00127379,0.000364837,0.00129477,-0.0050679,1.51333,0.00582425,639.842,-85.2075,-0.371844,0.373096,-0.153041,-0.0744807,0.00448828,314,548,104.862,26.4385,201.523,160.816,94.3363,122.701,0.000118607,0.000111278,0.000411405
-8.97087,6.69904,-296.986,4.02321,-1.18147,-0.443827,-0.00497439,0.00125297,0.00032187,0.00126956,-0.00499099,1.51929,0.00573219,639.49,-85.0279,1.71795,0.385954,-0.157329,-0.0560305,0.00455719,321,548,104.791,26.3365,203.661,161.427,96.5684,123.439,0.000118518,0.000112958,0.00041117
-8.65549,6.68727,-296.875,4.01927,-1.17618,-0.438291,-0.00493092,0.00124483,0.000284266,0.00125789,-0.00494398,1.5249,0.00567839,638.959,-84.8635,3.62059,0.394133,-0.158552,-0.0429753,0.00470819,328,548,104.719,26.2182,206.201,162.033,99.209,124.192,0.000120775,0.000118681,0.000418689
-8.33878,6.67577,-296.758,4.01563,-1.17063,-0.432521,-0.0049067,0.00124808,0.000252321,0.0012584,-0.00491703,1.52989,0.00565229,638.328,-84.7768,5.03781,0.39595,-0.15659,-0.0358926,0.0050076,335,548,104.655,26.1031,208.835,162.615,101.93,124.937,0.000127572,0.000127256,0.000442195
-8.02594,6.66524,-296.652,4.01277,-1.16569,-0.426704,-0.00488428,0.00126312,0.000224722,0.00127132,-0.00489248,1.53431,0.00563672,637.762,-84.7695,6.26275,0.396222,-0.152466,-0.0336614,0.00535297,342,548,104.608,26.0045,211.295,163.149,104.457,125.621,0.000137372,0.000136523,0.000475879
-7.73244,6.65379,-296.61,4.01101,-1.1621,-0.420196,-0.00486586,0.00129242,0.000198211,0.00129879,-0.00487223,1.53865,0.00563502,637.522,-84.8707,7.54544,0.392589,-0.147537,-0.0364917,0.00543623,349,548,104.563,25.9251,212.752,163.714,105.961,126.291,0.00014149,0.000138449,0.000489868
-7.44411,6.641,-296.583,4.00926,-1.15952,-0.413372,-0.00485896,0.00133607,0.00016951,0.00134071,-0.00486359,1.54346,0.00565444,637.507,-85.0648,9.05266,0.387774,-0.140515,-0.0463491,0.00534434,356,548,104.512,25.8647,213.931,164.366,107.19,127.015,0.000142072,0.000133952,0.000491306
-7.15804,6.62901,-296.564,4.00726,-1.15721,-0.407473,-0.00483156,0.00138378,0.000140447,0.00138696,-0.00483473,1.54821,0.00565719,637.58,-85.299,10.946,0.381959,-0.132757,-0.0585047,0.00532614,363,548,104.46,25.8079,214.976,164.978,108.299,127.691,0.000141531,0.000131609,0.000488886
-6.86746,6.61686,-296.53,4.0047,-1.15416,-0.40077,-0.00478444,0.0014332,0.000108991,0.00143511,-0.00478635,1.55327,0.00564248,637.542,-85.4985,12.638,0.374999,-0.125681,-0.0688833,0.0053712,370,548,104.393,25.7359,216.261,165.593,109.652,128.39,0.000140169,0.00013032,0.000483618
-6.56619,6.60554,-296.459,4.00115,-1.15011,-0.394772,-0.0047241,0.00148035,7.53866e-05,0.00148127,-0.00472502,1.55865,0.00561417,637.284,-85.5975,14.2701,0.372903,-0.120999,-0.0750206,0.00535802,377,548,104.318,25.6429,218.101,166.172,111.583,129.082,0.000137751,0.000130816,0.000475061
-6.2554,6.59511,-296.355,3.99714,-1.14509,-0.388781,-0.00466391,0.00152273,4.28545e-05,0.00152303,-0.0046642,1.56387,0.00558374,636.82,-85.6224,15.5212,0.38026,-0.119921,-0.0765202,0.00530441,384,548,104.241,25.5316,220.461,166.708,114.037,129.759,0.00013594,0.000131098,0.000469093
-5.94352,6.58471,-296.247,3.99338,-1.13984,-0.382241,-0.00461244,0.00156496,1.51354e-05,0.00156499,-0.00461247,1.56835,0.00556261,636.419,-85.6056,16.9176,0.391537,-0.121342,-0.0739038,0.00523496,391,548,104.169,25.4167,222.902,167.24,116.558,130.439,0.000134657,0.0001311,0.000465583
-5.63752,6.57431,-296.157,3.99022,-1.13515,-0.375405,-0.00455644,0.00160628,-1.89111e-05,0.00160634,-0.0045565,-1.56773,0.00553727,636.11,-85.6824,18.3995,0.399775,-0.125125,-0.0692839,0.00496941,398,548,104.104,25.3116,225.049,167.772,118.769,131.102,0.000127431,0.00012667,0.000440967
-5.33594,6.56267,-296.081,3.98744,-1.13096,-0.368381,-0.00447579,0.0016207,-5.42403e-05,0.00162119,-0.00447627,-1.5619,0.00547011,635.855,-85.8424,20.0968,0.404004,-0.132187,-0.0625497,0.00468808,405,548,104.043,25.2161,226.969,168.37,120.745,131.815,0.000118499,0.000120943,0.000410417
-5.04011,6.55022,-296.024,3.98498,-1.12714,-0.361996,-0.00441366,0.0016344,-7.47472e-05,0.00163532,-0.00441458,-1.55844,0.00542052,635.654,-85.9928,21.7699,0.407021,-0.1415,-0.0565798,0.00444989,412,548,103.99,25.1294,228.578,169,122.411,132.553,0.000111461,0.000114973,0.000386126
-4.74689,6.53834,-295.975,3.9828,-1.12352,-0.355596,-0.00437972,0.00164403,-8.13484e-05,0.00164513,-0.00438082,-1.55729,0.00539491,635.411,-86.0639,23.524,0.413939,-0.154432,-0.0521763,0.00425908,419,548,103.942,25.05,230.058,169.595,123.94,133.253,0.000109416,0.000107769,0.000378966
-4.45539,6.52623,-295.931,3.98069,-1.11987,-0.349042,-0.00437118,0.00164985,-7.43974e-05,0.00165077,-0.0043721,-1.55844,0.00539051,635.335,-86.0281,25.3901,0.419017,-0.170719,-0.0481342,0.00427466,426,548,103.892,24.9683,231.448,170.196,125.378,133.96,0.000110556,0.000104771,0.000382166
-4.16601,6.51425,-295.894,3.97878,-1.11644,-0.342047,-0.0043775,0.0016555,-6.2517e-05,0.00165615,-0.00437815,-1.56044,0.00540017,635.3,-86.0448,27.0168,0.42135,-0.188902,-0.0442654,0.0043792,433,548,103.844,24.8888,232.734,170.793,126.703,134.653,0.000114056,0.000107475,0.000393526
-3.87711,6.50232,-295.857,3.97695,-1.11311,-0.334851,-0.0044115,0.00166429,-5.052e-05,0.00166471,-0.00441192,-1.56248,0.00543883,635.327,-86.2587,28.575,0.421196,-0.20643,-0.0431033,0.00461783,440,548,103.796,24.8114,234.001,171.39,128.005,135.343,0.000121349,0.000116506,0.000418433
-3.58689,6.49033,-295.816,3.9747,-1.10956,-0.328312,-0.0044828,0.00167506,-3.65534e-05,0.00167528,-0.00448302,-1.56486,0.00551492,635.178,-86.4617,29.636,0.417262,-0.22112,-0.0455523,0.00483152,447,548,103.744,24.7325,235.329,171.985,129.383,136.042,0.00012667,0.000123129,0.000436816
-3.295,6.47857,-295.768,3.97217,-1.10584,-0.321763,-0.00457073,0.00168523,-1.82511e-05,0.00168528,-0.00457078,-1.56788,0.00560672,635.009,-86.7288,30.858,0.409039,-0.231284,-0.0490471,0.00498815,454,548,103.687,24.65,236.75,172.571,130.857,136.734,0.000129272,0.000127185,0.000446355
-3.0003,6.46748,-295.71,3.96935,-1.10182,-0.31528,-0.00464574,0.00169455,4.5342e-06,0.00169455,-0.00464575,1.57008,0.00568568,634.713,-86.8832,32.1396,0.397035,-0.238354,-0.0499355,0.00499928,461,548,103.626,24.5624,238.329,173.122,132.495,137.403,0.000129083,0.000127501,0.000446356
-2.70211,6.45616,-295.638,3.96598,-1.09731,-0.307992,-0.00470681,0.00170663,2.77393e-05,0.00170675,-0.00470693,1.56647,0.00575341,634.441,-86.9825,33.8112,0.388706,-0.242966,-0.0503097,0.00488545,468,548,103.551,24.4616,240.104,173.688,134.333,138.096,0.000123397,0.000126129,0.000426411
-2.40078,6.44471,-295.555,3.96225,-1.09238,-0.301103,-0.00474091,0.00171942,5.03179e-05,0.00171981,-0.0047413,1.56301,0.00579584,634.083,-86.951,35.2333,0.385012,-0.244861,-0.0526717,0.00485322,475,548,103.473,24.3507,242.053,174.263,136.354,138.808,0.000118378,0.000124748,0.000407931
-2.09933,6.43333,-295.471,3.9586,-1.08742,-0.294541,-0.00474581,0.00173194,7.14748e-05,0.00173273,-0.0047466,1.55976,0.0058101,633.586,-86.9055,36.455,0.386133,-0.24405,-0.0568374,0.00489483,482,548,103.4,24.2391,244.019,174.834,138.39,139.519,0.000117166,0.000125429,0.000402468
-1.80101,6.42165,-295.396,3.95537,-1.08277,-0.287772,-0.00472123,0.00174443,9.20599e-05,0.00174574,-0.00472254,1.55656,0.00579606,633.168,-86.933,37.8807,0.392665,-0.242013,-0.0600428,0.00497216,489,548,103.333,24.1327,245.826,175.421,140.257,140.236,0.000119055,0.000126922,0.000409006
-1.50568,6.4102,-295.331,3.95246,-1.07848,-0.280918,-0.00466715,0.00175813,0.000112272,0.00176009,-0.00466911,1.55333,0.0057547,632.92,-87.1036,39.577,0.4053,-0.240673,-0.0615328,0.00500403,496,548,103.272,24.0342,247.48,175.996,141.962,140.93,0.000121864,0.000127516,0.000418659
-1.2123,6.39879,-295.272,3.94966,-1.07442,-0.274018,-0.00459407,0.00177356,0.00013377,0.00177637,-0.00459688,1.5498,0.00569671,632.776,-87.2606,41.2648,0.421769,-0.239925,-0.0610318,0.00497875,503,548,103.211,23.9414,249.031,176.569,143.563,141.616,0.00012563,0.000127379,0.000432315
-0.918629,6.38738,-295.211,3.94676,-1.07026,-0.267004,-0.00451751,0.00178952,0.000158101,0.00179348,-0.00452147,1.54575,0.00563644,632.563,-87.3407,42.6183,0.442059,-0.240708,-0.0580031,0.00500058,510,548,103.149,23.8483,250.606,177.14,145.187,142.305,0.000129079,0.000126818,0.000444323
-0.62292,6.37623,-295.142,3.94376,-1.06561,-0.259756,-0.00443831,0.00180558,0.000187651,0.00181121,-0.00444395,1.54078,0.00557477,632.316,-87.3798,44.0159,0.459149,-0.241509,-0.053964,0.00524775,517,548,103.084,23.7441,252.306,177.692,146.934,142.988,0.000134352,0.000131376,0.00046228
-0.325885,6.36476,-295.068,3.94065,-1.06071,-0.252137,-0.00435787,0.00182162,0.000219785,0.00182943,-0.00436567,1.53529,0.00551295,632.079,-87.5154,45.4545,0.471057,-0.241278,-0.0500533,0.00538407,524,548,103.016,23.6322,254.093,178.262,148.764,143.695,0.000138282,0.000134917,0.0004749
-0.0291049,6.35337,-294.993,3.93752,-1.05573,-0.244344,-0.00427875,0.00184101,0.000251051,0.0018513,-0.00428903,1.52987,0.00545558,631.927,-87.5856,47.1552,0.486664,-0.242486,-0.0468717,0.00546042,531,548,102.947,23.5173,255.875,178.827,150.588,144.397,0.000141743,0.000136781,0.000484705
0.266808,6.34189,-294.921,3.93429,-1.05073,-0.236837,-0.00422196,0.00185941,0.000282795,0.00187254,-0.00423508,1.52443,0.00541965,631.769,-87.6453,48.9119,0.502667,-0.244032,-0.0421638,0.00556319,538,548,102.877,23.4004,257.61,179.394,152.37,145.102,0.000144817,0.000136977,0.000492522
0.561641,6.33037,-294.851,3.93118,-1.04592,-0.229203,-0.00418445,0.0018755,0.000314473,0.00189178,-0.00420073,1.51909,0.00540109,631.621,-87.6839,50.4464,0.514696,-0.245956,-0.0322148,0.00565365,545,548,102.809,23.2907,259.295,179.964,154.097,145.807,0.000145344,0.00013439,0.000492025
0.854846,6.31904,-294.787,3.92836,-1.04132,-0.221158,-0.00416018,0.0018879,0.000343897,0.00190739,-0.00417967,1.51418,0.00539259,631.298,-87.7581,51.8153,0.522121,-0.246458,-0.0176645,0.00562262,552,548,102.744,23.1863,260.904,180.525,155.737,146.496,0.000145392,0.000133332,0.000490855
1.14755,6.30778,-294.723,3.92546,-1.03688,-0.213542,-0.00416558,0.00189408,0.000371177,0.00191673,-0.00418823,1.50985,0.00540766,630.975,-87.8537,53.1346,0.529162,-0.242753,-0.00188407,0.00554364,559,548,102.681,23.0864,262.485,181.085,157.355,147.181,0.000146499,0.000132856,0.00049491
1.44069,6.29667,-294.657,3.92243,-1.03239,-0.206165,-0.00422669,0.00188864,0.000402127,0.00191497,-0.00425302,1.50541,0.00546806,630.775,-87.9781,54.5772,0.537787,-0.233032,0.0146329,0.00552944,566,548,102.617,22.9849,264.097,181.639,159.007,147.861,0.000148918,0.00013294,0.000503173
1.73407,6.28528,-294.59,3.91934,-1.02768,-0.198817,-0.0043331,0.00186488,0.000447512,0.00189702,-0.00436524,1.49909,0.00556192,630.611,-88.0989,55.953,0.545381,-0.217394,0.0326759,0.00562992,573,548,102.552,22.8802,265.729,182.201,160.68,148.557,0.000151979,0.000135775,0.000513301
0,0,0,0,0,0,0,0,0,0,0,0,0,0,0,0,0,0,0,-1,580,548,0,0,0,0,0,0,0,0,0
0,0,0,0,0,0,0,0,0,0,0,0,0,0,0,0,0,0,0,-1,587,548,0,0,0,0,0,0,0,0,0
0,0,0,0,0,0,0,0,0,0,0,0,0,0,0,0,0,0,0,-1,594,548,0,0,0,0,0,0,0,0,0
0,0,0,0,0,0,0,0,0,0,0,0,0,0,0,0,0,0,0,-1,601,548,0,0,0,0,0,0,0,0,0
0,0,0,0,0,0,0,0,0,0,0,0,0,0,0,0,0,0,0,-1,62,555,0,0,0,0,0,0,0,0,0
0,0,0,0,0,0,0,0,0,0,0,0,0,0,0,0,0,0,0,-1,69,555,0,0,0,0,0,0,0,0,0
0,0,0,0,0,0,0,0,0,0,0,0,0,0,0,0,0,0,0,-1,76,555,0,0,0,0,0,0,0,0,0
-19.0305,6.82763,-298.231,4.09487,-1.27153,-0.559842,-0.00533153,0.00219909,0.00137843,0.00244347,-0.00557592,1.39533,0.00711941,643.819,-80.8409,-56.4815,0.55654,0.00996073,-0.0417613,0.00520051,83,555,106.114,28.2468,152.847,141.937,42.3811,101.154,0.000127252,0.000133181,0.000459929
-18.7481,6.81602,-298.242,4.09329,-1.27062,-0.558617,-0.0053484,0.00220509,0.00141445,0.00246127,-0.00560458,1.39162,0.00715986,644.214,-80.9858,-55.0415,0.506033,-0.000746921,-0.0606338,0.00479786,90,555,106.085,28.2292,153.668,142.526,43.3265,101.783,0.000115822,0.000124006,0.000408099
-18.4655,6.80449,-298.252,4.09175,-1.26973,-0.557115,-0.00536972,0.00220941,0.00144566,0.0024758,-0.0056361,1.38857,0.00720063,644.45,-81.1592,-53.5685,0.465893,-0.0150572,-0.0732085,0.00462381,97,555,106.055,28.2132,154.498,143.113,44.2767,102.41,0.000116099,0.000119494,0.000407208
-18.183,6.79308,-298.261,4.09025,-1.26882,-0.555738,-0.00539305,0.00221175,0.00146194,0.00248311,-0.00566441,1.38727,0.00723303,644.55,-81.4469,-52.1351,0.431397,-0.0302251,-0.080608,0.00451955,104,555,106.028,28.1989,155.321,143.69,45.2183,103.029,0.000117642,0.000114976,0.00041254
-17.9003,6.78162,-298.27,4.08887,-1.26784,-0.554367,-0.00542235,0.00221133,0.00146378,0.00248238,-0.00569341,1.38769,0.00726019,644.684,-81.6733,-50.2413,0.401686,-0.0444693,-0.0844229,0.00454748,111,555,106.004,28.1837,156.157,144.268,46.1693,103.652,0.000118645,0.000114669,0.000416075
-17.6168,6.76996,-298.277,4.08737,-1.26666,-0.552559,-0.00544368,0.00220584,0.00145204,0.00247219,-0.00571003,1.38938,0.00726859,644.81,-81.8139,-48.2919,0.375569,-0.057081,-0.0876799,0.00450741,118,555,105.975,28.1621,157.027,144.855,47.1528,104.288,0.000117435,0.000114432,0.000409889
-17.3318,6.75798,-298.278,4.0859,-1.26528,-0.550663,-0.00544739,0.0021945,0.0014283,0.00245273,-0.00570562,1.39193,0.00725013,644.95,-81.9311,-46.4038,0.351628,-0.067679,-0.0925284,0.00444812,125,555,105.948,28.1342,157.963,145.459,48.2,104.944,0.000114607,0.000114717,0.000398594
-17.0437,6.7461,-298.27,4.08427,-1.26359,-0.548504,-0.00543608,0.00217823,0.00139531,0.00242587,-0.00568372,1.39515,0.00720954,644.977,-82.0562,-44.305,0.329129,-0.0763475,-0.0981627,0.0044672,132,555,105.918,28.0995,159.056,146.06,49.403,105.605,0.000116095,0.000116082,0.00040013
-16.7516,6.73452,-298.25,4.08251,-1.26151,-0.546131,-0.00541299,0.00216018,0.00135731,0.0023961,-0.00564891,1.3987,0.00715449,644.862,-82.1946,-42.1745,0.304102,-0.0833508,-0.103034,0.0044868,139,555,105.887,28.0566,160.342,146.646,50.7971,106.261,0.000119056,0.000116185,0.000408752
-16.4562,6.72267,-298.219,4.08051,-1.25908,-0.543401,-0.00537408,0.00213846,0.00130995,0.00236032,-0.00559594,1.40302,0.0070777,644.638,-82.3008,-40.1016,0.281328,-0.0885914,-0.10822,0.00445866,146,555,105.851,28.0088,161.785,147.245,52.3499,106.942,0.000119008,0.00011438,0.000409247
-16.1581,6.71097,-298.179,4.07838,-1.25653,-0.540304,-0.00531806,0.00211005,0.00125373,0.00231594,-0.00552396,1.40802,0.00697646,644.416,-82.3954,-38,0.266334,-0.0918584,-0.113564,0.00434594,153,555,105.813,27.9588,163.365,147.842,54.0369,107.623,0.000116198,0.000109017,0.000401663
-15.8589,6.69915,-298.136,4.0761,-1.25393,-0.537073,-0.00524775,0.00207673,0.00119314,0.00226619,-0.00543721,1.41332,0.00685716,644.153,-82.4871,-36.1488,0.258575,-0.0928221,-0.118634,0.00416409,160,555,105.771,27.907,164.995,148.449,55.7757,108.313,0.000110738,0.000103333,0.000386626
-15.5592,6.68727,-298.09,4.07402,-1.25131,-0.53345,-0.00516552,0.00204141,0.00113382,0.00221558,-0.00533969,1.41838,0.00672693,643.892,-82.6337,-33.9963,0.25391,-0.0915333,-0.121722,0.00426417,167,555,105.732,27.8511,166.661,149.065,57.5417,109.009,0.000112026,0.000107844,0.000392641
-15.2593,6.67527,-298.043,4.07209,-1.24854,-0.529568,-0.00507248,0.00200477,0.00108188,0.00216646,-0.00523418,1.42244,0.00659013,643.592,-82.8456,-32.2008,0.250346,-0.0890348,-0.120648,0.00451783,174,555,105.695,27.7897,168.343,149.686,59.3164,109.712,0.00011522,0.000115997,0.000405266
-14.9584,6.66336,-297.993,4.07019,-1.24554,-0.52586,-0.00497544,0.00196639,0.00104186,0.00211939,-0.00512844,1.42499,0.0064546,643.332,-83.037,-30.4107,0.248603,-0.0872918,-0.114313,0.00474165,181,555,105.662,27.7262,170.079,150.297,61.1433,110.415,0.000118247,0.000121833,0.00041739
-14.6571,6.65167,-297.941,4.06804,-1.24246,-0.522544,-0.00488401,0.00192846,0.00101365,0.00207609,-0.00503164,1.42618,0.00633037,643.02,-83.1014,-28.7879,0.253276,-0.0869609,-0.103113,0.00484349,188,555,105.627,27.6618,171.829,150.894,62.9925,111.107,0.000121514,0.000124433,0.000429202
-14.3561,6.6401,-297.889,4.06582,-1.23937,-0.518758,-0.00481252,0.00189318,0.000995532,0.00203786,-0.00495719,1.42648,0.00623127,642.72,-83.1521,-27.4283,0.265014,-0.0870896,-0.0884889,0.00483279,195,555,105.586,27.6017,173.569,151.481,64.8286,111.793,0.000124086,0.000124029,0.000437151
-14.0565,6.62852,-297.84,4.06374,-1.23646,-0.514401,-0.00476726,0.00186268,0.000986278,0.00200629,-0.00491087,1.42621,0.00616396,642.471,-83.3269,-25.7145,0.278021,-0.0870617,-0.0717003,0.00493379,202,555,105.545,27.5449,175.247,152.072,66.5958,112.476,0.000127566,0.000124723,0.000446958
-13.7587,6.6168,-297.797,4.06187,-1.23372,-0.509774,-0.00474507,0.00183533,0.000981087,0.00197849,-0.00488823,1.4259,0.00612213,642.338,-83.4876,-23.8205,0.291493,-0.0860891,-0.0552918,0.00513138,209,555,105.505,27.4866,176.841,152.674,68.2718,113.161,0.000132308,0.000126868,0.000460986
-13.4621,6.60508,-297.757,4.06009,-1.23099,-0.505142,-0.00475512,0.00180934,0.000973737,0.00195073,-0.00489652,1.4266,0.00611008,642.249,-83.5482,-22.101,0.305794,-0.0855146,-0.041036,0.00530466,216,555,105.466,27.427,178.381,153.275,69.8907,113.844,0.000137895,0.000127506,0.000478458
-13.1655,6.59361,-297.717,4.0581,-1.22814,-0.50076,-0.00480126,0.00178465,0.000961896,0.00192226,-0.00493887,1.4287,0.00613036,642.2,-83.547,-20.4123,0.320517,-0.0849295,-0.030415,0.00533453,223,555,105.425,27.3633,179.911,153.86,71.5067,114.514,0.000140161,0.000126589,0.000485443
-12.8683,6.58227,-297.674,4.05598,-1.22501,-0.496424,-0.00486706,0.00175925,0.000944877,0.00189135,-0.00499916,1.43189,0.00616636,642.104,-83.5841,-19.0236,0.333295,-0.0848152,-0.0257271,0.0052516,230,555,105.381,27.2955,181.474,154.43,73.1577,115.179,0.000139917,0.000123991,0.000485377
-12.5718,6.57113,-297.632,4.05398,-1.22192,-0.492441,-0.00493097,0.00173265,0.000920637,0.0018575,-0.00505582,1.436,0.00619701,641.954,-83.611,-17.483,0.338201,-0.0847481,-0.0305607,0.00507758,237,555,105.344,27.227,183,154.99,74.7712,115.832,0.000136075,0.000122527,0.00047425
-12.2763,6.55978,-297.593,4.05205,-1.21898,-0.488423,-0.00498746,0.00170378,0.000890101,0.00182016,-0.00510384,1.44078,0.00621707,641.837,-83.6947,-15.9155,0.339478,-0.0851493,-0.0450734,0.00497465,244,555,105.307,27.1599,184.483,155.566,76.3391,116.494,0.000133634,0.000120358,0.000466713
-11.9821,6.54792,-297.558,4.05014,-1.21633,-0.484081,-0.00504483,0.00167216,0.000855105,0.00177931,-0.00515198,1.44614,0.00623505,641.728,-83.7679,-14.3857,0.340056,-0.0873824,-0.0642932,0.00499379,251,555,105.268,27.0999,185.901,156.173,77.8392,117.179,0.000133847,0.000119375,0.000467071
-11.6877,6.53598,-297.521,4.04801,-1.21363,-0.479389,-0.00510402,0.00163982,0.000813589,0.00173658,-0.00520079,1.45242,0.00625264,641.587,-83.8588,-13.2405,0.337652,-0.0919428,-0.0839299,0.00505241,258,555,105.222,27.0456,187.329,156.778,79.3511,117.869,0.0001345,0.000118837,0.000467336
-11.3916,6.5241,-297.479,4.04577,-1.2107,-0.474333,-0.00515918,0.00160574,0.000762415,0.0016906,-0.00524404,1.45995,0.00626288,641.505,-84.0278,-11.9742,0.335288,-0.0989037,-0.101498,0.00493191,265,555,105.172,26.989,188.842,157.377,80.9462,118.562,0.000130944,0.000117848,0.000452364
-11.0922,6.51215,-297.425,4.04325,-1.20755,-0.469425,-0.00519983,0.00157045,0.00070153,0.00164237,-0.00527176,1.46862,0.00625676,641.216,-84.2037,-10.5938,0.33565,-0.10708,-0.115839,0.00471209,272,555,105.121,26.9293,190.525,157.985,82.7171,119.27,0.000125593,0.000116596,0.000431279
-10.7901,6.50031,-297.362,4.04066,-1.20406,-0.464831,-0.00521411,0.00153603,0.000631606,0.00159462,-0.0052727,1.4783,0.00622512,640.947,-84.3352,-8.87066,0.337014,-0.114633,-0.126148,0.00455999,279,555,105.073,26.8574,192.35,158.591,84.6306,119.981,0.000122617,0.000115532,0.000420649
-10.4867,6.48876,-297.294,4.03807,-1.20039,-0.460549,-0.00519802,0.0014965,0.000555752,0.00154233,-0.00524385,1.48853,0.00616153,640.585,-84.5118,-6.75353,0.336397,-0.121334,-0.129093,0.0044422,286,555,105.029,26.7778,194.248,159.185,86.6176,120.683,0.000118474,0.00011532,0.000407906
-10.1851,6.47705,-297.232,4.0357,-1.19679,-0.456214,-0.0051571,0.00144342,0.000491392,0.0014798,-0.00519348,1.49689,0.0060702,640.241,-84.7114,-4.85429,0.333547,-0.128937,-0.121557,0.00451969,293,555,104.989,26.6983,196.059,159.785,88.5111,121.387,0.000117679,0.000116687,0.000406558
-9.88635,6.46528,-297.177,4.03335,-1.19326,-0.451724,-0.00510838,0.00140322,0.000440628,0.0014329,-0.00513806,1.50354,0.00598458,640.005,-84.933,-3.15261,0.333067,-0.137286,-0.105496,0.00461302,300,555,104.946,26.6194,197.724,160.381,90.2594,122.086,0.000119356,0.000118401,0.000413417
-9.58796,6.45362,-297.123,4.03091,-1.18974,-0.446918,-0.00504299,0.00136462,0.000394456,0.00138882,-0.00506718,1.50954,0.00588579,639.753,-85.0596,-1.77309,0.34206,-0.146891,-0.0854073,0.00464305,307,555,104.899,26.5404,199.377,160.972,91.9938,122.78,0.000119674,0.00011855,0.000415062
-9.2871,6.44163,-297.061,4.02808,-1.18594,-0.441492,-0.00496795,0.00133361,0.00034862,0.00135284,-0.00498718,1.5157,0.00578351,639.558,-85.1451,0.0630319,0.354936,-0.155602,-0.0642364,0.00462193,314,555,104.84,26.4526,201.158,161.586,93.8598,123.499,0.000119316,0.000116898,0.000414028
-8.97951,6.42986,-296.975,4.02455,-1.18144,-0.435965,-0.00490317,0.00131543,0.000302175,0.00133007,-0.00491782,1.52236,0.00570045,639.256,-85.047,2.14913,0.368783,-0.160877,-0.0452096,0.00469204,321,555,104.77,26.351,203.285,162.19,96.0842,124.23,0.000119547,0.000117474,0.000414734
-8.66488,6.41832,-296.866,4.02061,-1.17615,-0.430401,-0.00486808,0.00130973,0.000260003,0.00132065,-0.004879,1.52881,0.00565617,638.757,-84.9038,4.18812,0.378926,-0.162321,-0.0308278,0.00482707,328,555,104.698,26.2346,205.788,162.784,98.6867,124.973,0.000121879,0.000122024,0.000422478
-8.34982,6.4073,-296.755,4.01698,-1.17064,-0.424628,-0.00484866,0.0013141,0.000222333,0.00132211,-0.00485667,1.53478,0.00563527,638.118,-84.776,5.56472,0.383937,-0.160023,-0.022313,0.00506953,335,555,104.633,26.121,208.335,163.34,101.321,125.692,0.000127935,0.000128407,0.0004434
-8.03924,6.39676,-296.657,4.01431,-1.16583,-0.418259,-0.00482437,0.00132801,0.000187845,0.00133374,-0.0048301,1.5403,0.00561701,637.581,-84.7629,6.99943,0.389065,-0.154951,-0.0188936,0.00532346,342,555,104.583,26.0228,210.683,163.878,103.729,126.372,0.000135954,0.000135842,0.000470876
-7.74296,6.38546,-296.605,4.01242,-1.16218,-0.411947,-0.00479556,0.00135461,0.000153739,0.00135846,-0.0047994,1.54582,0.00560352,637.331,-84.8387,8.39904,0.391112,-0.148762,-0.0210658,0.00538382,349,555,104.54,25.944,212.285,164.444,105.381,127.045,0.000139506,0.000137237,0.000482898
-7.45357,6.37295,-296.575,4.0107,-1.15954,-0.40529,-0.00477178,0.00139326,0.000116718,0.00139546,-0.00477399,1.55187,0.00560359,637.283,-85.0079,9.90477,0.390531,-0.140143,-0.0306465,0.00525468,356,555,104.492,25.8817,213.522,165.085,106.667,127.759,0.000139785,0.000131432,0.000483386
-7.16567,6.36118,-296.55,4.00866,-1.15705,-0.399235,-0.00472578,0.00143335,8.11654e-05,0.00143442,-0.00472685,1.55762,0.00558399,637.309,-85.2263,11.7667,0.385563,-0.130972,-0.0421183,0.00518137,363,555,104.44,25.822,214.668,165.687,107.876,128.429,0.00013805,0.00012743,0.000476938
-6.8724,6.34918,-296.506,4.0058,-1.15383,-0.392742,-0.00466463,0.00147424,4.52184e-05,0.00147458,-0.00466496,1.56343,0.00555113,637.239,-85.3806,13.5538,0.37729,-0.122768,-0.0514721,0.00518845,370,555,104.37,25.7455,216.09,166.3,109.374,129.131,0.000136751,0.000126314,0.000472126
-6.56781,6.338,-296.424,4.00189,-1.14943,-0.386487,-0.00459577,0.00151248,9.9851e-06,0.00151249,-0.00459578,1.56916,0.00550999,636.913,-85.4279,15.1927,0.373225,-0.117388,-0.0563213,0.00519064,377,555,104.288,25.6447,218.107,166.878,111.486,129.829,0.000135314,0.000128274,0.000467178
-6.25115,6.32725,-296.301,3.99721,-1.14392,-0.380443,-0.0045298,0.0015452,-2.20887e-05,0.00154528,-0.00452988,-1.56716,0.00546879,636.379,-85.4435,16.3811,0.378866,-0.115975,-0.056815,0.00522957,384,555,104.2,25.5241,220.773,167.442,114.257,130.547,0.00013449,0.000131797,0.000464496
-5.93488,6.31665,-296.177,3.9931,-1.13833,-0.373857,-0.00447349,0.00157702,-4.75674e-05,0.00157739,-0.00447386,-1.56294,0.00543697,635.901,-85.445,17.6795,0.388272,-0.11746,-0.0534124,0.00532597,391,555,104.123,25.4034,223.45,167.995,117.019,131.258,0.000134647,0.000137367,0.000465614
-5.62908,6.30642,-296.088,3.99009,-1.13364,-0.367118,-0.00441844,0.00161061,-7.59579e-05,0.00161157,-0.0044194,-1.5582,0.00540836,635.59,-85.5091,19.0468,0.393316,-0.121302,-0.0478852,0.00520698,398,555,104.063,25.2996,225.593,168.52,119.223,131.915,0.0001265,0.000134702,0.000437497
-5.32884,6.2948,-296.017,3.9877,-1.12964,-0.360034,-0.00435221,0.00162041,-0.000101837,0.00162215,-0.00435395,-1.55375,0.00535266,635.324,-85.6253,20.6398,0.393312,-0.128758,-0.0400528,0.00495018,405,555,104.011,25.2091,227.453,169.121,121.13,132.626,0.000117748,0.000129198,0.000407811
-5.03806,6.28269,-295.977,3.98597,-1.12621,-0.353654,-0.00431017,0.00163213,-0.000113471,0.0016343,-0.00431233,-1.55171,0.00532116,635.185,-85.7666,22.1256,0.394366,-0.138617,-0.0329166,0.00462743,412,555,103.971,25.129,228.806,169.729,122.524,133.33,0.000110811,0.0001209,0.000383787
-4.74932,6.27098,-295.943,3.98418,-1.123,-0.347638,-0.00430123,0.0016414,-0.000110194,0.00164344,-0.00430328,-1.55226,0.00531896,635.025,-85.8613,23.9084,0.400982,-0.152269,-0.0273158,0.00434774,419,555,103.93,25.0579,230.046,170.312,123.809,134.007,0.000108629,0.000112559,0.000376166
-4.46078,6.2588,-295.909,3.98227,-1.11963,-0.341214,-0.00431184,0.00164794,-9.41661e-05,0.00164943,-0.00431332,-1.555,0.00533291,634.967,-85.8891,25.7141,0.406518,-0.168887,-0.02276,0.00427734,426,555,103.884,24.9816,231.278,170.917,125.086,134.708,0.000109541,0.000108753,0.000378773
-4.17325,6.24701,-295.878,3.98046,-1.11642,-0.334414,-0.00432817,0.00165579,-7.51119e-05,0.00165674,-0.00432912,-1.55825,0.00535334,634.988,-85.9765,27.5348,0.411042,-0.186824,-0.0196591,0.00436048,433,555,103.838,24.9083,232.463,171.503,126.311,135.387,0.000112142,0.000110564,0.000387014
-3.88577,6.23525,-295.846,3.97865,-1.11324,-0.327506,-0.00436946,0.00166811,-5.71098e-05,0.00166865,-0.00437,-1.56134,0.00540123,635.031,-86.2149,29.208,0.41523,-0.203519,-0.0203793,0.0046146,440,555,103.791,24.8349,233.649,172.091,127.535,136.064,0.000117175,0.000118967,0.000404104
-3.59711,6.22341,-295.81,3.9765,-1.10979,-0.32106,-0.00444925,0.00168293,-3.82354e-05,0.00168316,-0.00444948,-1.56456,0.00548818,634.916,-86.3767,30.3734,0.416236,-0.216824,-0.0255327,0.00482884,447,555,103.74,24.7579,234.893,172.678,128.827,136.75,0.000120779,0.000124422,0.000416457
-3.30629,6.21159,-295.766,3.97412,-1.10611,-0.314393,-0.0045457,0.00169627,-1.64834e-05,0.00169631,-0.00454575,-1.56816,0.00559038,634.72,-86.6102,31.5197,0.411639,-0.224769,-0.0324653,0.005006,454,555,103.685,24.6775,236.258,173.264,130.242,137.444,0.000123054,0.000128565,0.00042518
-3.01233,6.20056,-295.71,3.9714,-1.10216,-0.307813,-0.00462419,0.00170744,8.50277e-06,0.00170745,-0.00462421,1.56945,0.005674,634.456,-86.7825,32.8214,0.401684,-0.2288,-0.0373377,0.00496902,461,555,103.627,24.5915,237.799,173.814,131.839,138.108,0.000123216,0.00012687,0.000426211
-2.71367,6.18937,-295.637,3.96797,-1.09774,-0.300759,-0.00468286,0.00171983,3.24356e-05,0.00171999,-0.00468302,1.56573,0.00573967,634.184,-86.8741,34.409,0.394882,-0.229657,-0.0417717,0.00483134,468,555,103.552,24.4922,239.598,174.382,133.704,138.799,0.000119445,0.000124274,0.000412836
-2.41198,6.17809,-295.553,3.96429,-1.09293,-0.29402,-0.0047087,0.00173135,5.48259e-05,0.00173182,-0.00470917,1.56228,0.00577329,633.846,-86.8663,35.783,0.391545,-0.227533,-0.0479994,0.00481109,475,555,103.477,24.3819,241.568,174.958,135.745,139.508,0.000117822,0.000123468,0.000406065
-2.11037,6.16685,-295.468,3.96068,-1.08795,-0.287216,-0.00470485,0.00174152,7.52118e-05,0.00174239,-0.00470573,1.55913,0.00577746,633.372,-86.8131,37.0077,0.391154,-0.223329,-0.0553769,0.00490267,482,555,103.403,24.2697,243.547,175.526,137.791,140.215,0.000118088,0.000125423,0.000405624
-1.81198,6.15539,-295.393,3.95762,-1.0833,-0.280486,-0.00467521,0.00175149,9.43568e-05,0.00175287,-0.00467659,1.55612,0.00575679,632.941,-86.8086,38.358,0.395144,-0.218897,-0.0605426,0.00500204,489,555,103.342,24.1627,245.363,176.106,139.662,140.923,0.000119709,0.00012782,0.000410768
-1.51662,6.14408,-295.328,3.95477,-1.07892,-0.273504,-0.00461934,0.00176286,0.000112751,0.00176485,-0.00462133,1.55314,0.00571204,632.632,-86.9561,40.034,0.406134,-0.215973,-0.0628833,0.00500641,496,555,103.281,24.0636,247.022,176.673,141.37,141.613,0.00012312,0.000128039,0.000422491
-1.22315,6.13265,-295.269,3.95193,-1.07479,-0.266607,-0.00454675,0.00177614,0.00013246,0.00177892,-0.00454952,1.54986,0.00565295,632.411,-87.1158,41.6614,0.421873,-0.21485,-0.062528,0.00496876,503,555,103.22,23.9706,248.579,177.247,142.977,142.303,0.000127412,0.00012694,0.00043818
-0.929114,6.12144,-295.206,3.94894,-1.07058,-0.259664,-0.00447346,0.00179063,0.000154864,0.00179446,-0.00447729,1.54609,0.00559468,632.188,-87.2129,43.1104,0.440586,-0.216212,-0.059376,0.00507298,510,555,103.156,23.8761,250.172,177.811,144.622,142.985,0.0001326,0.000125971,0.000456993
-0.633353,6.11036,-295.137,3.94582,-1.06587,-0.252575,-0.00439868,0.0018061,0.000181963,0.00181143,-0.00440401,1.5415,0.00553662,631.958,-87.22,44.6201,0.455306,-0.218729,-0.0551321,0.00524128,517,555,103.09,23.771,251.872,178.359,146.372,143.667,0.000137104,0.000130027,0.000472084
-0.336297,6.09913,-295.063,3.94272,-1.06097,-0.244673,-0.00432248,0.00182208,0.000211346,0.00182934,-0.00432974,1.53645,0.00547847,631.756,-87.2816,46.2723,0.46546,-0.22096,-0.0510169,0.00533837,524,555,103.02,23.6592,253.663,178.921,148.205,144.364,0.000140429,0.000133433,0.000481947
-0.0399081,6.08786,-294.99,3.93956,-1.05612,-0.237162,-0.00424796,0.00184237,0.000240363,0.00185184,-0.00425743,1.53141,0.00542578,631.56,-87.436,47.6629,0.481077,-0.226214,-0.0474536,0.00543378,531,555,102.952,23.5472,255.42,179.485,150.007,145.062,0.000142946,0.000135318,0.000488191
0.255227,6.0765,-294.92,3.93644,-1.05133,-0.229824,-0.00419619,0.00186259,0.000270346,0.00187463,-0.00420823,1.52629,0.00539558,631.388,-87.6391,49.0645,0.496828,-0.232732,-0.0426847,0.00559157,538,555,102.886,23.4352,257.111,180.053,151.744,145.761,0.000146793,0.000135736,0.000499154
0.54915,6.06525,-294.854,3.93351,-1.04664,-0.221982,-0.00416462,0.00188134,0.000300581,0.00189625,-0.00417953,1.52124,0.0053842,631.244,-87.7408,50.3775,0.507584,-0.239815,-0.0336731,0.00568674,545,555,102.82,23.3297,258.749,180.611,153.418,146.45,0.000147164,0.000133269,0.000499003
0.841499,6.05415,-294.793,3.93077,-1.04211,-0.214247,-0.00414895,0.00189695,0.000329239,0.00191483,-0.00416683,1.51655,0.00538589,631,-87.7804,51.6619,0.513459,-0.245172,-0.0215853,0.0056944,552,555,102.759,23.2262,260.308,181.161,155.009,147.126,0.000146864,0.000134106,0.000497559
1.13404,6.04308,-294.73,3.92794,-1.03758,-0.206611,-0.00416719,0.00190649,0.000356512,0.00192735,-0.00418804,1.51237,0.00541537,630.683,-87.7891,53.009,0.517437,-0.245801,-0.00943593,0.00558079,559,555,102.697,23.1238,261.882,181.711,156.618,147.803,0.000146999,0.000135196,0.000498392
1.42728,6.03178,-294.663,3.92493,-1.03296,-0.199184,-0.0042459,0.00190395,0.000387589,0.00192828,-0.00427023,1.5081,0.0054943,630.515,-87.8325,54.5635,0.518543,-0.239594,0.0032355,0.00551271,566,555,102.633,23.0195,263.5,182.274,158.275,148.496,0.000148246,0.000135973,0.000502118
1.72079,6.0203,-294.595,3.92186,-1.02825,-0.191772,-0.00437374,0.00188233,0.000431759,0.00191198,-0.0044034,1.50222,0.00560935,630.36,-87.9407,56.2617,0.51402,-0.225042,0.0171893,0.00567307,573,555,102.569,22.9149,265.141,182.846,159.955,149.201,0.000149983,0.000137454,0.000508372
0,0,0,0,0,0,0,0,0,0,0,0,0,0,0,0,0,0,0,-1,580,555,0,0,0,0,0,0,0,0,0
0,0,0,0,0,0,0,0,0,0,0,0,0,0,0,0,0,0,0,-1,587,555,0,0,0,0,0,0,0,0,0
0,0,0,0,0,0,0,0,0,0,0,0,0,0,0,0,0,0,0,-1,594,555,0,0,0,0,0,0,0,0,0
0,0,0,0,0,0,0,0,0,0,0,0,0,0,0,0,0,0,0,-1,601,555,0,0,0,0,0,0,0,0,0
0,0,0,0,0,0,0,0,0,0,0,0,0,0,0,0,0,0,0,-1,62,562,0,0,0,0,0,0,0,0,0
0,0,0,0,0,0,0,0,0,0,0,0,0,0,0,0,0,0,0,-1,69,562,0,0,0,0,0,0,0,0,0
0,0,0,0,0,0,0,0,0,0,0,0,0,0,0,0,0,0,0,-1,76,562,0,0,0,0,0,0,0,0,0
-19.0431,6.55545,-298.233,4.09534,-1.27248,-0.553147,-0.00531351,0.00201214,0.00141242,0.00227503,-0.00557639,1.38678,0.00699703,643.766,-80.7798,-55.7237,0.543664,0.0065678,-0.00958692,0.00510516,83,562,106.072,28.282,152.203,142.841,41.6715,102.069,0.000129451,0.000131022,0.000466267
-18.76,6.5438,-298.241,4.09384,-1.27153,-0.551849,-0.00534527,0.00205566,0.00144153,0.00232652,-0.00561613,1.38506,0.00707246,644.016,-80.9341,-54.3055,0.496563,-0.00400248,-0.0323355,0.0047509,90,562,106.045,28.2629,153.065,143.433,42.6542,102.701,0.000118958,0.000122815,0.00041861
-18.4773,6.53222,-298.25,4.09235,-1.27052,-0.550424,-0.0053632,0.00209104,0.00146456,0.00236846,-0.00564062,1.38359,0.00712641,644.213,-81.0912,-52.7985,0.45601,-0.0180971,-0.0490017,0.00462334,97,562,106.018,28.2434,153.905,144.017,43.6122,103.329,0.000118087,0.000119369,0.00041363
-18.195,6.52084,-298.261,4.09088,-1.26949,-0.54891,-0.00537261,0.00211954,0.00147231,0.00239849,-0.00565156,1.38356,0.00715877,644.331,-81.3799,-51.2109,0.420274,-0.0330911,-0.0603672,0.00450267,104,562,105.99,28.2263,154.721,144.588,44.546,103.945,0.00011766,0.000114534,0.000412032
-17.9121,6.50939,-298.27,4.08939,-1.26846,-0.547398,-0.00538436,0.00214145,0.00146633,0.00241705,-0.00565997,1.38501,0.00718038,644.459,-81.6005,-49.4353,0.38968,-0.0471517,-0.0675713,0.0045318,111,562,105.962,28.2074,155.558,145.165,45.4999,104.566,0.000117859,0.000114988,0.000413214
-17.6282,6.49766,-298.275,4.08784,-1.26723,-0.54536,-0.00538773,0.00215503,0.00144773,0.00242336,-0.00565606,1.38753,0.00718124,644.585,-81.7734,-47.435,0.363175,-0.059824,-0.0733751,0.00451523,118,562,105.931,28.1838,156.448,145.755,46.5033,105.205,0.000115522,0.000115601,0.00040481
-17.3425,6.48566,-298.274,4.08632,-1.26582,-0.543348,-0.0053742,0.00215993,0.00141758,0.00241782,-0.0056321,1.39084,0.00715429,644.647,-81.931,-45.8101,0.339006,-0.0711698,-0.0799811,0.00456952,125,562,105.902,28.1548,157.422,146.362,47.5873,105.863,0.000114287,0.000117992,0.000399629
-17.0516,6.47417,-298.258,4.08465,-1.26387,-0.541124,-0.00534757,0.00215742,0.00137849,0.00240261,-0.00559276,1.39477,0.00710554,644.61,-82.0791,-43.848,0.316214,-0.0815094,-0.0866789,0.00468857,132,562,105.873,28.1171,158.654,146.941,48.9281,106.511,0.000116594,0.000121635,0.000403303
-16.7572,6.4628,-298.23,4.08286,-1.26158,-0.538795,-0.00531419,0.00215258,0.00133409,0.00238378,-0.00554539,1.3992,0.00704647,644.455,-82.2328,-41.8402,0.292232,-0.0906198,-0.0925439,0.00466847,139,562,105.845,28.0719,160.056,147.516,50.4379,107.164,0.000119102,0.000120722,0.00040948
-16.4604,6.451,-298.195,4.08095,-1.25901,-0.53575,-0.005267,0.00214118,0.00128212,0.0023568,-0.00548262,1.40418,0.0069667,644.282,-82.3219,-39.7045,0.271177,-0.0983496,-0.0984059,0.00454509,146,562,105.81,28.0214,161.573,148.113,52.0578,107.846,0.000118647,0.000116293,0.00040799
-16.1624,6.43934,-298.155,4.07883,-1.2564,-0.532512,-0.00520443,0.00211886,0.00122229,0.00231748,-0.00540305,1.40971,0.00686185,644.039,-82.3729,-37.5543,0.258015,-0.104661,-0.104187,0.00438495,153,562,105.77,27.9686,163.154,148.708,53.7445,108.525,0.000115509,0.000111144,0.000399577
-15.8635,6.4276,-298.113,4.07657,-1.25371,-0.529103,-0.00513092,0.00208876,0.00115757,0.00226982,-0.00531198,1.41564,0.00673991,643.801,-82.424,-35.4676,0.252322,-0.108718,-0.109588,0.00425715,160,562,105.727,27.9144,164.77,149.31,55.4676,109.212,0.000111891,0.000108307,0.000389979
-15.5643,6.41577,-298.069,4.07441,-1.25102,-0.525522,-0.00505194,0.00205499,0.00109471,0.0022198,-0.00521675,1.42137,0.00661227,643.512,-82.5223,-33.1581,0.250355,-0.110731,-0.112878,0.00438074,167,562,105.686,27.8564,166.411,149.921,57.2109,109.904,0.000113562,0.00011226,0.000397801
-15.2648,6.40389,-298.023,4.07244,-1.2483,-0.521885,-0.00496887,0.00201887,0.00104094,0.00217064,-0.00512064,1.42602,0.00648441,643.231,-82.7031,-31.203,0.249994,-0.111369,-0.111656,0.00464026,174,562,105.651,27.7957,168.076,150.538,58.9714,110.601,0.000118632,0.000119429,0.000416885
-14.9642,6.39208,-297.974,4.07057,-1.24537,-0.518237,-0.00488569,0.00197965,0.00100052,0.00212249,-0.00502853,1.42899,0.00636113,642.94,-82.9024,-29.6191,0.251065,-0.112271,-0.104578,0.00483726,181,562,105.619,27.7333,169.796,151.145,60.7819,111.298,0.000121861,0.000124436,0.000429583
-14.6639,6.38059,-297.924,4.06856,-1.24239,-0.514884,-0.00480849,0.00193962,0.000973069,0.00207714,-0.00494601,1.43041,0.00624908,642.695,-83.0392,-28.0661,0.257441,-0.113739,-0.0926498,0.00488902,188,562,105.586,27.6725,171.501,151.732,62.5822,111.979,0.000124474,0.000125621,0.000439274
-14.3642,6.36908,-297.876,4.06643,-1.23942,-0.511097,-0.00475003,0.00190199,0.000955844,0.00203661,-0.00488466,1.43087,0.00616083,642.456,-83.1373,-26.8384,0.269196,-0.114481,-0.0779032,0.00485256,195,562,105.546,27.6163,173.177,152.316,64.3533,112.659,0.000124036,0.000124607,0.000437635
-14.066,6.35752,-297.833,4.06443,-1.23662,-0.506717,-0.00471434,0.00186918,0.000947318,0.00200278,-0.00484794,1.43069,0.00610107,642.25,-83.3095,-25.2505,0.280928,-0.113838,-0.0613904,0.0048924,202,562,105.505,27.5615,174.786,152.905,66.0497,113.337,0.000124916,0.000123771,0.000438976
-13.769,6.34589,-297.792,4.06267,-1.23397,-0.501745,-0.00469543,0.00184032,0.000943165,0.00197371,-0.00482882,1.43031,0.00606166,642.145,-83.4441,-23.5063,0.292376,-0.111162,-0.0451147,0.00499999,209,562,105.465,27.5036,176.348,153.507,67.6888,114.017,0.000128098,0.00012269,0.000447492
-13.4716,6.33425,-297.749,4.06087,-1.23111,-0.497077,-0.00470324,0.00181411,0.000937406,0.00194626,-0.00483539,1.43075,0.00604813,642.032,-83.4969,-21.8505,0.305101,-0.108185,-0.0304456,0.00509954,216,562,105.426,27.4432,177.928,154.101,69.3468,114.698,0.000132378,0.0001208,0.000460289
-13.1732,6.32271,-297.703,4.05881,-1.22798,-0.492783,-0.00474439,0.00179046,0.000927922,0.00191967,-0.00487359,1.43244,0.0060657,641.922,-83.4678,-20.2012,0.319416,-0.104699,-0.0191808,0.00511767,223,562,105.386,27.375,179.549,154.687,71.0549,115.378,0.000134417,0.000119079,0.000465512
-12.874,6.31125,-297.654,4.05662,-1.22469,-0.488605,-0.00480472,0.00176737,0.000913469,0.00189197,-0.00492932,1.43523,0.0060995,641.791,-83.4841,-18.6851,0.332921,-0.101223,-0.0137333,0.00501076,230,562,105.344,27.304,181.214,155.267,72.8089,116.057,0.000132925,0.000117126,0.000460396
-12.5753,6.30005,-297.605,4.05451,-1.22154,-0.484414,-0.00486129,0.00174383,0.000891314,0.00186199,-0.00497945,1.43899,0.00612647,641.606,-83.4839,-16.957,0.338629,-0.0976373,-0.0178371,0.00477681,237,562,105.305,27.2365,182.856,155.838,74.5375,116.722,0.000127319,0.000117365,0.000442102
-12.2792,6.28871,-297.564,4.05262,-1.21867,-0.479802,-0.00490742,0.00171865,0.000862288,0.00182902,-0.0050178,1.44349,0.00614014,641.458,-83.5737,-15.2261,0.338943,-0.095032,-0.0313495,0.00462045,244,562,105.266,27.1735,184.377,156.416,76.1376,117.386,0.000123671,0.000116033,0.000429814
-11.9859,6.27714,-297.532,4.05082,-1.21619,-0.475214,-0.00495244,0.00169135,0.000827684,0.00179291,-0.005054,1.4487,0.0061497,641.323,-83.7177,-13.6862,0.337757,-0.0948935,-0.0495217,0.00453932,251,562,105.227,27.1196,185.752,157.009,77.5907,118.053,0.000121935,0.000113859,0.000423717
-11.6941,6.26546,-297.504,4.04894,-1.2137,-0.470756,-0.00499896,0.00166405,0.000785977,0.00175551,-0.00509042,1.45495,0.00615877,641.201,-83.8311,-12.4732,0.334217,-0.097622,-0.0684817,0.00455511,258,562,105.186,27.0683,187.051,157.6,78.9701,118.722,0.000122321,0.000111458,0.000423745
-11.3998,6.25398,-297.467,4.04685,-1.21093,-0.466155,-0.00504182,0.0016351,0.00073478,0.001715,-0.00512172,1.46248,0.00616093,641.146,-83.9789,-11.1294,0.331757,-0.103326,-0.086167,0.00453446,265,562,105.142,27.0113,188.477,158.181,80.4795,119.39,0.000121969,0.000110243,0.000420343
-11.1012,6.24219,-297.416,4.04445,-1.20774,-0.46161,-0.00507048,0.00160403,0.000672788,0.00167117,-0.00513762,1.47133,0.00614604,640.956,-84.1634,-9.47574,0.332221,-0.110715,-0.101636,0.00443357,272,562,105.095,26.9477,190.12,158.781,82.2098,120.088,0.000119923,0.00010857,0.000411277
-10.7992,6.23044,-297.353,4.04184,-1.20413,-0.457403,-0.00507624,0.00157353,0.000601613,0.00162752,-0.00513023,1.48129,0.00610881,640.664,-84.3118,-7.78648,0.332233,-0.117952,-0.113586,0.00438459,279,562,105.05,26.8728,191.935,159.38,84.1165,120.796,0.000119162,0.000108749,0.000408496
-10.4953,6.21889,-297.284,4.03916,-1.20035,-0.453149,-0.00506301,0.00154033,0.000526802,0.0015821,-0.00510477,1.49169,0.00605293,640.253,-84.4867,-5.82415,0.328267,-0.124552,-0.118172,0.00438539,286,562,105.005,26.7912,193.854,159.974,86.1267,121.501,0.000117815,0.000111124,0.00040561
-10.1929,6.2073,-297.218,4.0367,-1.19663,-0.448639,-0.00503683,0.00149691,0.000465559,0.00152991,-0.00506984,1.50002,0.00598333,639.868,-84.668,-3.97256,0.320985,-0.132018,-0.11188,0.00455162,293,562,104.962,26.7091,195.712,160.57,88.0674,122.204,0.000118799,0.0001153,0.000410672
-9.89343,6.19562,-297.161,4.03435,-1.19306,-0.443837,-0.00500465,0.00146482,0.000417906,0.0014917,-0.00503153,1.50656,0.00592006,639.587,-84.8225,-2.35829,0.317167,-0.140307,-0.0967541,0.00473011,300,562,104.918,26.6286,197.418,161.166,89.8536,122.903,0.000121768,0.000119653,0.000422225
-9.59451,6.18401,-297.106,4.03199,-1.18954,-0.438552,-0.00495495,0.00143427,0.000374118,0.00145611,-0.00497678,1.51251,0.00584254,639.376,-84.9289,-0.944346,0.323167,-0.149992,-0.07727,0.00481232,307,562,104.87,26.5492,199.106,161.76,91.6165,123.597,0.000123297,0.000122024,0.000427721
-9.29372,6.1723,-297.043,4.02926,-1.18575,-0.433108,-0.00488971,0.001411,0.000328315,0.00142806,-0.00490677,1.51888,0.00575526,639.217,-85.0121,0.719339,0.333728,-0.158774,-0.0568137,0.00480429,314,562,104.814,26.4637,200.888,162.359,93.4805,124.304,0.000123637,0.000121662,0.000428866
-8.98738,6.16069,-296.962,4.02586,-1.18138,-0.427644,-0.00483267,0.00140003,0.000280375,0.00141261,-0.00484526,1.52593,0.00568476,638.966,-84.9812,2.62907,0.346275,-0.163853,-0.0381634,0.00480596,321,562,104.747,26.3668,202.954,162.957,95.6403,125.025,0.000122191,0.000121036,0.000423803
-8.6748,6.14955,-296.859,4.02208,-1.17621,-0.42206,-0.00480576,0.00139991,0.000235554,0.00140883,-0.00481469,1.53291,0.00565236,638.486,-84.8588,4.47631,0.356723,-0.164834,-0.0230142,0.00488995,328,562,104.676,26.2551,205.352,163.528,98.1361,125.744,0.00012326,0.000123653,0.000427316
-8.36227,6.1389,-296.756,4.01864,-1.17101,-0.416066,-0.00479114,0.00140705,0.000193683,0.00141309,-0.00479719,1.53959,0.00563815,637.947,-84.7887,6.08552,0.364341,-0.161936,-0.0130464,0.00499596,335,562,104.611,26.1456,207.772,164.071,100.638,126.439,0.000127154,0.000126037,0.000440659
-8.05519,6.12804,-296.67,4.01598,-1.16638,-0.409956,-0.00476536,0.00141972,0.000153277,0.00142352,-0.00476916,1.54603,0.00561785,637.469,-84.7897,7.66343,0.374208,-0.156132,-0.0080126,0.00506868,342,562,104.561,26.0479,209.929,164.625,102.859,127.127,0.000131662,0.000128491,0.000455907
-7.75623,6.11682,-296.609,4.01389,-1.16273,-0.403804,-0.00472661,0.00144164,0.000111972,0.00144367,-0.00472864,1.55265,0.00559203,637.208,-84.8627,9.35239,0.382324,-0.149263,-0.00871613,0.00507581,349,562,104.516,25.9697,211.668,165.199,104.654,127.807,0.000133901,0.000128165,0.000463362
-7.46486,6.10494,-296.573,4.01209,-1.15997,-0.397448,-0.00468586,0.00147124,6.70764e-05,0.00147197,-0.00468659,1.5599,0.0055704,637.112,-84.9956,11.0315,0.386768,-0.140305,-0.0166587,0.00501152,356,562,104.471,25.9052,213.01,165.811,106.047,128.495,0.000133806,0.000124956,0.000462826
-7.17386,6.0932,-296.538,4.00986,-1.15712,-0.391544,-0.00462222,0.00149914,2.5548e-05,0.00149925,-0.00462233,1.56662,0.00552663,637.034,-85.1618,12.8478,0.38394,-0.131028,-0.0261863,0.0049219,363,562,104.419,25.8393,214.32,166.412,107.422,129.176,0.000131169,0.000121641,0.000453617
-6.87772,6.08138,-296.484,4.00683,-1.15358,-0.384852,-0.00454874,0.00152652,-1.4213e-05,0.00152656,-0.00454877,-1.56846,0.00547409,636.918,-85.2844,14.686,0.375852,-0.122997,-0.0333776,0.0049246,370,562,104.346,25.7561,215.897,167.02,109.075,129.88,0.000129957,0.000121276,0.000449346
-6.56758,6.07015,-296.383,4.00255,-1.1488,-0.378407,-0.00447376,0.00155152,-5.02934e-05,0.00155194,-0.00447418,-1.56245,0.00541946,636.557,-85.3305,16.3932,0.370999,-0.117757,-0.0360742,0.00496953,377,562,104.259,25.6474,218.209,167.613,111.487,130.603,0.000129422,0.000123925,0.000447513
-6.24699,6.05949,-296.247,3.99741,-1.14286,-0.372085,-0.00440503,0.00157139,-8.08685e-05,0.00157249,-0.00440612,-1.55727,0.00536798,635.921,-85.2878,17.4354,0.375601,-0.116376,-0.0350808,0.00510866,384,562,104.162,25.5187,221.083,168.18,114.473,131.336,0.000130139,0.000130602,0.000449952
-5.92495,6.04891,-296.104,3.99286,-1.1368,-0.365675,-0.00434579,0.00159012,-0.000103755,0.00159193,-0.0043476,-1.55332,0.00532513,635.318,-85.2499,18.5994,0.383724,-0.118061,-0.0307232,0.00549668,391,562,104.082,25.3908,224.068,168.744,117.55,132.072,0.000133426,0.000141843,0.000461612
-5.62213,6.03852,-296.025,3.99024,-1.13228,-0.35872,-0.00429167,0.00161226,-0.000127438,0.00161501,-0.00429442,-1.54922,0.00529016,635.015,-85.2972,19.8479,0.386808,-0.122067,-0.0246081,0.00538091,398,562,104.026,25.2888,226.062,169.276,119.596,132.729,0.000127263,0.000139369,0.000440037
0,0,0,0,0,0,0,0,0,0,0,0,0,0,0,0,0,0,0,-1,405,562,0,0,0,0,0,0,0,0,0
-5.03724,6.01537,-295.933,3.98707,-1.12545,-0.345597,-0.0042178,0.00162698,-0.000146377,0.00163064,-0.00422146,-1.54577,0.005231,634.702,-85.5236,22.7436,0.383008,-0.139329,-0.00923601,0.00482508,412,562,103.955,25.13,228.967,170.455,122.569,134.096,0.000113081,0.000126351,0.000391573
-4.7534,6.0038,-295.916,3.98574,-1.1226,-0.339784,-0.00423361,0.00163597,-0.000132613,0.00163897,-0.0042366,-1.54822,0.00525154,634.596,-85.6767,24.3086,0.389609,-0.152701,-0.00375193,0.00450603,419,562,103.922,25.0669,229.947,171.023,123.588,134.749,0.000109727,0.000117042,0.000379736
-4.46818,5.9917,-295.894,3.98402,-1.11965,-0.333476,-0.00426245,0.00164355,-0.000107861,0.00164552,-0.00426441,-1.55254,0.00528301,634.596,-85.7401,26.0926,0.396014,-0.168453,-0.00022017,0.00429763,426,562,103.879,24.9996,230.999,171.624,124.684,135.435,0.000109102,0.000110977,0.000377588
-4.1822,5.98002,-295.868,3.98223,-1.11669,-0.326909,-0.00428722,0.00165358,-8.24634e-05,0.00165473,-0.00428836,-1.55692,0.00531265,634.697,-85.899,27.97,0.402886,-0.18495,0.000567044,0.00428645,433,562,103.833,24.9325,232.097,172.208,125.824,136.103,0.000110006,0.000110534,0.000380204
-3.89544,5.96829,-295.839,3.98033,-1.11359,-0.320254,-0.00433341,0.00166888,-5.92297e-05,0.00166947,-0.00433399,-1.56093,0.00536713,634.719,-86.1439,29.6772,0.411233,-0.199701,-0.00322348,0.00444608,440,562,103.785,24.8622,233.239,172.793,127.009,136.777,0.000111651,0.000114548,0.000385357
-3.60755,5.95626,-295.805,3.97817,-1.11016,-0.313819,-0.00441842,0.00168706,-3.59935e-05,0.00168727,-0.00441863,-1.5649,0.00546138,634.609,-86.2732,30.8655,0.417342,-0.210728,-0.0116565,0.00463813,447,562,103.734,24.7865,234.44,173.387,128.259,137.471,0.000114003,0.00011918,0.000393667
-3.31677,5.94442,-295.761,3.9758,-1.10648,-0.307158,-0.00451994,0.00170288,-1.11366e-05,0.0017029,-0.00451996,-1.56901,0.00557018,634.401,-86.4475,32.0323,0.416977,-0.21585,-0.0220553,0.00483266,454,562,103.68,24.7064,235.804,173.977,129.673,138.167,0.000115779,0.000123322,0.000400656
-3.0222,5.93343,-295.703,3.97307,-1.10242,-0.300407,-0.00459956,0.00171523,1.56083e-05,0.00171527,-0.0045996,1.56832,0.00565579,634.12,-86.6015,33.3462,0.409759,-0.216356,-0.0306301,0.00486196,461,562,103.62,24.6187,237.381,174.526,131.304,138.834,0.000117919,0.000123108,0.000408269
-2.72289,5.9225,-295.628,3.96965,-1.098,-0.293554,-0.00465442,0.00172767,3.97821e-05,0.00172792,-0.00465467,1.56456,0.00571791,633.872,-86.7237,34.946,0.404591,-0.213516,-0.038285,0.00477918,468,562,103.548,24.5186,239.217,175.087,133.206,139.517,0.000119484,0.000121851,0.000413005
-2.42106,5.91142,-295.543,3.96607,-1.09325,-0.286967,-0.0046717,0.00173801,6.15993e-05,0.00173861,-0.00467229,1.56119,0.0057425,633.549,-86.7467,36.3794,0.401301,-0.207576,-0.0469769,0.00476999,475,562,103.476,24.4092,241.197,175.659,135.256,140.219,0.000121744,0.000121437,0.000419327
-2.11988,5.90023,-295.459,3.96267,-1.08838,-0.280028,-0.00465971,0.0017461,8.10669e-05,0.00174712,-0.00466074,1.55814,0.0057374,633.088,-86.7029,37.6842,0.398774,-0.200345,-0.0558545,0.00483545,482,562,103.407,24.2994,243.159,176.23,137.278,140.925,0.00012448,0.000122235,0.000427354
-1.82219,5.88909,-295.387,3.95991,-1.08376,-0.273089,-0.00462563,0.00175416,9.85064e-05,0.00175568,-0.00462715,1.55536,0.0057111,632.726,-86.7039,39.1439,0.3994,-0.193746,-0.0612595,0.00491317,489,562,103.351,24.1932,244.946,176.794,139.111,141.616,0.000127428,0.000123916,0.000437005
-1.52741,5.87791,-295.324,3.95719,-1.07945,-0.265784,-0.00456839,0.00176395,0.000114484,0.00176602,-0.00457046,1.55272,0.00566387,632.365,-86.8385,40.6274,0.407902,-0.189382,-0.0628847,0.00494385,496,562,103.291,24.0956,246.579,177.358,140.786,142.3,0.000129648,0.000124575,0.000444643
-1.23427,5.86653,-295.266,3.95427,-1.07526,-0.259194,-0.00449612,0.00177599,0.000131473,0.00177875,-0.00449888,1.54985,0.00560412,632.146,-86.997,42.216,0.42233,-0.187682,-0.0611566,0.004995,503,562,103.23,24.0029,248.112,177.927,142.375,142.988,0.000130976,0.000124295,0.000450349
-0.940321,5.85541,-295.204,3.95116,-1.071,-0.252291,-0.00442517,0.00178983,0.000150766,0.00179348,-0.00442882,1.54656,0.00554744,631.951,-87.1166,43.7941,0.439109,-0.189235,-0.0566259,0.00505307,510,562,103.163,23.9086,249.698,178.486,144.015,143.667,0.000133223,0.000124227,0.000459086
-0.644555,5.84438,-295.135,3.94803,-1.0663,-0.244797,-0.00435358,0.00180546,0.000174126,0.00181037,-0.0043585,1.54255,0.00549222,631.731,-87.1128,45.3895,0.451095,-0.193006,-0.0513536,0.00516014,517,562,103.094,23.8031,251.401,179.036,145.767,144.35,0.00013571,0.000128029,0.000467533
-0.347583,5.83332,-295.061,3.94488,-1.06145,-0.237066,-0.00428032,0.00182239,0.000199705,0.00182892,-0.00428685,1.53812,0.00543713,631.524,-87.1493,46.9767,0.459074,-0.197475,-0.0467464,0.00526566,524,562,103.025,23.6926,253.186,179.593,147.594,145.041,0.000139311,0.000131391,0.000478167
-0.0515915,5.82225,-294.989,3.94177,-1.05664,-0.22982,-0.00420882,0.00184435,0.000225242,0.00185272,-0.00421719,1.53365,0.005388,631.332,-87.3361,48.1308,0.474642,-0.206051,-0.0427474,0.00539119,531,562,102.96,23.5833,254.919,180.148,149.374,145.729,0.000141942,0.00013332,0.000485026
0.243008,5.81113,-294.922,3.93884,-1.05197,-0.222561,-0.00415989,0.00186719,0.000252765,0.00187777,-0.00417047,1.52896,0.0053619,631.124,-87.5957,49.097,0.490224,-0.2167,-0.0384593,0.00553269,538,562,102.898,23.4753,256.584,180.706,151.081,146.416,0.00014566,0.000133856,0.000495499
0.536047,5.80009,-294.859,3.93605,-1.04752,-0.215149,-0.00413155,0.00188932,0.000281386,0.00190244,-0.00414467,1.5242,0.00535561,630.964,-87.7866,50.0274,0.499857,-0.228228,-0.0314785,0.00560457,545,562,102.838,23.3756,258.171,181.258,152.704,147.093,0.000146188,0.000132802,0.000497111
0.828154,5.78898,-294.798,3.93335,-1.04298,-0.207866,-0.00412131,0.00190898,0.000309706,0.00192484,-0.00413717,1.51962,0.00536513,630.705,-87.8329,51.2986,0.503724,-0.238037,-0.023265,0.00561775,552,562,102.781,23.273,259.712,181.81,154.281,147.772,0.000146957,0.000134612,0.00050005
1.12062,5.77781,-294.736,3.93056,-1.03839,-0.200226,-0.00414826,0.00192314,0.000338437,0.00194195,-0.00416706,1.51528,0.00540628,630.415,-87.7731,52.8711,0.503321,-0.243258,-0.0163679,0.00550205,559,562,102.72,23.169,261.283,182.366,155.885,148.456,0.000147335,0.000134996,0.000500722
1.41419,5.76645,-294.668,3.9274,-1.03365,-0.192845,-0.00423967,0.00192567,0.000372764,0.00194813,-0.00426212,1.51063,0.00550128,630.249,-87.7761,54.9274,0.494896,-0.241821,-0.00983046,0.00565562,566,562,102.653,23.0612,262.915,182.935,157.561,149.156,0.000149533,0.000135992,0.000508264
1.70812,5.75512,-294.598,3.9243,-1.02882,-0.185375,-0.00438404,0.00191015,0.000420748,0.00193815,-0.00441204,1.50434,0.00563682,630.061,-87.86,56.8687,0.475342,-0.231202,-0.0033968,0.0058532,573,562,102.588,22.9536,264.582,183.5,159.266,149.858,0.000151929,0.000140176,0.000516928
0,0,0,0,0,0,0,0,0,0,0,0,0,0,0,0,0,0,0,-1,580,562,0,0,0,0,0,0,0,0,0
0,0,0,0,0,0,0,0,0,0,0,0,0,0,0,0,0,0,0,-1,587,562,0,0,0,0,0,0,0,0,0
0,0,0,0,0,0,0,0,0,0,0,0,0,0,0,0,0,0,0,-1,594,562,0,0,0,0,0,0,0,0,0
0,0,0,0,0,0,0,0,0,0,0,0,0,0,0,0,0,0,0,-1,601,562,0,0,0,0,0,0,0,0,0
0,0,0,0,0,0,0,0,0,0,0,0,0,0,0,0,0,0,0,-1,62,569,0,0,0,0,0,0,0,0,0
0,0,0,0,0,0,0,0,0,0,0,0,0,0,0,0,0,0,0,-1,69,569,0,0,0,0,0,0,0,0,0
0,0,0,0,0,0,0,0,0,0,0,0,0,0,0,0,0,0,0,-1,76,569,0,0,0,0,0,0,0,0,0
-19.0528,6.2832,-298.225,4.09587,-1.2731,-0.546306,-0.00532784,0.00182809,0.00146084,0.00211482,-0.00561458,1.37698,0.0069188,643.655,-80.7037,-55.1225,0.530304,0.00426848,0.0234048,0.00494143,83,569,106.033,28.3098,151.708,143.75,41.1056,102.998,0.000128978,0.000126595,0.000462348
-18.7705,6.27168,-298.236,4.09447,-1.27214,-0.544856,-0.00536161,0.00190658,0.00147373,0.00219404,-0.00564906,1.37816,0.00700856,643.822,-80.8612,-53.6981,0.488438,-0.00753033,-0.00520388,0.00477584,90,569,106.007,28.2908,152.532,144.33,42.0463,103.619,0.000123452,0.000123103,0.000434332
-18.4886,6.26025,-298.248,4.09305,-1.27108,-0.543491,-0.00536721,0.00196978,0.00148042,0.00225723,-0.00565465,1.37902,0.00705933,643.976,-81.057,-52.0308,0.44818,-0.0220614,-0.0271495,0.00477737,97,569,105.981,28.2702,153.335,144.902,42.9675,104.236,0.000123482,0.000123251,0.000431691
-18.2061,6.24885,-298.258,4.09155,-1.26998,-0.541997,-0.00535683,0.00202107,0.00147306,0.00230431,-0.00564006,1.38084,0.00707931,644.071,-81.3025,-50.3556,0.411139,-0.037035,-0.0433351,0.00466086,104,569,105.953,28.2497,154.161,145.471,43.9109,104.852,0.000121654,0.000119821,0.000424046
-17.9227,6.23732,-298.265,4.08999,-1.26884,-0.540424,-0.00534726,0.00206209,0.00145431,0.00233732,-0.00562249,1.38376,0.00708639,644.202,-81.5325,-48.5844,0.379097,-0.0507631,-0.0544292,0.00461381,111,569,105.924,28.2274,155.024,146.051,44.8911,105.477,0.000119599,0.000118671,0.000417889
-17.6381,6.22551,-298.268,4.08836,-1.26757,-0.538399,-0.00533059,0.00209221,0.00142537,0.00235651,-0.00559488,1.38745,0.00707392,644.247,-81.7163,-46.9312,0.351468,-0.0630667,-0.0628859,0.00466772,118,569,105.891,28.2023,155.946,146.646,45.9286,106.121,0.000117292,0.000120598,0.000410425
-17.3509,6.21369,-298.263,4.08676,-1.26605,-0.536232,-0.00529892,0.00211153,0.00138677,0.00236255,-0.00554993,1.39173,0.00703529,644.253,-81.8919,-45.346,0.326339,-0.0744679,-0.071022,0.00479114,125,569,105.861,28.1723,156.997,147.243,47.09,106.773,0.000118157,0.000123906,0.000413099
-17.057,6.20257,-298.237,4.08508,-1.26389,-0.53358,-0.00525657,0.0021216,0.00134092,0.00235774,-0.00549271,1.39648,0.00697705,644.144,-82.0791,-43.4232,0.302743,-0.0855878,-0.0784516,0.00491555,132,569,105.831,28.1317,158.38,147.806,48.5766,107.411,0.000119597,0.000127034,0.000414686
-16.7607,6.19115,-298.204,4.08327,-1.26144,-0.531093,-0.00521231,0.00212862,0.00129039,0.00234884,-0.00543253,1.40176,0.006913,644,-82.2345,-41.4254,0.279735,-0.0960074,-0.085058,0.00485892,139,569,105.803,28.0849,159.875,148.385,50.1763,108.071,0.000119845,0.000124878,0.000413276
-16.4634,6.17958,-298.167,4.08145,-1.25883,-0.527922,-0.00515702,0.00212686,0.00123461,0.00233044,-0.0053606,1.40738,0.00683077,643.844,-82.3362,-39.3378,0.260287,-0.105374,-0.0911976,0.00460934,146,569,105.77,28.0321,161.43,148.973,51.8304,108.744,0.000117195,0.000117578,0.000404792
-16.166,6.16813,-298.13,4.07945,-1.25622,-0.524612,-0.00508933,0.00211086,0.00117269,0.00229704,-0.00527551,1.41335,0.00672499,643.647,-82.3548,-37.183,0.248631,-0.11406,-0.0968319,0.00444248,153,569,105.732,27.9775,162.983,149.559,53.4863,109.411,0.000114719,0.000113063,0.000398677
-15.8685,6.1565,-298.091,4.07722,-1.25359,-0.5213,-0.00501434,0.00208547,0.00110642,0.0022539,-0.00518276,1.41973,0.00660473,643.46,-82.3685,-35.0619,0.244818,-0.120573,-0.101908,0.0044348,160,569,105.69,27.9219,164.533,150.154,55.1446,110.088,0.000113432,0.000113539,0.000397303
-15.5706,6.14473,-298.051,4.07502,-1.25089,-0.518002,-0.00494004,0.00205456,0.00104268,0.00220669,-0.00509216,1.42592,0.00648355,643.22,-82.4699,-32.7372,0.245551,-0.125337,-0.104686,0.00464253,167,569,105.649,27.862,166.104,150.759,56.8212,110.774,0.000117959,0.000119035,0.000415183
-15.2715,6.13287,-298.007,4.07301,-1.24819,-0.514497,-0.00486845,0.00202044,0.00098951,0.00215975,-0.00500777,1.43092,0.0063685,642.972,-82.646,-30.6939,0.248344,-0.128681,-0.10255,0.00487259,174,569,105.613,27.8023,167.747,151.374,58.5621,111.47,0.000124282,0.000125242,0.000438874
-14.9713,6.12112,-297.958,4.07114,-1.24528,-0.510944,-0.0048011,0.001982,0.000950592,0.0021127,-0.0049318,1.43416,0.00626144,642.686,-82.8766,-29.0214,0.252185,-0.131888,-0.0939641,0.00504049,181,569,105.581,27.7418,169.449,151.979,60.3549,112.164,0.000128408,0.000129127,0.000453862
-14.6719,6.10966,-297.912,4.06924,-1.24235,-0.507434,-0.00473955,0.00194161,0.000924589,0.0020672,-0.00486514,1.43579,0.00616443,642.443,-83.0251,-27.5205,0.260495,-0.134793,-0.080714,0.00506294,188,569,105.549,27.6849,171.115,152.561,62.1122,112.841,0.000130681,0.000129388,0.000461652
-14.3736,6.09813,-297.868,4.06723,-1.23953,-0.503491,-0.00469417,0.00190286,0.000907833,0.00202551,-0.00481682,1.43651,0.00608777,642.257,-83.1666,-26.2829,0.272551,-0.136046,-0.065366,0.00499642,195,569,105.511,27.6335,172.723,153.146,63.8123,113.518,0.000127858,0.000128231,0.000451802
-14.0767,6.08667,-297.828,4.0653,-1.23686,-0.498985,-0.00466751,0.00186811,0.000898469,0.00198938,-0.00478878,1.43664,0.00603462,642.058,-83.2697,-24.8566,0.283217,-0.135076,-0.0488352,0.00499211,202,569,105.469,27.5806,174.271,153.732,65.4449,114.189,0.000125616,0.000127002,0.000443343
-13.7801,6.07514,-297.789,4.0635,-1.23426,-0.493958,-0.00465176,0.00183748,0.00089299,0.00195812,-0.00477241,1.43651,0.00599625,641.986,-83.389,-23.1434,0.292698,-0.131363,-0.0326452,0.00499017,209,569,105.427,27.524,175.811,154.329,67.0633,114.862,0.000126977,0.000123982,0.000445763
-13.4823,6.06349,-297.745,4.06168,-1.23138,-0.4893,-0.0046575,0.00181049,0.000886351,0.00192976,-0.00477676,1.43704,0.00597992,641.897,-83.4891,-21.4128,0.303661,-0.126877,-0.0177445,0.0050674,216,569,105.389,27.4629,177.415,154.926,68.7453,115.546,0.000131209,0.000120127,0.000457283
-13.1827,6.05198,-297.695,4.05957,-1.22811,-0.48513,-0.00469327,0.00178688,0.000876949,0.00190346,-0.00480985,1.43863,0.00599276,641.767,-83.491,-19.6773,0.317559,-0.121742,-0.00612234,0.00497972,223,569,105.349,27.3927,179.096,155.512,70.5147,116.23,0.000129958,0.000116154,0.000450768
-12.8823,6.04048,-297.642,4.05738,-1.22468,-0.480987,-0.00474716,0.00176508,0.000863131,0.00187754,-0.00485962,1.44124,0.00602206,641.59,-83.4457,-18.0867,0.332,-0.1164,-0.00034197,0.00484752,230,569,105.309,27.3201,180.822,156.094,72.329,116.916,0.000127168,0.000113644,0.000440184
-12.5817,6.0292,-297.587,4.05526,-1.22144,-0.476599,-0.00479529,0.00174357,0.000841564,0.00185015,-0.00490187,1.44483,0.00604322,641.359,-83.4284,-16.3111,0.338784,-0.110995,-0.00404514,0.00459972,237,569,105.27,27.2519,182.564,156.674,74.1544,117.592,0.000120703,0.000113534,0.000417378
-12.2849,6.01802,-297.544,4.05339,-1.21862,-0.471787,-0.00483003,0.00172119,0.000813137,0.0018206,-0.00492945,1.44914,0.00604885,641.16,-83.4943,-14.6095,0.338661,-0.107095,-0.0168912,0.00442155,244,569,105.231,27.19,184.123,157.251,75.7897,118.252,0.000116804,0.000112771,0.000403518
-11.9917,6.00663,-297.512,4.05153,-1.21617,-0.467297,-0.004862,0.00169747,0.00077866,0.00178863,-0.00495317,1.45425,0.00604917,641.014,-83.6136,-12.9976,0.336521,-0.106258,-0.0345096,0.00427302,251,569,105.191,27.1385,185.497,157.834,77.2433,118.91,0.000113928,0.000111493,0.000393542
-11.7004,5.99502,-297.485,4.04973,-1.21375,-0.462869,-0.00489554,0.00167426,0.000737465,0.00175603,-0.00497731,1.46038,0.00604959,640.888,-83.7395,-11.6712,0.332695,-0.108468,-0.0532195,0.00420869,258,569,105.153,27.0885,186.773,158.422,78.5986,119.574,0.000113038,0.000109307,0.000389839
-11.4074,5.98353,-297.453,4.04779,-1.21102,-0.458441,-0.00492586,0.00165007,0.00068766,0.00172121,-0.004997,1.46771,0.00604429,640.815,-83.9384,-10.2684,0.330675,-0.113677,-0.0712947,0.00417619,265,569,105.112,27.031,188.135,159.003,80.0416,120.239,0.000113171,0.000107685,0.000388964
-11.1094,5.97215,-297.403,4.04551,-1.20782,-0.454201,-0.00494218,0.00162375,0.000626548,0.001683,-0.00500143,1.47651,0.00602198,640.677,-84.0831,-8.54689,0.331392,-0.120712,-0.0879501,0.0041428,272,569,105.071,26.964,189.747,159.582,81.7408,120.915,0.000113027,0.000105748,0.000387252
-10.807,5.96066,-297.339,4.04293,-1.20414,-0.45001,-0.00493858,0.00159783,0.000556032,0.00164479,-0.00498554,1.48654,0.00598006,640.348,-84.2118,-6.88171,0.330346,-0.127784,-0.101591,0.00422878,279,569,105.026,26.8872,191.589,160.17,83.6732,121.613,0.000115691,0.000107342,0.000396231
-10.5023,5.94918,-297.267,4.04019,-1.20019,-0.445531,-0.00492676,0.00157177,0.000483623,0.00160756,-0.00496256,1.49692,0.00593202,639.878,-84.3331,-5.21362,0.323523,-0.134148,-0.107846,0.00428608,286,569,104.979,26.8032,193.552,160.76,85.7255,122.319,0.000115497,0.000108813,0.000397536
-10.1987,5.93779,-297.198,4.0376,-1.19634,-0.440793,-0.00491382,0.00154007,0.000425496,0.001568,-0.00494175,1.50525,0.00588457,639.395,-84.4833,-3.63773,0.312234,-0.141033,-0.102821,0.00448409,293,569,104.933,26.7181,195.467,161.349,87.7251,123.018,0.000117446,0.00011281,0.000406028
-9.89834,5.92614,-297.138,4.03522,-1.1927,-0.435583,-0.0048971,0.00151767,0.000380586,0.00154017,-0.0049196,1.51174,0.00584393,639.139,-84.6226,-1.90097,0.305246,-0.148445,-0.0884924,0.00468968,300,569,104.886,26.636,197.227,161.948,89.5604,123.72,0.000122548,0.000118119,0.000424748
-9.59878,5.91467,-297.081,4.03284,-1.18911,-0.430105,-0.00486125,0.00149716,0.000338249,0.00151511,-0.00487919,1.5178,0.00578745,638.982,-84.725,-0.29251,0.308055,-0.156976,-0.0695783,0.00482771,307,569,104.837,26.5562,198.951,162.537,91.3586,124.411,0.000126795,0.000122031,0.00043924
-9.29825,5.90318,-297.019,4.03023,-1.18541,-0.424523,-0.00480334,0.00148329,0.000290865,0.00149672,-0.00481677,1.52466,0.00571409,638.824,-84.8361,1.39901,0.315939,-0.164673,-0.0500147,0.00486685,314,569,104.782,26.473,200.726,163.128,93.2107,125.107,0.000128481,0.000123048,0.000444998
-8.99447,5.89157,-296.946,4.02714,-1.18128,-0.41908,-0.00475103,0.00148041,0.000239579,0.00148961,-0.00476023,1.53243,0.00565417,638.597,-84.8415,3.05662,0.326562,-0.16887,-0.0321178,0.00484166,321,569,104.721,26.384,202.665,163.724,95.2374,125.822,0.000125762,0.0001226,0.000435705
-8.68567,5.88066,-296.856,4.02372,-1.17655,-0.413556,-0.00472912,0.00148636,0.000190598,0.0014922,-0.00473496,1.54017,0.00563135,638.197,-84.8321,4.90156,0.336496,-0.169119,-0.0167481,0.00492837,328,569,104.656,26.2833,204.872,164.284,97.5353,126.52,0.000125934,0.000124926,0.000436381
-8.3771,5.86987,-296.766,4.02053,-1.17181,-0.407665,-0.00471703,0.00149648,0.000143668,0.0014998,-0.00472035,1.54769,0.00562234,637.77,-84.8013,6.58607,0.346194,-0.165806,-0.00561177,0.00489205,335,569,104.595,26.1816,207.084,164.84,99.8279,127.211,0.00012689,0.000122995,0.000439588
-8.07286,5.85876,-296.689,4.01787,-1.16749,-0.401845,-0.00468944,0.00150822,9.73218e-05,0.00150974,-0.00469097,1.5551,0.0056006,637.386,-84.7927,8.34236,0.360611,-0.159721,0.000867913,0.00478664,342,569,104.543,26.0861,209.084,165.411,101.897,127.905,0.000126863,0.000120231,0.000439121
-7.773,5.84766,-296.625,4.01559,-1.16389,-0.395947,-0.00464248,0.00152533,4.98996e-05,0.00152574,-0.00464289,1.56271,0.0055649,637.117,-84.8352,10.1309,0.374643,-0.152874,0.00179023,0.00476011,349,569,104.498,26.0079,210.866,165.988,103.74,128.584,0.000127128,0.000118565,0.000439832
-7.4781,5.83625,-296.577,4.01347,-1.16079,-0.389965,-0.00458782,0.00154544,9.58723e-08,0.00154544,-0.00458782,1.57078,0.00552509,636.947,-84.9237,11.9316,0.384142,-0.14444,-0.00417401,0.00477365,356,569,104.451,25.9384,212.387,166.579,105.321,129.262,0.000127248,0.000118161,0.000440325
-7.18349,5.82442,-296.53,4.01098,-1.15744,-0.384086,-0.00451138,0.00156147,-4.38333e-05,0.00156178,-0.00451169,-1.56358,0.00546268,636.772,-85.0471,13.7499,0.383924,-0.13591,-0.011588,0.00470148,363,569,104.396,25.8637,213.886,167.183,106.889,129.961,0.000123651,0.000115895,0.000428084
-6.88327,5.8133,-296.463,4.00778,-1.15351,-0.37725,-0.00443042,0.00157582,-8.36451e-05,0.00157699,-0.00443158,-1.55687,0.00539577,636.6,-85.1398,15.6321,0.376592,-0.128744,-0.0165856,0.00475937,370,569,104.322,25.7726,215.684,167.76,108.763,130.645,0.000123533,0.000116632,0.000427759
-6.56806,5.803,-296.345,4.00326,-1.14826,-0.370668,-0.00435407,0.00158813,-0.000116981,0.00159043,-0.00435638,-1.55112,0.00533254,636.158,-85.1892,17.2681,0.371426,-0.123957,-0.0172694,0.00484215,377,569,104.233,25.6552,218.272,168.315,111.451,131.342,0.000124191,0.000119411,0.000430036
-6.24482,5.79186,-296.2,3.99794,-1.14194,-0.364101,-0.00428736,0.00159613,-0.000142579,0.00159958,-0.00429081,-1.54658,0.00527573,635.524,-85.1954,18.4917,0.374896,-0.122611,-0.0149281,0.00504347,384,569,104.133,25.5188,221.29,168.912,114.581,132.116,0.000125627,0.000127322,0.000434863
-5.92053,5.78095,-296.049,3.99321,-1.13568,-0.357876,-0.00422942,0.00160317,-0.000160042,0.00160755,-0.0042338,-1.54338,0.00522641,634.839,-85.1198,19.4992,0.381519,-0.124223,-0.00988916,0.00550881,391,569,104.052,25.3861,224.395,169.503,117.782,132.883,0.00013074,0.000141348,0.000452476
-5.61802,5.77129,-295.971,3.99082,-1.13119,-0.350712,-0.00417906,0.00161439,-0.000176684,0.00161977,-0.00418444,-1.54034,0.00518758,634.5,-85.2081,20.5382,0.382787,-0.128065,-0.0034627,0.00543558,398,569,104.001,25.2841,226.385,170.001,119.815,133.505,0.000126572,0.000140593,0.00043763
0,0,0,0,0,0,0,0,0,0,0,0,0,0,0,0,0,0,0,-1,405,569,0,0,0,0,0,0,0,0,0
-5.04182,5.74739,-295.909,3.98842,-1.12485,-0.337853,-0.00413934,0.00162362,-0.000176704,0.00162903,-0.00414476,-1.54017,0.00515603,634.264,-85.3906,23.4229,0.375416,-0.143969,0.0111588,0.00482945,412,569,103.941,25.1308,228.83,171.205,122.317,134.881,0.000112412,0.000126451,0.000389279
-4.76084,5.73611,-295.901,3.9874,-1.12237,-0.332125,-0.00417839,0.0016318,-0.000152383,0.00163579,-0.00418238,-1.54459,0.00519708,634.243,-85.5353,24.9246,0.382077,-0.156047,0.0158835,0.00452344,419,569,103.915,25.0749,229.661,171.759,123.182,135.508,0.000109054,0.000117524,0.000377254
-4.47808,5.72436,-295.887,3.98589,-1.1198,-0.325934,-0.00422339,0.00163917,-0.000119231,0.00164159,-0.00422581,-1.55047,0.00524303,634.225,-85.6285,26.4052,0.389523,-0.169902,0.0176976,0.00427972,426,569,103.875,25.0175,230.581,172.343,124.144,136.167,0.000107294,0.000111096,0.000371521
-4.19302,5.71278,-295.864,3.98407,-1.11704,-0.31957,-0.00425464,0.00164967,-8.80517e-05,0.00165098,-0.00425595,-1.55589,0.00527876,634.314,-85.7556,28.1491,0.39842,-0.183925,0.0156321,0.00422792,433,569,103.829,24.9572,231.626,172.922,125.234,136.827,0.00010772,0.000109294,0.000373036
-3.90644,5.70108,-295.836,3.98208,-1.11397,-0.312983,-0.0043032,0.00166592,-6.01758e-05,0.00166653,-0.00430381,-1.56072,0.00533596,634.361,-85.9544,29.8574,0.409862,-0.19574,0.00849117,0.00428625,440,569,103.78,24.89,232.756,173.505,126.41,137.499,0.000107483,0.000110455,0.00037182
-3.61808,5.68906,-295.801,3.97985,-1.11052,-0.306461,-0.00438979,0.00168525,-3.29933e-05,0.00168543,-0.00438997,-1.56537,0.00543245,634.289,-86.0596,31.1963,0.419986,-0.203764,-0.00301532,0.0044313,447,569,103.727,24.8152,233.982,174.102,127.686,138.196,0.000109062,0.000113516,0.000377565
-3.32625,5.67753,-295.753,3.9774,-1.10679,-0.299733,-0.0044924,0.00170163,-5.24727e-06,0.00170164,-0.00449241,-1.56995,0.00554272,634.054,-86.1838,32.3474,0.423481,-0.205673,-0.0163315,0.00460131,454,569,103.671,24.7341,235.405,174.68,129.159,138.882,0.000111797,0.000116541,0.000387442
-3.03092,5.66665,-295.692,3.97461,-1.10273,-0.292907,-0.00457037,0.00171399,2.2996e-05,0.00171407,-0.00457046,1.56714,0.00562683,633.752,-86.3427,33.7258,0.41908,-0.202741,-0.0278073,0.00469204,461,569,103.611,24.6438,237.026,175.231,130.833,139.548,0.000116542,0.000118541,0.000403443
-2.73182,5.65585,-295.618,3.97135,-1.09828,-0.286177,-0.00461994,0.00172597,4.74866e-05,0.00172632,-0.0046203,1.56331,0.00568361,633.51,-86.5632,35.4463,0.415183,-0.196765,-0.0377322,0.0047171,468,569,103.543,24.5421,238.853,175.788,132.724,140.226,0.000121446,0.000120209,0.000419307
-2.43098,5.64484,-295.536,3.96796,-1.09357,-0.279586,-0.00462888,0.00173501,6.92796e-05,0.00173576,-0.00462963,1.55991,0.00569933,633.205,-86.6985,36.9524,0.411528,-0.187909,-0.0476861,0.00481366,475,569,103.476,24.4336,240.784,176.357,134.719,140.924,0.000126522,0.000120294,0.000435651
-2.1315,5.63389,-295.459,3.96487,-1.08884,-0.272695,-0.00460959,0.00174155,8.8215e-05,0.00174278,-0.00461081,1.55691,0.00568617,632.825,-86.6955,38.4637,0.406607,-0.178709,-0.0567121,0.00488344,482,569,103.413,24.3285,242.658,176.914,136.647,141.613,0.000130114,0.000119234,0.000446909
-1.83542,5.623,-295.392,3.96228,-1.08435,-0.265806,-0.00457132,0.00174852,0.00010397,0.00175023,-0.00457303,1.55435,0.00565507,632.53,-86.6584,39.9764,0.403614,-0.170941,-0.0612709,0.00491631,489,569,103.36,24.2261,244.358,177.465,138.389,142.288,0.000131407,0.000119301,0.000450266
-1.54133,5.61185,-295.331,3.95964,-1.08013,-0.258501,-0.00451266,0.0017573,0.000117401,0.0017595,-0.00451486,1.55208,0.00560568,632.249,-86.7485,41.6722,0.409218,-0.16603,-0.0612976,0.00494511,496,569,103.302,24.1319,245.953,178.028,140.026,142.969,0.00013195,0.000119914,0.000452371
-1.24813,5.60066,-295.273,3.95676,-1.076,-0.251734,-0.00444051,0.00176836,0.00013132,0.00177114,-0.00444329,1.54966,0.00554521,632.018,-86.9191,43.2081,0.422116,-0.164429,-0.0575512,0.00493449,503,569,103.241,24.0403,247.492,178.592,141.617,143.65,0.000131328,0.000121517,0.000450957
-0.95349,5.58954,-295.209,3.95356,-1.07159,-0.244736,-0.00437092,0.00178154,0.000146949,0.00178505,-0.00437443,1.54693,0.00548914,631.829,-87.087,44.671,0.437005,-0.166512,-0.0510223,0.00499778,510,569,103.172,23.9432,249.116,179.152,143.297,144.335,0.000132777,0.000123044,0.000456546
-0.656991,5.57857,-295.137,3.95033,-1.06686,-0.237436,-0.00430145,0.00179707,0.000165824,0.00180157,-0.00430595,1.54363,0.00543547,631.607,-87.134,46.2108,0.446525,-0.171631,-0.0442392,0.00513257,517,569,103.102,23.838,250.858,179.705,145.09,145.02,0.000135999,0.000126261,0.000467943
-0.359875,5.56759,-295.063,3.94714,-1.06208,-0.229888,-0.00423073,0.00181478,0.000186768,0.00182054,-0.0042365,1.53994,0.00538284,631.391,-87.1661,47.6742,0.452762,-0.178274,-0.03902,0.00529667,524,569,103.034,23.7308,252.649,180.262,146.927,145.71,0.000140585,0.000130093,0.000482026
-0.0641914,5.55656,-294.992,3.94418,-1.05739,-0.222432,-0.00416196,0.00183761,0.000207966,0.00184481,-0.00416916,1.53619,0.00533635,631.185,-87.3694,48.6466,0.468655,-0.189553,-0.0344976,0.00537243,531,569,102.971,23.6259,254.37,180.819,148.688,146.398,0.000142052,0.000131739,0.00048502
0.230057,5.54564,-294.926,3.94136,-1.05278,-0.215484,-0.00411531,0.00186174,0.00023235,0.00187075,-0.00412433,1.532,0.00531276,630.96,-87.621,49.2951,0.484581,-0.203436,-0.0307209,0.00547625,538,569,102.914,23.5235,256.015,181.366,150.375,147.075,0.000144705,0.000132722,0.000491955
0.522809,5.53473,-294.864,3.93869,-1.04839,-0.208353,-0.0040894,0.0018857,0.000258807,0.00189689,-0.00410059,1.52759,0.00530955,630.789,-87.8268,50.0849,0.493706,-0.218424,-0.0258937,0.00554538,545,569,102.859,23.4252,257.586,181.914,151.982,147.747,0.000146114,0.000134184,0.000497625
0.815213,5.52369,-294.802,3.93601,-1.0438,-0.201012,-0.00408395,0.00190795,0.000286316,0.0019216,-0.0040976,1.52316,0.00532511,630.554,-87.9016,51.5402,0.495703,-0.231667,-0.0215283,0.00558442,552,569,102.803,23.319,259.146,182.467,153.576,148.426,0.000147858,0.000136244,0.000504023
1.10804,5.51259,-294.738,3.93308,-1.03913,-0.193706,-0.00411914,0.00192579,0.000316177,0.00194228,-0.00413563,1.51868,0.00537666,630.271,-87.858,53.3002,0.490763,-0.240628,-0.0195932,0.00560299,559,569,102.741,23.2126,260.732,183.022,155.201,149.11,0.000149591,0.000135769,0.000509378
1.40192,5.50141,-294.67,3.92984,-1.03431,-0.186611,-0.00422302,0.0019338,0.000354117,0.0019541,-0.00424332,1.51353,0.00548782,629.993,-87.8053,55.4165,0.473036,-0.243554,-0.0190187,0.00578806,566,569,102.674,23.1019,262.38,183.584,156.896,149.805,0.000153177,0.000135679,0.00052133
1.69587,5.49025,-294.6,3.92681,-1.02941,-0.178737,-0.00438397,0.00192718,0.000407593,0.0019534,-0.00441018,1.50657,0.00564626,629.801,-87.9199,57.4695,0.438262,-0.237271,-0.0202873,0.00599126,573,569,102.609,22.9919,264.053,184.143,158.602,150.5,0.000157044,0.00014107,0.00053423
0,0,0,0,0,0,0,0,0,0,0,0,0,0,0,0,0,0,0,-1,580,569,0,0,0,0,0,0,0,0,0
0,0,0,0,0,0,0,0,0,0,0,0,0,0,0,0,0,0,0,-1,587,569,0,0,0,0,0,0,0,0,0
0,0,0,0,0,0,0,0,0,0,0,0,0,0,0,0,0,0,0,-1,594,569,0,0,0,0,0,0,0,0,0
0,0,0,0,0,0,0,0,0,0,0,0,0,0,0,0,0,0,0,-1,601,569,0,0,0,0,0,0,0,0,0
0,0,0,0,0,0,0,0,0,0,0,0,0,0,0,0,0,0,0,-1,62,576,0,0,0,0,0,0,0,0,0
0,0,0,0,0,0,0,0,0,0,0,0,0,0,0,0,0,0,0,-1,69,576,0,0,0,0,0,0,0,0,0
0,0,0,0,0,0,0,0,0,0,0,0,0,0,0,0,0,0,0,-1,76,576,0,0,0,0,0,0,0,0,0
-19.0601,6.01141,-298.211,4.09654,-1.27344,-0.539064,-0.00529802,0.00159165,0.00153723,0.00191908,-0.00562545,1.36093,0.00679148,643.419,-80.6401,-54.714,0.515982,0.00102504,0.0621271,0.00493339,83,576,105.996,28.3306,151.338,144.638,40.6556,103.913,0.000127737,0.000126023,0.000456563
-18.7808,5.9997,-298.231,4.09518,-1.27254,-0.537643,-0.00533742,0.00172059,0.00152217,0.00203487,-0.0056517,1.36719,0.00689804,643.568,-80.8438,-53.2276,0.480372,-0.0132627,0.0258278,0.00495619,90,576,105.969,28.3133,152.016,145.218,41.4517,104.533,0.000128567,0.000127866,0.000453108
-18.5001,5.98837,-298.247,4.09367,-1.27155,-0.536489,-0.00533657,0.00182287,0.00150288,0.00212555,-0.00563925,1.37205,0.00695022,643.725,-81.0623,-51.5331,0.44091,-0.0291459,-0.0027027,0.00506936,97,576,105.941,28.2928,152.754,145.781,42.3117,105.137,0.000130616,0.000131218,0.000456603
-18.2168,5.97696,-298.254,4.09205,-1.27036,-0.535163,-0.00531296,0.00190453,0.001473,0.00219358,-0.00560201,1.37703,0.00696295,643.847,-81.2584,-49.6919,0.402626,-0.0446246,-0.0246919,0.00498667,104,576,105.912,28.27,153.614,146.35,43.2936,105.754,0.000127267,0.000129342,0.000442993
-17.9323,5.96531,-298.258,4.09045,-1.2691,-0.533575,-0.0052882,0.00196925,0.001436,0.00224306,-0.00556201,1.38239,0.00696011,643.902,-81.426,-48.0486,0.368861,-0.0581719,-0.0404497,0.00488637,111,576,105.883,28.2423,154.535,146.937,44.3322,106.389,0.000123133,0.000126525,0.000429819
-17.6465,5.95339,-298.257,4.08878,-1.26773,-0.531543,-0.00525706,0.00201853,0.0013928,0.00227605,-0.00551458,1.38797,0.00693847,643.922,-81.5743,-46.3543,0.339641,-0.0699029,-0.0520993,0.00491152,118,576,105.851,28.2156,155.516,147.538,45.4282,107.04,0.000120358,0.000127023,0.00042131
-17.3573,5.94189,-298.246,4.08714,-1.26603,-0.529245,-0.00521229,0.00205375,0.00134328,0.00229413,-0.00545267,1.39372,0.0068923,643.848,-81.768,-44.7515,0.313061,-0.0807092,-0.0621115,0.00498615,125,576,105.821,28.182,156.666,148.12,46.6874,107.682,0.000121194,0.000128775,0.000424371
-17.0616,5.93104,-298.215,4.08542,-1.26366,-0.526503,-0.00515849,0.00207722,0.00128946,0.00230014,-0.00538141,1.39961,0.00682849,643.693,-81.9507,-42.7373,0.288278,-0.0915709,-0.0705568,0.0050055,132,576,105.791,28.1385,158.142,148.669,48.2655,108.312,0.000121105,0.000128583,0.000421626
-16.7638,5.9196,-298.177,4.08357,-1.26114,-0.523766,-0.00510661,0.00209735,0.00123239,0.00230235,-0.0053116,1.40597,0.00676336,643.526,-82.1053,-40.6579,0.265972,-0.102191,-0.0781764,0.00487063,139,576,105.762,28.0904,159.716,149.252,49.9431,108.979,0.000118205,0.000124385,0.000410376
-16.4656,5.90828,-298.138,4.08185,-1.25855,-0.520266,-0.00504604,0.00210616,0.00117345,0.00229376,-0.00523364,1.41226,0.0066826,643.353,-82.2023,-38.7377,0.247786,-0.111964,-0.0847261,0.00459661,146,576,105.73,28.0375,161.316,149.833,51.6363,109.641,0.000114118,0.000117068,0.000397155
-16.1687,5.897,-298.101,4.07996,-1.25608,-0.516959,-0.00497649,0.00209674,0.00111008,0.00226687,-0.00514661,1.41873,0.00657974,643.22,-82.2407,-36.6508,0.237301,-0.12179,-0.0902842,0.00449612,153,576,105.695,27.9853,162.849,150.414,53.2688,110.299,0.000112608,0.000114735,0.000393733
-15.8726,5.88557,-298.067,4.07781,-1.25354,-0.51381,-0.00490228,0.00207747,0.00104411,0.00223031,-0.00505512,1.42544,0.00646553,643.136,-82.2959,-34.6568,0.234883,-0.129363,-0.0949517,0.00463453,160,576,105.654,27.9308,164.334,150.998,54.862,110.962,0.000114235,0.000118527,0.00040199
-15.576,5.87397,-298.031,4.07567,-1.25082,-0.510787,-0.00483389,0.00205089,0.000981706,0.00218813,-0.00497114,1.43189,0.00635434,642.944,-82.4128,-32.5344,0.23783,-0.135607,-0.0969663,0.00488353,167,576,105.616,27.8713,165.844,151.589,56.4786,111.636,0.000120843,0.000125108,0.000427083
-15.2778,5.86217,-297.989,4.0737,-1.24809,-0.507386,-0.00477437,0.00202043,0.000930847,0.00214564,-0.00489959,1.43708,0.0062548,642.725,-82.5661,-30.5482,0.243298,-0.140632,-0.0936629,0.00504439,174,576,105.581,27.8117,167.444,152.197,58.1762,112.326,0.000127868,0.000129553,0.000453488
-14.9786,5.85042,-297.944,4.07192,-1.24527,-0.503904,-0.00472305,0.00198483,0.000894525,0.00210207,-0.00484029,1.44048,0.00616618,642.466,-82.805,-28.8501,0.249773,-0.14513,-0.0834407,0.00518077,181,576,105.551,27.753,169.097,152.802,59.9191,113.018,0.000133364,0.000131255,0.000472877
-14.6802,5.83879,-297.9,4.07013,-1.24247,-0.500179,-0.00467687,0.0019462,0.000870162,0.00205862,-0.00478928,1.44232,0.0060856,642.224,-83.0066,-27.3549,0.260242,-0.148575,-0.06877,0.00522769,188,576,105.519,27.6995,170.717,153.395,61.6261,113.701,0.000136297,0.000131558,0.000482335
-14.383,5.82715,-297.86,4.06826,-1.23979,-0.496154,-0.00464323,0.00190797,0.000853517,0.00201734,-0.0047526,1.44335,0.00602034,642.052,-83.1426,-25.9354,0.273003,-0.149745,-0.0526086,0.00512626,195,576,105.483,27.6518,172.277,153.986,63.2739,114.381,0.000133402,0.000131274,0.00047146
-14.0869,5.81574,-297.823,4.06639,-1.23713,-0.491496,-0.00462386,0.00187262,0.000842539,0.00198012,-0.00473136,1.4439,0.00597287,641.863,-83.2638,-24.482,0.283265,-0.148212,-0.0358323,0.00510513,202,576,105.441,27.5995,173.787,154.568,64.8671,115.047,0.000130189,0.00013031,0.000459195
-13.7907,5.80426,-297.784,4.06446,-1.23451,-0.486369,-0.00461047,0.00184092,0.000834498,0.00194711,-0.00471667,1.44422,0.00593482,641.789,-83.3708,-22.6626,0.291485,-0.1437,-0.019546,0.0050614,209,576,105.394,27.5439,175.307,155.16,66.4674,115.717,0.000129535,0.000127702,0.000454565
-13.4929,5.79272,-297.741,4.06254,-1.23162,-0.481659,-0.00461434,0.00181316,0.000825767,0.00191756,-0.00471873,1.44504,0.0059154,641.747,-83.4976,-20.6399,0.301205,-0.138318,-0.00442675,0.00508793,216,576,105.354,27.4829,176.905,155.752,68.1462,116.396,0.00013189,0.000123563,0.000459758
-13.1927,5.7814,-297.689,4.06033,-1.22833,-0.477778,-0.00464481,0.00178887,0.00081545,0.00189061,-0.00474656,1.44666,0.00592268,641.583,-83.549,-18.9432,0.315132,-0.132265,0.00729033,0.0049422,223,576,105.315,27.413,178.616,156.33,69.9496,117.073,0.000128078,0.000119125,0.000444411
-12.8916,5.77,-297.633,4.0582,-1.22492,-0.473534,-0.00469162,0.00176719,0.000801491,0.00186516,-0.00478959,1.44916,0.00594578,641.348,-83.5034,-17.3593,0.330964,-0.12607,0.0130833,0.00469701,230,576,105.276,27.3408,180.381,156.914,71.8001,117.758,0.000121838,0.000114267,0.000422672
-12.5901,5.75875,-297.576,4.05612,-1.22156,-0.469085,-0.00473072,0.0017463,0.00077996,0.0018389,-0.00482332,1.45263,0.00595949,641.074,-83.4091,-15.7462,0.3395,-0.12003,0.00948634,0.00450173,237,576,105.239,27.2701,182.173,157.493,73.6724,118.438,0.000116801,0.000113471,0.000403941
-12.2923,5.74771,-297.53,4.05421,-1.21858,-0.464469,-0.00475394,0.00172523,0.000751779,0.00181131,-0.00484002,1.45678,0.00595596,640.863,-83.3935,-14.1631,0.33981,-0.116012,-0.00301632,0.00435975,244,576,105.201,27.2052,183.781,158.062,75.358,119.094,0.000113768,0.000112832,0.000392806
-11.9982,5.73625,-297.495,4.0523,-1.21609,-0.460005,-0.00477342,0.00170351,0.000717625,0.00178207,-0.00485198,1.46176,0.00594677,640.711,-83.4943,-12.5147,0.33736,-0.115558,-0.0204938,0.00430614,251,576,105.162,27.1515,185.199,158.653,76.8569,119.76,0.000111593,0.000112989,0.000384781
-11.706,5.72465,-297.465,4.05044,-1.21361,-0.455725,-0.00479497,0.00168294,0.000677299,0.001753,-0.00486503,1.46773,0.00593885,640.578,-83.6654,-11.0188,0.333768,-0.118235,-0.0393409,0.00424191,258,576,105.123,27.0999,186.518,159.244,78.2582,120.427,0.000109954,0.000111827,0.00037844
-11.4128,5.71318,-297.432,4.04849,-1.21082,-0.451439,-0.00481344,0.00166231,0.00062936,0.00172291,-0.00487404,1.47481,0.0059264,640.531,-83.8704,-9.32503,0.332491,-0.123576,-0.0579959,0.00421705,265,576,105.084,27.0418,187.89,159.823,79.7112,121.092,0.000111019,0.000112619,0.000380614
-11.1149,5.70174,-297.383,4.04625,-1.20759,-0.447175,-0.00481804,0.0016401,0.000570066,0.00169004,-0.00486798,1.48343,0.0058975,640.369,-84.0019,-7.63628,0.333398,-0.1305,-0.0757976,0.00411936,272,576,105.043,26.9758,189.503,160.404,81.4092,121.772,0.000112037,0.000110741,0.000382932
-10.8123,5.69058,-297.318,4.04373,-1.20386,-0.442726,-0.0048055,0.00161835,0.000501166,0.00165722,-0.00484437,1.4934,0.0058517,640.009,-84.1128,-5.93531,0.331222,-0.137573,-0.0908842,0.00413218,279,576,104.999,26.8986,191.36,160.976,83.3527,122.456,0.000112999,0.000107765,0.000386544
-10.5076,5.67936,-297.246,4.04099,-1.19987,-0.438105,-0.00479461,0.00159844,0.000431834,0.00162748,-0.00482365,1.50366,0.00581091,639.51,-84.1609,-4.49491,0.321532,-0.143835,-0.0983471,0.00419193,286,576,104.951,26.8132,193.325,161.555,85.4061,123.151,0.000112896,0.000106895,0.000388225
-10.2038,5.66828,-297.176,4.03842,-1.19597,-0.433084,-0.00479376,0.00157588,0.000377103,0.00159813,-0.00481601,1.51187,0.00578312,639.019,-84.3031,-2.98166,0.306306,-0.150189,-0.0940562,0.00432319,293,576,104.903,26.7263,195.26,162.13,87.4219,123.837,0.000114613,0.000109084,0.000395989
-9.90278,5.65686,-297.114,4.03604,-1.19216,-0.427739,-0.00479172,0.00156133,0.000334774,0.00157892,-0.00480932,1.5183,0.00576334,638.747,-84.4271,-1.34653,0.296091,-0.156513,-0.080076,0.00462549,300,576,104.856,26.6424,197.056,162.715,89.292,124.531,0.00012347,0.000116566,0.000427132
-9.6027,5.64553,-297.055,4.03372,-1.1885,-0.422009,-0.00476823,0.00154909,0.00029319,0.00156267,-0.00478181,1.52452,0.00572538,638.611,-84.511,0.398576,0.295479,-0.16334,-0.0613856,0.0049123,307,576,104.807,26.5625,198.813,163.298,91.1185,125.219,0.00013105,0.00012269,0.000452883
-9.30231,5.63429,-296.993,4.0312,-1.18478,-0.416463,-0.00471508,0.00154283,0.000243357,0.00155228,-0.00472453,1.53199,0.00566256,638.44,-84.5754,1.96216,0.30041,-0.169291,-0.0425069,0.00510355,314,576,104.755,26.4821,200.585,163.875,92.9653,125.903,0.000135866,0.000125913,0.000469358
-9.00037,5.62286,-296.926,4.0284,-1.18093,-0.411032,-0.0046644,0.00154604,0.000188155,0.00155173,-0.00467009,1.54054,0.00560931,638.211,-84.6469,3.52859,0.308778,-0.172235,-0.0253139,0.00501683,321,576,104.7,26.4001,202.436,164.465,94.8974,126.605,0.000133038,0.000126592,0.000459962
-8.69559,5.61205,-296.849,4.02542,-1.17682,-0.405378,-0.00464445,0.00155632,0.00013469,0.00155924,-0.00464738,1.54909,0.00559247,637.9,-84.7148,5.3269,0.317757,-0.171734,-0.00993523,0.00494563,328,576,104.641,26.31,204.442,165.029,96.9842,127.285,0.000129697,0.000126902,0.00044886
-8.39165,5.60082,-296.774,4.02258,-1.17266,-0.399534,-0.00463276,0.00156826,8.28186e-05,0.00156937,-0.00463387,1.55744,0.0055864,637.548,-84.7566,7.0051,0.329081,-0.168265,0.00188711,0.00482105,335,576,104.585,26.217,206.414,165.614,99.0322,127.986,0.000128233,0.000122362,0.000443775
-8.09019,5.58957,-296.706,4.01998,-1.16874,-0.393837,-0.0046027,0.00157907,3.11023e-05,0.00157923,-0.00460285,1.56577,0.0055632,637.233,-84.7565,8.76352,0.347551,-0.16234,0.00921911,0.00473495,342,576,104.533,26.1268,208.264,166.2,100.953,128.679,0.00012681,0.00011785,0.00043857
-7.7906,5.5785,-296.644,4.01753,-1.16519,-0.388055,-0.00454905,0.00159236,-2.10983e-05,0.00159244,-0.00454912,-1.56736,0.00552038,636.978,-84.7554,10.5536,0.367323,-0.156133,0.0111682,0.00471614,349,576,104.484,26.048,210.024,166.779,102.78,129.357,0.000126195,0.000115706,0.0004365
-7.49232,5.56711,-296.585,4.01492,-1.16165,-0.382517,-0.00448361,0.00160529,-7.35109e-05,0.00160617,-0.00448449,-1.55873,0.00546748,636.759,-84.7936,12.4095,0.382081,-0.1489,0.00670812,0.00471634,356,576,104.432,25.9714,211.712,167.368,104.542,130.048,0.00012541,0.000116351,0.000434106
-7.19261,5.55574,-296.52,4.01205,-1.15781,-0.376668,-0.00439868,0.00161291,-0.000117637,0.00161521,-0.00440098,-1.55124,0.00539315,636.497,-84.8701,14.2518,0.38493,-0.141914,0.000970416,0.00462531,363,576,104.373,25.8879,213.479,167.955,106.384,130.744,0.000121037,0.000115693,0.00041914
-6.88733,5.54539,-296.437,4.00875,-1.15334,-0.369709,-0.00431422,0.00161805,-0.00015537,0.00162212,-0.00431829,-1.54463,0.00531824,636.219,-84.9783,16.1068,0.378951,-0.136322,-0.00237256,0.00458285,370,576,104.301,25.7872,215.554,168.498,108.531,131.41,0.000118851,0.000114766,0.000411297
-6.56919,5.53519,-296.309,4.00417,-1.14764,-0.363128,-0.00424002,0.00162114,-0.000184171,0.00162692,-0.0042458,-1.53942,0.00525179,635.664,-84.9857,17.5571,0.373994,-0.132613,-0.00155943,0.00464761,377,576,104.213,25.6614,218.303,169.05,111.378,132.118,0.000119385,0.000116486,0.000413038
-6.24632,5.52389,-296.165,3.99896,-1.14111,-0.356814,-0.00417885,0.00162072,-0.000203388,0.00162785,-0.00418598,-1.53578,0.00519484,635.065,-84.9956,19.0201,0.376599,-0.131563,0.00182212,0.00487481,384,576,104.117,25.5212,221.304,169.652,114.49,132.904,0.000121998,0.000121988,0.000422282
-5.92178,5.51253,-296.013,3.99436,-1.13486,-0.350252,-0.00412526,0.00161952,-0.000214541,0.00162752,-0.00413326,-1.53352,0.0051439,634.387,-84.9427,20.2837,0.38177,-0.133079,0.00728134,0.00529827,391,576,104.037,25.3857,224.43,170.278,117.706,133.702,0.000127424,0.000135339,0.00044104
-5.62054,5.50135,-295.939,3.99209,-1.13042,-0.343001,-0.00408068,0.00162347,-0.000223877,0.00163224,-0.00408945,-1.53163,0.00510517,634.059,-85.0215,21.36,0.381354,-0.136497,0.0138499,0.00528168,398,576,103.988,25.2829,226.353,170.857,119.669,134.401,0.000124418,0.000136566,0.000430002
0,0,0,0,0,0,0,0,0,0,0,0,0,0,0,0,0,0,0,-1,405,576,0,0,0,0,0,0,0,0,0
-5.04844,5.47914,-295.891,3.98993,-1.12456,-0.330289,-0.00407504,0.00162776,-0.000205521,0.00163516,-0.00408243,-1.53482,0.00510053,633.855,-85.3062,24.0934,0.371229,-0.150472,0.0278072,0.00470021,412,576,103.932,25.138,228.582,171.975,121.953,135.675,0.000111492,0.000122683,0.000385569
-4.76948,5.46802,-295.89,3.98911,-1.12232,-0.324324,-0.00413623,0.00163384,-0.000171137,0.00163891,-0.0041413,-1.54117,0.00515981,633.894,-85.4623,25.5722,0.378014,-0.160706,0.0317624,0.0044504,419,576,103.906,25.0882,229.309,172.519,122.708,136.286,0.000108461,0.000115349,0.000374933
-4.48927,5.45652,-295.884,3.98774,-1.12007,-0.318409,-0.00419522,0.00163909,-0.000130765,0.00164202,-0.00419815,-1.5484,0.00521672,633.866,-85.5799,26.8328,0.386472,-0.171927,0.0317786,0.00425847,426,576,103.87,25.0397,230.09,173.086,123.531,136.922,0.000106357,0.000110166,0.000367957
-4.20511,5.44515,-295.865,3.98594,-1.11743,-0.312136,-0.00423065,0.00164771,-9.50777e-05,0.00164925,-0.00423219,-1.55463,0.00525465,633.909,-85.6417,28.3023,0.396961,-0.182764,0.0268998,0.00417631,433,576,103.825,24.9831,231.085,173.654,124.573,137.567,0.000106512,0.000108041,0.000368861
-3.91796,5.43372,-295.835,3.98385,-1.11438,-0.305636,-0.00427884,0.00166222,-6.37622e-05,0.0016629,-0.00427953,-1.56007,0.00530999,633.966,-85.7732,29.9097,0.410372,-0.191065,0.0165876,0.00420639,440,576,103.774,24.9177,232.244,174.226,125.78,138.228,0.000106492,0.000107621,0.000368904
-3.62811,5.42211,-295.794,3.98154,-1.11088,-0.29903,-0.00436345,0.00167989,-3.35332e-05,0.00168008,-0.00436364,-1.56525,0.00540326,633.925,-85.8449,31.3593,0.423147,-0.195741,0.00235602,0.00426931,447,576,103.72,24.8421,233.554,174.808,127.141,138.911,0.000108534,0.000107692,0.000376243
-3.33491,5.41095,-295.742,3.97904,-1.10709,-0.292184,-0.00446321,0.00169455,-3.62711e-06,0.00169456,-0.00446321,-1.57021,0.00550953,633.713,-85.9572,32.7325,0.429608,-0.194495,-0.0133797,0.00442963,454,576,103.664,24.7588,235.056,175.374,128.691,139.584,0.000112838,0.000110618,0.000391143
-3.03923,5.40009,-295.68,3.97627,-1.10296,-0.285383,-0.0045371,0.00170542,2.55911e-05,0.00170552,-0.0045372,1.5667,0.00558868,633.418,-86.1491,34.2605,0.427789,-0.188932,-0.0271477,0.004577,461,576,103.605,24.6665,236.697,175.928,130.385,140.253,0.000117909,0.000114853,0.000407924
-2.74139,5.38936,-295.61,3.97321,-1.09855,-0.278807,-0.00458048,0.00171609,5.07638e-05,0.00171649,-0.00458089,1.56273,0.00563861,633.158,-86.3686,36.0123,0.424944,-0.180961,-0.0386757,0.00470126,468,576,103.542,24.5659,238.459,176.479,132.207,140.926,0.000123693,0.000117913,0.000426884
-2.44258,5.37847,-295.535,3.97005,-1.09389,-0.272246,-0.00458158,0.00172384,7.33304e-05,0.00172469,-0.00458243,1.55917,0.00564593,632.871,-86.5921,37.6971,0.420494,-0.170952,-0.0490682,0.00488235,475,576,103.479,24.4599,240.281,177.036,134.089,141.611,0.000129893,0.000119149,0.000447299
-2.14497,5.36779,-295.464,3.9672,-1.08935,-0.265465,-0.00455572,0.00172968,9.24119e-05,0.00173104,-0.00455708,1.5561,0.00562601,632.541,-86.681,39.3756,0.412951,-0.161723,-0.0572856,0.00497963,482,576,103.421,24.3598,242.054,177.579,135.912,142.282,0.000132831,0.000117537,0.000456108
-1.8497,5.35688,-295.401,3.96468,-1.08506,-0.258611,-0.0045135,0.0017363,0.000107147,0.00173814,-0.00451534,1.55366,0.00559086,632.309,-86.6696,40.9609,0.406428,-0.154938,-0.0601989,0.00497596,489,576,103.37,24.2625,243.709,178.135,137.608,142.957,0.000133203,0.000116172,0.000455954
-1.55606,5.34575,-295.342,3.96204,-1.08093,-0.251495,-0.0044532,0.00174454,0.000118694,0.00174681,-0.00445548,1.55165,0.00553945,632.077,-86.7517,42.7101,0.409325,-0.151498,-0.057971,0.00497659,496,576,103.312,24.1719,245.276,178.7,139.219,143.638,0.000133153,0.00011693,0.000455617
-1.26313,5.33475,-295.284,3.95926,-1.07681,-0.244467,-0.00438054,0.00175461,0.000129931,0.00175736,-0.00438329,1.54963,0.00547764,631.892,-86.9272,44.2752,0.420989,-0.151687,-0.0517628,0.00494931,503,576,103.252,24.0797,246.805,179.257,140.795,144.31,0.000132057,0.00012027,0.000452681
-0.968367,5.32364,-295.22,3.95597,-1.07234,-0.237465,-0.00431122,0.00176698,0.000142068,0.0017703,-0.00431454,1.54744,0.005421,631.692,-87.1111,45.6374,0.434454,-0.155466,-0.0427817,0.00497668,510,576,103.181,23.9815,248.434,179.817,142.481,144.997,0.000132349,0.000123702,0.000453984
-0.671518,5.31282,-295.147,3.95262,-1.06763,-0.230395,-0.00424247,0.00178165,0.000156517,0.00178571,-0.00424654,1.54484,0.00536703,631.467,-87.193,47.0734,0.442306,-0.162612,-0.0340876,0.00512343,517,576,103.111,23.8759,250.191,180.368,144.295,145.679,0.000134685,0.000127874,0.000462198
-0.374314,5.30194,-295.072,3.94955,-1.06289,-0.222693,-0.00417334,0.00179915,0.000172779,0.00180414,-0.00417833,1.5419,0.00531523,631.259,-87.2488,48.3403,0.447764,-0.171644,-0.0278695,0.00529728,524,576,103.044,23.771,251.991,180.924,146.136,146.366,0.000139781,0.000131477,0.000477764
-0.0785522,5.29095,-295.001,3.94667,-1.05826,-0.215432,-0.00410654,0.00182084,0.000189616,0.0018269,-0.0041126,1.53885,0.00526919,631.068,-87.37,49.2269,0.464824,-0.18532,-0.0224106,0.00537218,531,576,102.985,23.6692,253.717,181.483,147.902,147.055,0.000141562,0.000133139,0.000482318
0.215604,5.28022,-294.935,3.94401,-1.05374,-0.208504,-0.00406104,0.00184357,0.000210501,0.00185106,-0.00406854,1.53521,0.00524505,630.885,-87.5962,49.845,0.482046,-0.201488,-0.0188059,0.00544984,538,576,102.933,23.5696,255.361,182.025,149.583,147.725,0.000144739,0.000134335,0.000491575
0.508341,5.26936,-294.873,3.94146,-1.04926,-0.201354,-0.00403606,0.0018664,0.000234126,0.00187567,-0.00404533,1.53121,0.00524123,630.73,-87.7846,50.7981,0.491759,-0.218433,-0.0157658,0.00552023,545,576,102.881,23.4693,256.935,182.571,151.189,148.396,0.000147112,0.000135434,0.000500711
0.801087,5.25828,-294.811,3.93876,-1.04466,-0.194379,-0.00403364,0.0018883,0.000259779,0.00189967,-0.00404501,1.52704,0.00525881,630.517,-87.7774,52.2542,0.492738,-0.233186,-0.0147939,0.00563792,552,576,102.827,23.3606,258.511,183.131,152.803,149.081,0.000149765,0.000136737,0.000509958
1.09413,5.24723,-294.746,3.93583,-1.03997,-0.187177,-0.00407536,0.00190741,0.000289223,0.00192136,-0.00408931,1.5226,0.00531706,630.296,-87.7995,54.1096,0.484098,-0.243624,-0.0172498,0.00575465,559,576,102.766,23.2527,260.109,183.688,154.441,149.767,0.000153424,0.000136508,0.00052154
1.38805,5.23611,-294.677,3.9326,-1.03508,-0.180166,-0.00419035,0.00191978,0.000328719,0.00193742,-0.00420798,1.5172,0.00544181,630.002,-87.7768,56.1111,0.458831,-0.248646,-0.0221214,0.00597064,566,576,102.7,23.1399,261.758,184.249,156.137,150.461,0.000158846,0.000137833,0.000540093
1.68205,5.2249,-294.607,3.92955,-1.03008,-0.171946,-0.00436642,0.0019226,0.000385277,0.00194612,-0.00438994,1.50984,0.00562159,629.679,-87.9455,58.0283,0.411337,-0.244803,-0.030582,0.00620108,573,576,102.632,23.026,263.436,184.812,157.846,151.162,0.000164613,0.000143957,0.000558475
0,0,0,0,0,0,0,0,0,0,0,0,0,0,0,0,0,0,0,-1,580,576,0,0,0,0,0,0,0,0,0
0,0,0,0,0,0,0,0,0,0,0,0,0,0,0,0,0,0,0,-1,587,576,0,0,0,0,0,0,0,0,0
0,0,0,0,0,0,0,0,0,0,0,0,0,0,0,0,0,0,0,-1,594,576,0,0,0,0,0,0,0,0,0
0,0,0,0,0,0,0,0,0,0,0,0,0,0,0,0,0,0,0,-1,601,576,0,0,0,0,0,0,0,0,0
0,0,0,0,0,0,0,0,0,0,0,0,0,0,0,0,0,0,0,-1,62,583,0,0,0,0,0,0,0,0,0
0,0,0,0,0,0,0,0,0,0,0,0,0,0,0,0,0,0,0,-1,69,583,0,0,0,0,0,0,0,0,0
0,0,0,0,0,0,0,0,0,0,0,0,0,0,0,0,0,0,0,-1,76,583,0,0,0,0,0,0,0,0,0
-19.0668,5.73992,-298.195,4.09723,-1.27356,-0.532263,-0.00523343,0.00129382,0.00161675,0.00167233,-0.00561194,1.34082,0.00660875,643.063,-80.6211,-54.298,0.508019,-0.00707421,0.102254,0.0049588,83,583,105.964,28.3431,150.992,145.512,40.2322,104.815,0.000128534,0.000125369,0.000458579
-18.7892,5.72764,-298.22,4.09575,-1.2728,-0.530802,-0.00528685,0.00149164,0.00156389,0.00183505,-0.00563027,1.35464,0.00673789,643.206,-80.8399,-52.792,0.478774,-0.023789,0.0587387,0.00508661,90,583,105.932,28.3295,151.586,146.116,40.948,105.457,0.000133945,0.000130643,0.000473881
-18.5092,5.71618,-298.237,4.09408,-1.27182,-0.529702,-0.00528733,0.00164751,0.00151225,0.00196293,-0.00560275,1.36517,0.00680012,643.415,-81.0219,-50.987,0.439534,-0.0408989,0.0238875,0.00523689,97,583,105.9,28.3093,152.286,146.683,41.7758,106.065,0.000136003,0.000135118,0.000477551
-18.2259,5.70487,-298.245,4.09238,-1.27058,-0.528319,-0.00525714,0.00177004,0.00145645,0.00205994,-0.00554704,1.37432,0.00681466,643.564,-81.1411,-49.1011,0.399053,-0.0566811,-0.00392005,0.00517734,104,583,105.869,28.2849,153.146,147.244,42.7585,106.675,0.00013062,0.000133824,0.000456883
-17.9405,5.69339,-298.246,4.09076,-1.26922,-0.526864,-0.00522205,0.00186545,0.00139973,0.00213187,-0.00548847,1.38271,0.00680948,643.673,-81.2707,-47.2305,0.362445,-0.0696213,-0.0245034,0.00511837,111,583,105.842,28.2556,154.107,147.821,43.8383,107.302,0.000124724,0.000132258,0.000436836
-17.6532,5.68162,-298.241,4.08909,-1.26773,-0.524817,-0.00518016,0.00193827,0.00134194,0.00218284,-0.00542474,1.39052,0.00678483,643.689,-81.4323,-45.3909,0.330537,-0.0801248,-0.0395713,0.0051435,118,583,105.811,28.2267,155.164,148.415,45.0091,107.95,0.000121884,0.000132767,0.000428167
-17.3614,5.67025,-298.222,4.08737,-1.26589,-0.522593,-0.00512542,0.00199194,0.00128209,0.00221585,-0.00534932,1.3979,0.00673636,643.571,-81.6131,-43.6843,0.301661,-0.0893936,-0.0517453,0.00514657,125,583,105.782,28.1907,156.444,148.996,46.3993,108.593,0.000122985,0.000132599,0.000432292
-17.0643,5.65924,-298.186,4.08563,-1.26342,-0.519704,-0.00506274,0.00203007,0.00122159,0.00223457,-0.00526724,1.40493,0.00667137,643.328,-81.7689,-41.8012,0.275015,-0.0987549,-0.0615821,0.00507108,132,583,105.752,28.1455,157.99,149.554,48.0452,109.236,0.000120978,0.000129534,0.000424376
-16.7656,5.64768,-298.146,4.08378,-1.26082,-0.516672,-0.00500519,0.00206438,0.00115923,0.00224961,-0.00519043,1.41235,0.00660892,643.102,-81.8781,-39.7932,0.252872,-0.108307,-0.0705381,0.00486396,139,583,105.721,28.0967,159.61,150.146,49.7654,109.913,0.00011629,0.000123174,0.0004072
-16.4664,5.6366,-298.103,4.08209,-1.25821,-0.512912,-0.00494084,0.00208411,0.00109894,0.00225201,-0.00510874,1.41919,0.00653267,642.877,-81.9885,-37.9458,0.235417,-0.11724,-0.0778034,0.00461565,146,583,105.689,28.0436,161.269,150.719,51.5143,110.567,0.00011204,0.000116843,0.000392578
-16.1699,5.62574,-298.068,4.08028,-1.25579,-0.509575,-0.00487018,0.00208174,0.00103674,0.00223306,-0.0050215,1.42587,0.00643547,642.746,-82.0675,-36.0518,0.225437,-0.126881,-0.0835191,0.00459845,153,583,105.656,27.9931,162.785,151.279,53.128,111.202,0.000110342,0.000117192,0.000387151
-15.8751,5.61457,-298.038,4.07827,-1.25331,-0.506667,-0.00479726,0.00206879,0.000973223,0.00220408,-0.00493254,1.43268,0.00632927,642.734,-82.2129,-34.2516,0.223742,-0.13438,-0.0880211,0.0048374,160,583,105.619,27.94,164.21,151.846,54.6593,111.847,0.000113727,0.000123589,0.000400884
-15.5799,5.60327,-298.006,4.07626,-1.25064,-0.503929,-0.00473504,0.00204771,0.000913723,0.00216864,-0.00485598,1.43921,0.00623012,642.647,-82.3523,-32.4062,0.228248,-0.141226,-0.0894952,0.00508705,167,583,105.585,27.8823,165.652,152.417,56.2074,112.501,0.000120837,0.000130158,0.000427777
-15.2828,5.59165,-297.968,4.07443,-1.24793,-0.500523,-0.00468688,0.00202231,0.000866455,0.0021324,-0.00479697,1.44441,0.00614712,642.494,-82.5047,-30.5167,0.235754,-0.14715,-0.0854185,0.00518159,174,583,105.552,27.8218,167.202,153.014,57.8511,113.179,0.000129431,0.000132992,0.000459515
-14.9849,5.57982,-297.926,4.07275,-1.24524,-0.497008,-0.00465055,0.00199133,0.000833533,0.00209434,-0.00475356,1.44784,0.00607768,642.269,-82.6963,-28.7478,0.244458,-0.152225,-0.0741446,0.00531722,181,583,105.524,27.764,168.795,153.626,59.5322,113.871,0.000137047,0.000134328,0.000486794
-14.6872,5.56806,-297.885,4.071,-1.24256,-0.493195,-0.00461864,0.00195643,0.000811067,0.002055,-0.00471721,1.44986,0.00601407,642.025,-82.9174,-27.0881,0.257019,-0.155654,-0.0586333,0.00540694,188,583,105.492,27.7124,170.383,154.229,61.206,114.56,0.000141199,0.000134633,0.000500561
-14.39,5.55646,-297.845,4.06924,-1.23998,-0.488943,-0.0045954,0.00192076,0.000794519,0.00201623,-0.00469088,1.4512,0.00596049,641.83,-83.0849,-25.5835,0.270683,-0.156355,-0.0420967,0.00533102,195,583,105.457,27.6673,171.947,154.822,62.8524,115.239,0.000139235,0.000134775,0.000493029
-14.0946,5.54486,-297.809,4.06743,-1.23731,-0.484205,-0.00458207,0.00188712,0.000781903,0.00198028,-0.00467524,1.45221,0.00591926,641.645,-83.1884,-24.0079,0.280992,-0.154187,-0.0253582,0.00525111,202,583,105.415,27.6154,173.424,155.411,64.4105,115.913,0.000136643,0.000134467,0.00048241
-13.799,5.53319,-297.773,4.06546,-1.23464,-0.479066,-0.00457097,0.00185657,0.000771473,0.00194787,-0.00466227,1.453,0.00588324,641.586,-83.3302,-21.9135,0.288617,-0.149178,-0.00914914,0.00513855,209,583,105.367,27.5615,174.914,156.007,65.9823,116.591,0.000133757,0.000131616,0.000470008
-13.5019,5.52172,-297.731,4.06346,-1.23176,-0.474385,-0.00457399,0.00182956,0.000761104,0.00191878,-0.0046632,1.45411,0.00586301,641.469,-83.5131,-19.925,0.297777,-0.143472,0.00581302,0.00509951,216,583,105.324,27.5011,176.474,156.594,67.6258,117.265,0.000132703,0.000127668,0.000463822
-13.2019,5.51089,-297.68,4.0612,-1.2286,-0.470611,-0.0045998,0.00180534,0.000750359,0.00189207,-0.00468653,1.45572,0.00586607,641.273,-83.5893,-18.2859,0.312215,-0.137043,0.0172111,0.00494288,223,583,105.285,27.4332,178.177,157.153,69.4229,117.918,0.000127058,0.000122871,0.000441741
-12.9005,5.49985,-297.624,4.05905,-1.22521,-0.466335,-0.00463929,0.00178407,0.000736587,0.00186746,-0.00472268,1.45807,0.00588307,641.024,-83.5379,-16.718,0.329867,-0.13074,0.0226863,0.00463181,230,583,105.246,27.3619,179.957,157.721,71.2888,118.586,0.000119172,0.000116247,0.000414283
-12.5987,5.48889,-297.565,4.05702,-1.22177,-0.46177,-0.0046689,0.00176363,0.000715446,0.00184225,-0.00474751,1.46136,0.00588888,640.707,-83.3744,-15.4128,0.340765,-0.124946,0.0190497,0.00444267,237,583,105.209,27.2892,181.768,158.286,73.1782,119.253,0.000114482,0.000113936,0.000396227
-12.2999,5.47799,-297.516,4.05505,-1.21859,-0.457269,-0.00468079,0.00174325,0.000687845,0.00181608,-0.00475362,1.46532,0.00587605,640.494,-83.2839,-13.9491,0.342228,-0.121687,0.00694249,0.00437256,244,583,105.172,27.2214,183.429,158.845,74.9175,119.907,0.000112815,0.000114325,0.000389455
-12.0044,5.46623,-297.476,4.05304,-1.21587,-0.452996,-0.00468839,0.00172243,0.000654412,0.00178855,-0.00475451,1.4701,0.0058573,640.348,-83.3362,-12.1896,0.339988,-0.122318,-0.0102164,0.00435155,251,583,105.133,27.1622,184.917,159.453,76.4892,120.595,0.000110595,0.000114578,0.000380907
-11.7107,5.4545,-297.442,4.05112,-1.21321,-0.448773,-0.00469859,0.00170319,0.000614999,0.00176173,-0.00475713,1.47589,0.00584079,640.201,-83.5468,-10.4543,0.336867,-0.126064,-0.028985,0.00432951,258,583,105.095,27.107,186.31,160.052,77.9651,121.275,0.000108655,0.000115226,0.000373129
-11.4167,5.44301,-297.406,4.04913,-1.21039,-0.444612,-0.00470599,0.00168441,0.00056882,0.00173465,-0.00475623,1.48271,0.00582075,640.106,-83.7404,-8.74668,0.336402,-0.132093,-0.0477856,0.00432657,265,583,105.057,27.0482,187.725,160.634,79.4629,121.944,0.000109799,0.000117038,0.000375469
-11.119,5.43138,-297.357,4.04691,-1.2072,-0.440282,-0.00469976,0.00166422,0.000511417,0.00170505,-0.0047406,1.49112,0.00578476,639.948,-83.8878,-6.95172,0.33721,-0.139149,-0.0660609,0.0042696,272,583,105.017,26.9839,189.331,161.228,81.1526,122.635,0.000111628,0.000116635,0.000380899
-10.817,5.42029,-297.295,4.04444,-1.20354,-0.435681,-0.00467889,0.00164441,0.000444159,0.00167546,-0.00470993,1.50101,0.00573428,639.681,-84.0005,-5.01052,0.333496,-0.14646,-0.0817595,0.00420012,279,583,104.972,26.9083,191.157,161.798,83.0625,123.315,0.000113794,0.000112283,0.000388904
-10.513,5.4095,-297.225,4.04179,-1.19958,-0.430854,-0.00466821,0.00162741,0.000377659,0.00164999,-0.00469078,1.51109,0.00569786,639.282,-84.0484,-3.45421,0.320792,-0.152778,-0.0896282,0.004308,286,583,104.924,26.8237,193.094,162.355,85.085,123.987,0.000115194,0.000111937,0.000395438
-10.2093,5.3987,-297.155,4.03933,-1.19569,-0.425417,-0.0046777,0.00161011,0.000325641,0.00162693,-0.00469452,1.51919,0.00568534,638.785,-84.1646,-2.13507,0.301752,-0.158618,-0.0854682,0.00433898,293,583,104.876,26.737,195.031,162.92,87.0959,124.661,0.000115736,0.000111785,0.000398922
-9.90751,5.38751,-297.091,4.037,-1.19176,-0.419646,-0.00468861,0.00159986,0.000284581,0.00161272,-0.00470146,1.52566,0.00568214,638.469,-84.2631,-0.582337,0.288346,-0.163788,-0.071541,0.00461812,300,583,104.828,26.6524,196.874,163.494,89.0076,125.348,0.000123398,0.00011568,0.000425962
-9.60688,5.37635,-297.029,4.0346,-1.18798,-0.414225,-0.00467546,0.00159289,0.000241671,0.00160219,-0.00468476,1.53232,0.00565861,638.265,-84.3269,0.974536,0.284337,-0.168424,-0.0530723,0.00500876,307,583,104.78,26.572,198.658,164.065,90.8647,126.03,0.00013311,0.000122942,0.000459045
-9.30617,5.36524,-296.967,4.0321,-1.18418,-0.408796,-0.00462555,0.00159161,0.000187501,0.00159726,-0.0046312,1.54067,0.00560325,638.058,-84.3443,2.5371,0.286228,-0.171949,-0.0351271,0.00528407,314,583,104.73,26.4923,200.449,164.635,92.7302,126.712,0.000140076,0.000127897,0.000483021
-9.00506,5.35403,-296.903,4.02956,-1.18048,-0.403142,-0.0045746,0.00159848,0.000127484,0.00160111,-0.00457723,1.55016,0.00555367,637.847,-84.4376,4.19939,0.292085,-0.173171,-0.0189083,0.00517687,321,583,104.678,26.4137,202.266,165.217,94.62,127.4,0.000137557,0.000128949,0.000475067
-8.70347,5.34328,-296.836,4.02697,-1.17683,-0.397393,-0.00455435,0.00161136,6.92408e-05,0.00161213,-0.00455513,1.55957,0.00554001,637.585,-84.5557,5.9582,0.299858,-0.171786,-0.00403004,0.00497119,328,583,104.626,26.3315,204.115,165.785,96.5407,128.068,0.000132552,0.000126061,0.000458225
-8.40336,5.33222,-296.773,4.02456,-1.17322,-0.391497,-0.0045415,0.00162427,1.27042e-05,0.0016243,-0.00454153,1.56874,0.0055354,637.28,-84.6595,7.48789,0.31235,-0.16825,0.00775923,0.00487244,335,583,104.577,26.248,205.894,166.367,98.3868,128.748,0.000130188,0.000120959,0.000450114
-8.10475,5.32091,-296.715,4.02176,-1.16955,-0.386979,-0.00450894,0.00163468,-4.37768e-05,0.001635,-0.00450925,-1.56367,0.00551173,636.946,-84.6536,8.83466,0.334331,-0.162836,0.0151759,0.00520977,342,583,104.526,26.165,207.577,166.951,100.157,129.435,0.000139629,0.000127133,0.000482266
-7.80532,5.30956,-296.653,4.0188,-1.16568,-0.382402,-0.00445085,0.00164579,-9.9397e-05,0.00164741,-0.00445247,-1.5545,0.00546566,636.638,-84.6208,10.3898,0.359418,-0.157822,0.0173943,0.00562814,349,583,104.473,26.084,209.304,167.53,101.975,130.129,0.00015182,0.000137578,0.000524462
-7.50479,5.2981,-296.587,4.01577,-1.16175,-0.377232,-0.00437841,0.00165481,-0.000152529,0.00165866,-0.00438227,-1.54554,0.00540593,636.466,-84.6556,12.5118,0.379154,-0.152625,0.0140394,0.00575215,356,583,104.415,25.9993,211.1,168.121,103.856,130.835,0.000155413,0.000147021,0.00053785
-7.20074,5.28735,-296.508,4.01291,-1.1576,-0.370267,-0.00428929,0.00165795,-0.000195082,0.00166434,-0.00429568,-1.53804,0.00532657,636.156,-84.7318,14.3607,0.385383,-0.14816,0.009774,0.00539347,363,583,104.352,25.9082,213.113,168.69,105.931,131.518,0.00014251,0.000141761,0.000493787
-6.89181,5.27729,-296.412,4.00994,-1.15296,-0.361921,-0.00420483,0.00165804,-0.00022902,0.00166698,-0.00421376,-1.53181,0.00524965,635.764,-84.8702,16.1267,0.381368,-0.145147,0.00796655,0.00491734,370,583,104.283,25.7999,215.408,169.238,108.276,132.185,0.000126067,0.000127597,0.000436472
-6.5726,5.26681,-296.281,4.00552,-1.14721,-0.355062,-0.00413547,0.00165596,-0.000251915,0.0016669,-0.00414641,-1.52741,0.00518487,635.258,-84.9543,17.7625,0.377245,-0.143475,0.0101273,0.00467912,377,583,104.199,25.6696,218.224,169.818,111.182,132.918,0.00011815,0.00011993,0.000408638
-6.25182,5.25577,-296.143,4.00056,-1.14069,-0.349199,-0.00408234,0.00165073,-0.000263831,0.00166284,-0.00409446,-1.52491,0.00513206,634.7,-84.9752,19.4761,0.379374,-0.143373,0.0145852,0.00484112,384,583,104.11,25.5299,221.116,170.402,114.182,133.688,0.000120873,0.000122313,0.000418266
-5.93341,5.24456,-296.012,3.99631,-1.13461,-0.342694,-0.0040354,0.00164471,-0.000268201,0.00165734,-0.00404804,-1.52372,0.00508354,634.086,-84.9459,20.9344,0.383264,-0.145125,0.0206526,0.0050661,391,583,104.033,25.3943,223.915,171.007,117.068,134.46,0.000124127,0.000128854,0.000429257
0,0,0,0,0,0,0,0,0,0,0,0,0,0,0,0,0,0,0,-1,398,583,0,0,0,0,0,0,0,0,0
-5.33717,5.22248,-295.884,3.99237,-1.12676,-0.328694,-0.00398721,0.00164155,-0.000261293,0.00165365,-0.00399932,-1.52451,0.00503414,633.525,-85.1494,23.5343,0.372367,-0.153553,0.0353905,0.00478356,405,583,103.947,25.2088,227.436,172.166,120.661,135.825,0.000116509,0.00012341,0.000401982
-5.05653,5.21154,-295.878,3.9917,-1.12432,-0.322534,-0.00402392,0.00164362,-0.000233567,0.00165323,-0.00403353,-1.52968,0.00506664,633.548,-85.2761,24.7298,0.369176,-0.160093,0.0419723,0.00463157,412,583,103.925,25.1512,228.263,172.704,121.51,136.432,0.000111978,0.000119214,0.000386339
-4.77868,5.20044,-295.881,3.99086,-1.12225,-0.316679,-0.00410434,0.0016467,-0.000189823,0.00165296,-0.0041106,-1.53784,0.00514042,633.579,-85.4263,25.9579,0.376313,-0.168117,0.0453597,0.00442237,419,583,103.9,25.1056,228.927,173.246,122.205,137.036,0.000108723,0.00011271,0.000375115
-4.4997,5.18911,-295.879,3.98949,-1.1202,-0.311004,-0.00417435,0.00164876,-0.00014368,0.0016523,-0.0041779,-1.54614,0.00520462,633.563,-85.5625,27.2969,0.385921,-0.176157,0.0436125,0.00427978,426,583,103.864,25.0625,229.638,173.805,122.961,137.658,0.000107192,0.000107892,0.000370072
-4.21615,5.17787,-295.862,3.98771,-1.11763,-0.30474,-0.00421167,0.00165372,-0.000104966,0.0016556,-0.00421355,-1.55291,0.00524127,633.562,-85.6276,28.6945,0.397552,-0.183243,0.036047,0.0041938,433,583,103.819,25.0078,230.601,174.366,123.97,138.294,0.000106924,0.000106327,0.000369638
-3.92839,5.16666,-295.83,3.98558,-1.11462,-0.29829,-0.00425673,0.00166385,-7.14217e-05,0.00166471,-0.00425759,-1.55874,0.00529018,633.546,-85.6915,30.1458,0.411881,-0.187573,0.0228283,0.00413355,440,583,103.768,24.9435,231.794,174.932,125.212,138.948,0.000106983,0.000105382,0.000369936
-3.63732,5.15542,-295.785,3.98329,-1.11112,-0.291563,-0.00433584,0.001677,-3.88416e-05,0.00167725,-0.00433609,-1.56434,0.00537472,633.487,-85.7071,31.5118,0.425959,-0.188654,0.00622967,0.00418728,447,583,103.716,24.8674,233.175,175.502,126.641,139.617,0.000109771,0.000104542,0.000380045
-3.34384,5.14448,-295.732,3.98085,-1.10731,-0.284643,-0.00442909,0.00168754,-7.18471e-06,0.00168755,-0.0044291,-1.56962,0.00547166,633.336,-85.7853,33.0523,0.43437,-0.184406,-0.0113933,0.00430112,454,583,103.661,24.7833,234.697,176.06,128.209,140.282,0.000113554,0.000106333,0.000392992
-3.04884,5.13362,-295.672,3.97814,-1.10324,-0.278037,-0.0044974,0.00169489,2.30844e-05,0.00169498,-0.00449748,1.56707,0.00554287,633.089,-85.959,34.7309,0.434608,-0.177063,-0.0268554,0.00445989,461,583,103.604,24.6915,236.3,176.616,129.866,140.95,0.000118171,0.000110627,0.000408443
-2.75238,5.12294,-295.607,3.97529,-1.0989,-0.271379,-0.00453482,0.00170294,4.95049e-05,0.00170333,-0.00453521,1.56286,0.0055852,632.87,-86.248,36.5639,0.432361,-0.168256,-0.0393385,0.00468537,468,583,103.545,24.5933,237.99,177.162,131.61,141.616,0.000123647,0.000115499,0.000426908
-2.45556,5.11217,-295.539,3.97237,-1.09432,-0.264871,-0.00452957,0.00170923,7.3433e-05,0.00171009,-0.00453044,1.55903,0.0055854,632.61,-86.4868,38.3649,0.426606,-0.158743,-0.0494834,0.00491093,475,583,103.486,24.4914,239.706,177.707,133.382,142.291,0.000129601,0.000118892,0.000446789
-2.15951,5.10143,-295.474,3.9696,-1.0899,-0.258235,-0.00449835,0.0017147,9.32208e-05,0.00171609,-0.00449975,1.5558,0.0055601,632.301,-86.5949,40.0389,0.416134,-0.151348,-0.0562159,0.00500368,482,583,103.43,24.3932,241.39,178.253,135.116,142.961,0.00013223,0.000118315,0.000454903
-1.86526,5.09042,-295.414,3.96703,-1.08574,-0.251564,-0.00445255,0.00172125,0.000107602,0.00172312,-0.00445442,1.55337,0.00552146,632.115,-86.7112,41.7187,0.406111,-0.147546,-0.0570075,0.00498897,489,583,103.377,24.2992,242.983,178.817,136.755,143.639,0.000132512,0.000116449,0.000454428
-1.57213,5.07938,-295.357,3.9644,-1.08176,-0.244566,-0.00439048,0.00172903,0.000118009,0.00173131,-0.00439276,1.55152,0.00546799,631.927,-86.8022,43.5563,0.406483,-0.147306,-0.0522747,0.00494423,496,583,103.321,24.2118,244.52,179.381,138.335,144.314,0.000131492,0.000116692,0.000450621
-1.27908,5.0685,-295.299,3.96164,-1.07765,-0.237546,-0.00431711,0.00173786,0.000127217,0.00174053,-0.00431978,1.5498,0.00540451,631.744,-86.9559,44.99,0.417177,-0.150574,-0.0433918,0.00489005,503,583,103.261,24.1199,246.056,179.935,139.918,144.983,0.00012917,0.000120772,0.000442658
-0.98396,5.05757,-295.233,3.95847,-1.0732,-0.230403,-0.00424725,0.00174884,0.000136295,0.00175193,-0.00425035,1.54808,0.00534612,631.52,-87.1288,46.2364,0.429905,-0.156782,-0.0317388,0.00500921,510,583,103.193,24.0214,247.71,180.493,141.625,145.665,0.000130591,0.000126313,0.000447426
-0.687316,5.04677,-295.161,3.9552,-1.06853,-0.223425,-0.00417784,0.00176142,0.00014652,0.00176503,-0.00418145,1.54615,0.00528964,631.284,-87.1948,47.6503,0.436991,-0.166062,-0.0205957,0.00519151,517,583,103.125,23.9172,249.456,181.046,143.426,146.347,0.000134165,0.000130618,0.000459537
-0.390544,5.03603,-295.088,3.95208,-1.06389,-0.216132,-0.00410953,0.00177721,0.000158389,0.00178146,-0.00411378,1.54392,0.00523693,631.068,-87.2754,48.7385,0.442632,-0.176927,-0.0126991,0.00532973,524,583,103.061,23.8145,251.226,181.598,145.242,147.029,0.000139557,0.000133244,0.000476039
-0.0950849,5.02522,-295.018,3.9493,-1.05936,-0.208839,-0.00404382,0.00179535,0.000171189,0.00180037,-0.00404883,1.54151,0.00518881,630.937,-87.406,49.8956,0.461837,-0.191859,-0.0055152,0.00537208,531,583,103.004,23.7153,252.937,182.153,146.99,147.709,0.000141456,0.000134499,0.000481411
0.1988,5.01465,-294.953,3.94676,-1.05492,-0.201499,-0.00399843,0.00181367,0.000188679,0.00181979,-0.00400454,1.53838,0.00516095,630.82,-87.5848,50.8053,0.481508,-0.208414,-0.00108032,0.00545099,538,583,102.951,23.6173,254.572,182.691,148.655,148.372,0.000145167,0.000135359,0.00049246
0.491692,5.00388,-294.891,3.94425,-1.05046,-0.194421,-0.00397312,0.00183209,0.00020903,0.00183961,-0.00398063,1.53485,0.00515291,630.698,-87.7312,51.8795,0.493133,-0.224667,0.00150107,0.00556441,545,583,102.901,23.5173,256.154,183.237,150.27,149.042,0.000148573,0.000135574,0.000504853
0.784294,4.99286,-294.829,3.94165,-1.04579,-0.187348,-0.00397236,0.00185036,0.00023168,0.00185957,-0.00398157,1.53109,0.00516864,630.655,-87.782,53.4357,0.494279,-0.237516,0.000876855,0.0056523,552,583,102.849,23.4063,257.725,183.795,151.874,149.725,0.000150368,0.000136558,0.000510501
1.07738,4.98185,-294.764,3.93889,-1.0411,-0.180056,-0.00401929,0.00186826,0.000258687,0.0018796,-0.00403064,1.52697,0.00523019,630.508,-87.7171,55.1661,0.483007,-0.245159,-0.00366892,0.00577542,559,583,102.792,23.2966,259.33,184.355,153.514,150.411,0.000154303,0.000139299,0.000523088
1.37091,4.97076,-294.697,3.93567,-1.03618,-0.173213,-0.00414414,0.00188393,0.000296629,0.00189849,-0.00415871,1.52175,0.00536604,630.149,-87.6793,56.7236,0.451623,-0.247411,-0.0112206,0.00594296,566,583,102.728,23.1831,260.954,184.913,155.186,151.105,0.000158388,0.000143557,0.000536544
1.66467,4.95976,-294.628,3.93259,-1.03115,-0.165219,-0.00433464,0.0018969,0.000351891,0.0019167,-0.00435445,1.51457,0.00556607,629.659,-87.8425,58.032,0.39301,-0.240976,-0.0236691,0.00619593,573,583,102.66,23.0694,262.615,185.466,156.881,151.797,0.000164453,0.000149584,0.00055599
0,0,0,0,0,0,0,0,0,0,0,0,0,0,0,0,0,0,0,-1,580,583,0,0,0,0,0,0,0,0,0
0,0,0,0,0,0,0,0,0,0,0,0,0,0,0,0,0,0,0,-1,587,583,0,0,0,0,0,0,0,0,0
0,0,0,0,0,0,0,0,0,0,0,0,0,0,0,0,0,0,0,-1,594,583,0,0,0,0,0,0,0,0,0
0,0,0,0,0,0,0,0,0,0,0,0,0,0,0,0,0,0,0,-1,601,583,0,0,0,0,0,0,0,0,0
0,0,0,0,0,0,0,0,0,0,0,0,0,0,0,0,0,0,0,-1,62,590,0,0,0,0,0,0,0,0,0
0,0,0,0,0,0,0,0,0,0,0,0,0,0,0,0,0,0,0,-1,69,590,0,0,0,0,0,0,0,0,0
0,0,0,0,0,0,0,0,0,0,0,0,0,0,0,0,0,0,0,-1,76,590,0,0,0,0,0,0,0,0,0
-19.0723,5.4678,-298.176,4.0975,-1.27338,-0.525777,-0.00510339,0.000951712,0.0016907,0.0013918,-0.00554348,1.31615,0.00635474,642.626,-80.6104,-53.6553,0.501397,-0.0177599,0.136174,0.00522322,83,590,105.925,28.3483,150.685,146.416,39.8607,105.757,0.000134211,0.000129397,0.000479139
-18.7943,5.4557,-298.2,4.09595,-1.2727,-0.524305,-0.00518418,0.00122636,0.0015979,0.00160258,-0.0055604,1.33956,0.00651132,642.793,-80.8239,-52.0928,0.48017,-0.0351757,0.0876323,0.00530641,90,590,105.891,28.3373,151.297,147.013,40.5963,106.388,0.000139571,0.000133667,0.0004961
-18.5148,5.44449,-298.219,4.09425,-1.27174,-0.523016,-0.00519791,0.00144109,0.0015122,0.00176931,-0.00552613,1.35707,0.00659136,643.008,-80.9983,-50.4544,0.442422,-0.052029,0.0478543,0.00534868,97,590,105.857,28.3185,151.976,147.563,41.4022,106.979,0.000139803,0.000137381,0.000494424
-18.2297,5.43306,-298.22,4.09252,-1.2704,-0.521539,-0.00517092,0.00160797,0.00142878,0.00189681,-0.00545976,1.37133,0.00661536,643.211,-81.0704,-48.4606,0.400085,-0.0670057,0.0148535,0.00532369,104,590,105.827,28.2916,152.928,148.134,42.4761,107.601,0.000132332,0.000137006,0.000467236
-17.9436,5.42154,-298.219,4.09087,-1.26893,-0.52005,-0.00513316,0.00173703,0.00135061,0.00199301,-0.00538914,1.38349,0.00661479,643.342,-81.1334,-46.3747,0.360116,-0.0786469,-0.0104257,0.00532368,111,590,105.799,28.2597,153.926,148.712,43.5924,108.231,0.00012604,0.00013697,0.000445523
-17.6551,5.40986,-298.21,4.08917,-1.26735,-0.518166,-0.00508652,0.00183636,0.00127657,0.00206425,-0.00531442,1.39414,0.00659352,643.414,-81.2412,-44.2564,0.324453,-0.0874748,-0.0290188,0.00536149,118,590,105.77,28.2284,155.044,149.303,44.825,108.878,0.000124442,0.000137811,0.000439674
-17.3613,5.39867,-298.185,4.08735,-1.26542,-0.516102,-0.00502655,0.00191145,0.00120504,0.00211479,-0.00522989,1.40363,0.0065486,643.267,-81.3618,-42.4654,0.291978,-0.0949546,-0.0435177,0.00529679,125,590,105.742,28.1908,156.417,149.878,46.3104,109.519,0.000124363,0.000136082,0.000439049
-17.0637,5.38754,-298.149,4.08562,-1.26294,-0.513162,-0.00495853,0.00196692,0.00113694,0.00214879,-0.0051404,1.41217,0.00648743,643.005,-81.4945,-40.6505,0.262372,-0.102854,-0.0548934,0.00512441,132,590,105.713,28.1468,157.989,150.445,47.9818,110.169,0.000121137,0.00013056,0.000426856
-16.7641,5.3761,-298.105,4.08376,-1.26029,-0.509873,-0.00489792,0.00201898,0.0010683,0.00218021,-0.00505916,1.421,0.00643261,642.693,-81.5922,-38.8939,0.239837,-0.1114,-0.0653715,0.00482729,139,590,105.681,28.0963,159.662,151.034,49.7523,110.844,0.000115095,0.000122025,0.000405425
-16.4649,5.36537,-298.062,4.08209,-1.25767,-0.505983,-0.00483188,0.00205231,0.00100687,0.00219656,-0.00497612,1.42851,0.0063653,642.445,-81.7238,-37.2288,0.222646,-0.119811,-0.0733785,0.0045991,146,590,105.648,28.044,161.324,151.59,51.5029,111.482,0.000110984,0.000116457,0.000390486
-16.1686,5.35469,-298.028,4.08036,-1.2552,-0.502537,-0.00476252,0.00205878,0.0009466,0.00218771,-0.00489144,1.43543,0.006278,642.304,-81.9302,-35.4002,0.212607,-0.129825,-0.0791531,0.00462126,153,590,105.616,27.995,162.836,152.136,53.1081,112.107,0.000109142,0.000117786,0.000383592
-15.8746,5.34372,-298,4.07854,-1.25271,-0.499637,-0.00469268,0.00205469,0.000887154,0.00216939,-0.00480737,1.44223,0.00618435,642.287,-82.1073,-33.8536,0.211047,-0.137784,-0.0831881,0.00486372,160,590,105.584,27.9433,164.229,152.689,54.6027,112.739,0.000112506,0.00012432,0.000396587
-15.5808,5.33249,-297.972,4.07679,-1.25016,-0.496875,-0.00463751,0.00204079,0.000832459,0.00214299,-0.00473972,1.44864,0.00610037,642.248,-82.2364,-32.2273,0.216736,-0.145953,-0.0835634,0.00513584,167,590,105.554,27.8886,165.614,153.255,56.0875,113.385,0.000120191,0.000131355,0.000425445
-15.285,5.32104,-297.937,4.07513,-1.24757,-0.493426,-0.00460132,0.00202183,0.000790915,0.00211497,-0.00469446,1.45358,0.00603653,642.146,-82.3525,-30.4231,0.225992,-0.153428,-0.0781009,0.00528934,174,590,105.525,27.8303,167.102,153.844,57.6646,114.05,0.000131192,0.000135617,0.000464672
-14.988,5.30936,-297.899,4.0735,-1.24502,-0.489873,-0.00458087,0.0019962,0.000763808,0.00208374,-0.00466841,1.45669,0.00598863,641.968,-82.5314,-28.4835,0.23674,-0.159826,-0.0652284,0.00544943,181,590,105.497,27.7748,168.655,154.449,59.3047,114.732,0.000141007,0.000139317,0.000499907
-14.6904,5.29762,-297.857,4.07183,-1.24238,-0.485926,-0.00456422,0.00196521,0.000745468,0.00204924,-0.00464825,1.45855,0.00594398,641.717,-82.7454,-26.735,0.251517,-0.16384,-0.0486115,0.00556088,188,590,105.466,27.7218,170.243,155.056,60.9759,115.421,0.000146368,0.000139939,0.000518178
-14.3935,5.28573,-297.818,4.07015,-1.23977,-0.481649,-0.00455179,0.00193223,0.000731103,0.00201364,-0.0046332,1.4599,0.00590346,641.54,-82.9275,-24.9489,0.266336,-0.164552,-0.0316018,0.00551348,195,590,105.432,27.6742,171.796,155.666,62.6087,116.114,0.000144858,0.000139914,0.000513656
-14.0979,5.27392,-297.782,4.06835,-1.23704,-0.476928,-0.00454443,0.00190027,0.000718776,0.00197946,-0.00462362,1.46106,0.00586928,641.342,-83.0429,-23.2542,0.27704,-0.162016,-0.0150774,0.00555914,202,590,105.391,27.622,173.284,156.264,64.1772,116.8,0.000144593,0.000141677,0.000512205
-13.8032,5.26227,-297.748,4.06649,-1.23433,-0.471762,-0.00453557,0.00187044,0.000707879,0.00194773,-0.00461286,1.46204,0.00583581,641.254,-83.1885,-21.1735,0.284393,-0.15664,0.000524451,0.00548227,209,590,105.345,27.5701,174.731,156.853,65.7027,117.475,0.000141936,0.00013963,0.000502014
-13.5075,5.2511,-297.711,4.06445,-1.2316,-0.467295,-0.00453782,0.00184313,0.000697644,0.00191852,-0.0046132,1.46316,0.00581488,641.108,-83.415,-19.1807,0.293282,-0.150724,0.014551,0.0053567,216,590,105.302,27.5129,176.223,157.425,67.2819,118.129,0.000139928,0.000136871,0.000493501
-13.2088,5.24061,-297.664,4.0622,-1.22872,-0.463512,-0.00455901,0.00181799,0.000687744,0.00189132,-0.00463234,1.46458,0.00581351,640.897,-83.5339,-17.5783,0.308916,-0.144265,0.0247879,0.00520292,223,590,105.261,27.4494,177.856,157.972,69.0106,118.76,0.000132989,0.000132078,0.00046617
-12.9079,5.22992,-297.609,4.06005,-1.22547,-0.459204,-0.00459088,0.00179679,0.000674721,0.00186728,-0.00466137,1.4667,0.00582402,640.595,-83.4854,-16.3133,0.32952,-0.138333,0.0291538,0.00486404,230,590,105.222,27.3788,179.613,158.528,70.8531,119.41,0.000124325,0.000124481,0.000434412
-12.6064,5.21911,-297.552,4.05795,-1.22201,-0.454667,-0.00461047,0.00177754,0.000653945,0.0018438,-0.00467673,1.46982,0.00582188,640.298,-83.3039,-15.1534,0.344026,-0.133257,0.0249763,0.0046125,237,590,105.183,27.305,181.41,159.086,72.7303,120.07,0.000117592,0.000119613,0.000407882
-12.3068,5.20833,-297.5,4.05599,-1.2186,-0.450015,-0.00461062,0.00175916,0.000626509,0.0018202,-0.00467166,1.47368,0.00580007,640.082,-83.1521,-13.7533,0.347848,-0.131225,0.0131092,0.00453485,244,590,105.146,27.2354,183.112,159.634,74.509,120.722,0.000115257,0.000117569,0.000398418
-12.0099,5.19643,-297.456,4.05393,-1.21555,-0.44571,-0.00460609,0.00174109,0.000592986,0.00179601,-0.00466101,1.47844,0.00577252,639.916,-83.2262,-12.0422,0.346966,-0.133262,-0.00377838,0.00441618,251,590,105.107,27.1711,184.672,160.244,76.1517,121.423,0.000112384,0.000116085,0.000387185
-11.7149,5.18452,-297.417,4.05195,-1.21269,-0.441416,-0.00460468,0.0017249,0.000553558,0.00177295,-0.00465272,1.48422,0.00574806,639.72,-83.4463,-10.2229,0.345308,-0.13819,-0.022415,0.00433404,258,590,105.069,27.1123,186.141,160.852,77.702,122.118,0.00010992,0.000115871,0.000376769
-11.4198,5.17294,-297.377,4.04992,-1.20981,-0.437224,-0.00460074,0.00170966,0.000508177,0.00175032,-0.0046414,1.49095,0.00572103,639.585,-83.6748,-8.55628,0.346244,-0.144831,-0.0411398,0.00436138,265,590,105.031,27.0535,187.61,161.443,79.2545,122.797,0.000111923,0.000118376,0.000381886
-11.1222,5.16124,-297.329,4.04765,-1.20667,-0.433063,-0.00458371,0.0016932,0.000452024,0.00172559,-0.00461609,1.49927,0.00567904,639.517,-83.8262,-6.43063,0.346996,-0.151702,-0.0593947,0.00444645,272,590,104.99,26.9906,189.205,162.042,80.9361,123.493,0.000116352,0.000122717,0.00039625
-10.8211,5.15008,-297.269,4.04513,-1.20314,-0.428621,-0.00455464,0.00167669,0.000386039,0.00170052,-0.00457847,1.50916,0.00562494,639.406,-83.915,-4.08542,0.341421,-0.158934,-0.0750282,0.00454527,279,590,104.945,26.9168,190.989,162.619,82.8075,124.175,0.000123044,0.000123039,0.000419632
-10.5181,5.1396,-297.202,4.04258,-1.19932,-0.423661,-0.00454411,0.00166284,0.00032246,0.00167955,-0.00456081,1.51903,0.00559303,639.175,-84.0203,-2.19181,0.324803,-0.164895,-0.0826624,0.00471092,286,590,104.897,26.8348,192.879,163.164,84.7788,124.83,0.000126147,0.000124686,0.000431674
-10.2152,5.12904,-297.136,4.04029,-1.19545,-0.417934,-0.00456348,0.00165052,0.000272479,0.00166244,-0.00457541,1.52706,0.00559503,638.765,-84.0927,-0.727892,0.300535,-0.169699,-0.0780881,0.00457144,293,590,104.851,26.7499,194.777,163.715,86.7447,125.489,0.000122268,0.000119498,0.000420185
-9.91316,5.1182,-297.07,4.03803,-1.19153,-0.411907,-0.00458824,0.00164414,0.000231494,0.00165272,-0.00459682,1.53372,0.00560888,638.245,-84.1557,0.215054,0.282258,-0.172999,-0.0639358,0.00469038,300,590,104.803,26.6659,196.644,164.275,88.6753,126.162,0.00012466,0.000117536,0.000429537
-9.61198,5.10723,-297.007,4.0356,-1.18767,-0.406719,-0.00458538,0.00164217,0.000185182,0.00164767,-0.00459088,1.5411,0.00559957,637.911,-84.1732,1.51452,0.273508,-0.174686,-0.0455697,0.00500586,307,590,104.757,26.5856,198.456,164.837,90.5629,126.838,0.000132167,0.000122981,0.000455644
-9.31077,5.09614,-296.943,4.03315,-1.18377,-0.401264,-0.00453768,0.00164521,0.000124092,0.0016477,-0.00454017,1.55074,0.00555057,637.676,-84.1973,3.05787,0.271349,-0.175016,-0.0287243,0.0052792,314,590,104.708,26.505,200.277,165.406,92.4557,127.522,0.000139128,0.000129018,0.000479922
-9.00967,5.08503,-296.879,4.03071,-1.18012,-0.395643,-0.00448496,0.00165464,5.72415e-05,0.00165518,-0.0044855,1.56147,0.00550305,637.502,-84.3016,4.81829,0.27414,-0.173912,-0.014034,0.00526121,321,590,104.66,26.4251,202.098,165.989,94.3466,128.208,0.000139151,0.000131619,0.000480822
-8.70912,5.07414,-296.815,4.02829,-1.17655,-0.389576,-0.00446261,0.00166867,-7.10329e-06,0.00166868,-0.00446261,-1.56964,0.00549054,637.273,-84.4554,6.48928,0.280459,-0.171277,-0.000451027,0.00505906,328,590,104.609,26.3437,203.898,166.566,96.2134,128.882,0.000134844,0.000127149,0.00046631
-8.41063,5.06315,-296.758,4.02603,-1.17317,-0.38357,-0.00444744,0.00168157,-6.94317e-05,0.00168236,-0.00444822,-1.55947,0.0054864,636.936,-84.5836,7.83446,0.294166,-0.167608,0.0106814,0.00502371,335,590,104.561,26.2642,205.597,167.148,97.9751,129.553,0.000134044,0.000122579,0.000463532
-8.11313,5.05202,-296.703,4.02301,-1.16944,-0.379994,-0.00441278,0.00169075,-0.00013151,0.00169358,-0.00441561,-1.54926,0.00546297,636.549,-84.5623,8.9618,0.319941,-0.163034,0.017803,0.00572925,342,590,104.511,26.1863,207.208,167.711,99.6881,130.229,0.000153357,0.0001381,0.000529162
-7.81375,5.04086,-296.641,4.01972,-1.16536,-0.376247,-0.00435181,0.00169873,-0.000190974,0.00170475,-0.00435784,-1.53928,0.00541534,636.194,-84.5116,10.3467,0.35086,-0.159853,0.0201555,0.00642728,349,590,104.455,26.1063,208.92,168.269,101.504,130.915,0.000173705,0.000155592,0.000599279
-7.51295,5.02965,-296.574,4.01649,-1.16123,-0.371781,-0.00427411,0.00170299,-0.000244979,0.00171301,-0.00428414,-1.5299,0.00535042,636.053,-84.5107,12.4825,0.37623,-0.157568,0.0179984,0.00657525,356,590,104.397,26.0201,210.721,168.842,103.401,131.61,0.00017868,0.000168072,0.000617482
-7.20741,5.01913,-296.49,4.0138,-1.15716,-0.363903,-0.00418265,0.00170107,-0.000286154,0.00171495,-0.00419653,-1.52231,0.00526771,635.738,-84.6157,14.2456,0.38685,-0.156549,0.0153695,0.00587094,363,590,104.334,25.9267,212.828,169.417,105.557,132.291,0.000155836,0.000157561,0.000539135
-6.89779,5.00906,-296.392,4.0114,-1.1528,-0.353854,-0.00409951,0.00169545,-0.000316052,0.00171263,-0.00411669,-1.51647,0.00518948,635.376,-84.837,16.0349,0.38569,-0.156875,0.0153009,0.00520886,370,590,104.268,25.8177,215.19,169.99,107.94,132.965,0.000131572,0.000137762,0.000455104
-6.58066,4.99861,-296.268,4.00742,-1.14723,-0.346593,-0.0040359,0.00168736,-0.000332457,0.00170661,-0.00405515,-1.51297,0.00512614,634.891,-84.916,17.7824,0.382668,-0.157886,0.0190495,0.00470595,377,590,104.19,25.6888,217.908,170.572,110.734,133.692,0.000117048,0.000121953,0.000404664
-6.26162,4.98797,-296.136,4.00274,-1.14082,-0.341252,-0.0039919,0.00167627,-0.000336394,0.00169616,-0.0040118,-1.51172,0.00507702,634.438,-84.958,19.8264,0.383863,-0.159239,0.0248516,0.00476789,384,590,104.11,25.5524,220.711,171.136,113.643,134.44,0.000119299,0.00012105,0.000412781
-5.94597,4.9771,-296.014,3.99855,-1.13487,-0.335324,-0.00395253,0.00166472,-0.000333718,0.00168447,-0.00397228,-1.51166,0.00503067,633.918,-84.9589,21.6097,0.385898,-0.161632,0.0318279,0.00479937,391,590,104.036,25.4188,223.356,171.72,116.379,135.187,0.000120028,0.000122182,0.000414716
-5.63831,4.96563,-295.918,3.99581,-1.13012,-0.328245,-0.00392316,0.00165818,-0.000327365,0.00167732,-0.0039423,-1.51241,0.00499676,633.501,-85.0307,22.7937,0.381991,-0.164646,0.0394587,0.00482653,398,590,103.983,25.3112,225.619,172.34,118.691,135.934,0.000119544,0.000123978,0.000411859
-5.34781,4.95467,-295.879,3.99436,-1.12677,-0.321056,-0.0039258,0.00165188,-0.000309111,0.00166896,-0.00394287,-1.5156,0.00499121,633.268,-85.12,24.0834,0.37112,-0.169361,0.047811,0.00464321,405,590,103.944,25.2305,226.979,172.901,120.077,136.583,0.000116714,0.000118699,0.000401868
-5.06637,4.94357,-295.871,3.99357,-1.12424,-0.314801,-0.00398145,0.00165019,-0.000271298,0.00166323,-0.00399449,-1.52277,0.00503647,633.264,-85.2517,25.2405,0.367228,-0.174257,0.0542255,0.00456955,412,590,103.92,25.1725,227.848,173.448,120.97,137.202,0.000114303,0.000115231,0.000393601
-4.78812,4.93251,-295.872,3.99262,-1.12217,-0.30899,-0.0040807,0.00165034,-0.00021846,0.00165866,-0.00408902,-1.53275,0.00512381,633.255,-85.4123,26.4195,0.374904,-0.17954,0.0567773,0.00443857,419,590,103.893,25.1275,228.532,173.989,121.688,137.805,0.000112091,0.000109657,0.000386221
-4.50911,4.92124,-295.871,3.99124,-1.12016,-0.303314,-0.00416035,0.00165022,-0.000167891,0.00165507,-0.00416519,-1.54193,0.0051944,633.259,-85.5378,27.9258,0.386271,-0.183787,0.0529537,0.00433182,426,590,103.857,25.0852,229.246,174.546,122.447,138.424,0.000109747,0.000105601,0.000378278
-4.22556,4.91025,-295.853,3.9894,-1.11766,-0.297309,-0.00419805,0.00165253,-0.000127332,0.0016553,-0.00420082,-1.54905,0.00522882,633.246,-85.5945,29.5008,0.399519,-0.186482,0.0424725,0.00427985,433,590,103.812,25.0316,230.206,175.097,123.457,139.047,0.000108836,0.000104477,0.000375402
-3.93761,4.89923,-295.82,3.98732,-1.11471,-0.290807,-0.00423783,0.00165846,-9.18228e-05,0.00165989,-0.00423926,-1.55523,0.00526908,633.151,-85.6626,30.9075,0.414982,-0.186179,0.0262323,0.00426646,440,590,103.763,24.9676,231.412,175.659,124.711,139.693,0.000109876,0.000104411,0.000379213
-3.64668,4.8883,-295.776,3.98518,-1.11124,-0.284024,-0.00430834,0.00166707,-5.6324e-05,0.0016676,-0.00430887,-1.56137,0.0053416,633.021,-85.7035,32.1016,0.430826,-0.18296,0.00740482,0.0043102,447,590,103.714,24.892,232.792,176.215,126.133,140.347,0.000112497,0.000105709,0.000388545
-3.354,4.87774,-295.726,3.98283,-1.10755,-0.277367,-0.00439255,0.00167388,-2.15698e-05,0.00167396,-0.00439263,-1.56724,0.00542682,632.937,-85.7999,33.5243,0.441785,-0.175227,-0.0115024,0.00437225,454,590,103.663,24.8094,234.269,176.756,127.657,140.99,0.000115398,0.000107823,0.000398318
-3.05986,4.86715,-295.669,3.98026,-1.10355,-0.270968,-0.00445514,0.00167793,1.19445e-05,0.00167796,-0.00445516,1.56885,0.00548995,632.771,-85.9276,35.1631,0.444562,-0.165938,-0.0276697,0.00449221,461,590,103.61,24.7209,235.828,177.297,129.267,141.643,0.000119524,0.000111371,0.000412449
-2.76436,4.8565,-295.607,3.97753,-1.0993,-0.264298,-0.00448691,0.00168321,4.20085e-05,0.00168349,-0.0044872,1.56399,0.00552478,632.648,-86.1456,37.1804,0.442837,-0.156342,-0.0400437,0.00472245,468,590,103.553,24.6271,237.467,177.84,130.958,142.306,0.000124179,0.000115084,0.000428664
-2.4688,4.84568,-295.544,3.97468,-1.09488,-0.257809,-0.00447589,0.00168792,6.92356e-05,0.00168869,-0.00447667,1.55957,0.00551833,632.393,-86.3776,39.0233,0.435201,-0.147523,-0.048767,0.00494062,475,590,103.495,24.5282,239.113,178.391,132.659,142.979,0.000128991,0.000118327,0.000445104
-2.17344,4.83479,-295.481,3.97186,-1.09058,-0.251297,-0.00443955,0.00169279,9.10306e-05,0.00169414,-0.0044409,1.55596,0.00548774,632.097,-86.5375,40.6714,0.421197,-0.14235,-0.0528264,0.0049775,482,590,103.438,24.4312,240.755,178.949,134.354,143.657,0.000129999,0.000118422,0.000447903
-1.87957,4.82378,-295.422,3.96926,-1.08648,-0.244503,-0.00439001,0.00169877,0.000106078,0.00170061,-0.00439186,1.55338,0.00544512,631.917,-86.7175,42.382,0.407123,-0.142284,-0.0504358,0.00489409,489,590,103.384,24.3385,242.326,179.516,135.971,144.336,0.000128906,0.000117263,0.000442456
-1.58688,4.81287,-295.367,3.96665,-1.08252,-0.237479,-0.00432581,0.00170506,0.000116194,0.0017073,-0.00432805,1.55154,0.00538852,631.728,-86.8647,44.1615,0.404221,-0.146353,-0.0423352,0.00476168,496,590,103.327,24.2492,243.838,180.076,137.527,145.004,0.000126565,0.000117836,0.000433794
-1.29321,4.80225,-295.307,3.96397,-1.07832,-0.230502,-0.00425092,0.00171136,0.000123857,0.00171393,-0.00425349,1.55003,0.00532165,631.586,-87.0122,45.6259,0.413222,-0.153951,-0.0300049,0.00482663,503,590,103.27,24.1545,245.413,180.621,139.145,145.664,0.000126132,0.000122267,0.000432134
-0.998378,4.79137,-295.242,3.961,-1.07386,-0.223396,-0.00417946,0.00171948,0.000129787,0.00172234,-0.00418231,1.54881,0.00525942,631.334,-87.1046,46.5992,0.424738,-0.16359,-0.0149966,0.0050712,510,590,103.207,24.0541,247.055,181.178,140.835,146.344,0.000129675,0.000128679,0.000444287
-0.702526,4.78073,-295.173,3.95786,-1.06927,-0.216665,-0.00410868,0.00172845,0.000135324,0.00173158,-0.00411182,1.54763,0.00519859,631.049,-87.1565,47.7955,0.430955,-0.175655,-0.0009418,0.0052625,517,590,103.144,23.9518,248.757,181.723,142.591,147.017,0.000133864,0.000133353,0.000458079
-0.406753,4.77013,-295.103,3.95482,-1.06469,-0.209453,-0.00404088,0.00174123,0.000142037,0.00174472,-0.00404437,1.54625,0.00514366,630.871,-87.2649,49.0849,0.436964,-0.188528,0.00882879,0.00537856,524,590,103.081,23.852,250.469,182.268,144.349,147.69,0.000139326,0.00013549,0.000474934
-0.112168,4.75924,-295.037,3.95206,-1.06035,-0.202029,-0.00397558,0.00175438,0.000150233,0.00175832,-0.00397952,1.5446,0.00509171,630.752,-87.407,50.5064,0.458737,-0.204689,0.0178787,0.0054479,531,590,103.023,23.7572,252.13,182.83,146.046,148.374,0.000141958,0.000136104,0.000482969
0.181051,4.74861,-294.974,3.94955,-1.05608,-0.19467,-0.00392972,0.00176741,0.000163825,0.00177212,-0.00393443,1.54207,0.0050589,630.646,-87.5947,51.5849,0.481991,-0.221089,0.0232687,0.00547518,538,590,102.971,23.663,253.726,183.378,147.672,149.039,0.00014577,0.000136811,0.000494092
0.473535,4.7378,-294.914,3.94712,-1.05174,-0.187297,-0.00390375,0.00178134,0.000180554,0.00178707,-0.00390948,1.53908,0.0050462,630.585,-87.6837,52.7961,0.497277,-0.235609,0.02555,0.00552444,545,590,102.921,23.5664,255.288,183.93,149.262,149.711,0.000148593,0.000135782,0.000503198
0.765828,4.72696,-294.853,3.94466,-1.04721,-0.179881,-0.00390438,0.00179668,0.000200065,0.0018037,-0.00391139,1.53576,0.00506036,630.67,-87.6407,54.1045,0.500498,-0.24484,0.0236352,0.00553325,552,590,102.869,23.4601,256.847,184.484,150.848,150.386,0.000149247,0.000135559,0.000504293
1.05859,4.71605,-294.789,3.94198,-1.04243,-0.172813,-0.00395626,0.00181482,0.000224718,0.00182355,-0.00396499,1.53194,0.0051261,630.597,-87.5422,55.643,0.488676,-0.246935,0.0174513,0.00559638,559,590,102.816,23.3498,258.432,185.035,152.467,151.068,0.000152004,0.000138842,0.000511872
1.35176,4.7053,-294.724,3.93889,-1.03757,-0.166064,-0.00409133,0.00183618,0.000261508,0.0018477,-0.00410284,1.52679,0.00527524,630.182,-87.5667,56.8165,0.453653,-0.242371,0.00791215,0.00577957,566,590,102.755,23.2381,260.037,185.578,154.118,151.745,0.000155381,0.000143588,0.000522634
1.64538,4.69446,-294.655,3.93589,-1.03255,-0.158205,-0.00429858,0.00186315,0.000316378,0.00187935,-0.00431478,1.51963,0.00550075,629.708,-87.7559,58.0257,0.386679,-0.22813,-0.0077681,0.00605672,573,590,102.69,23.1242,261.69,186.125,155.804,152.43,0.000162176,0.000149953,0.000545162
0,0,0,0,0,0,0,0,0,0,0,0,0,0,0,0,0,0,0,-1,580,590,0,0,0,0,0,0,0,0,0
0,0,0,0,0,0,0,0,0,0,0,0,0,0,0,0,0,0,0,-1,587,590,0,0,0,0,0,0,0,0,0
0,0,0,0,0,0,0,0,0,0,0,0,0,0,0,0,0,0,0,-1,594,590,0,0,0,0,0,0,0,0,0
0,0,0,0,0,0,0,0,0,0,0,0,0,0,0,0,0,0,0,-1,601,590,0,0,0,0,0,0,0,0,0
0,0,0,0,0,0,0,0,0,0,0,0,0,0,0,0,0,0,0,-1,62,597,0,0,0,0,0,0,0,0,0
0,0,0,0,0,0,0,0,0,0,0,0,0,0,0,0,0,0,0,-1,69,597,0,0,0,0,0,0,0,0,0
0,0,0,0,0,0,0,0,0,0,0,0,0,0,0,0,0,0,0,-1,76,597,0,0,0,0,0,0,0,0,0
-19.0733,5.19596,-298.143,4.09727,-1.27282,-0.51993,-0.00489795,0.000587502,0.0017517,0.00109916,-0.0054096,1.28661,0.00603473,642.191,-80.4716,-52.74,0.49347,-0.0267014,0.159812,0.00557925,83,597,105.883,28.3453,150.583,147.314,39.7088,106.702,0.000141981,0.000135771,0.000505424
-18.7972,5.18366,-298.172,4.09593,-1.27222,-0.518265,-0.00501951,0.00094591,0.0016164,0.00135574,-0.00542934,1.32249,0.00621904,642.352,-80.6819,-51.2263,0.481316,-0.0453921,0.108325,0.0055366,90,597,105.851,28.3367,151.114,147.915,40.3576,107.336,0.000144688,0.000133727,0.000514778
-18.5164,5.17281,-298.187,4.09439,-1.27124,-0.516477,-0.0050597,0.00122398,0.00149514,0.00156159,-0.00539731,1.34871,0.00632439,642.563,-80.8612,-49.5825,0.446395,-0.0626965,0.0657135,0.00530714,97,597,105.819,28.3186,151.865,148.448,41.2264,107.911,0.000139791,0.000132533,0.0004967
-18.2272,5.16164,-298.177,4.09267,-1.26981,-0.514791,-0.00504719,0.00143768,0.00138322,0.00172039,-0.0053299,1.36918,0.00636688,642.767,-80.9314,-47.4268,0.403294,-0.0774309,0.0292904,0.00522911,104,597,105.791,28.2907,153.023,149.019,42.5019,108.532,0.00013071,0.000133911,0.000465601
-17.9396,5.15007,-298.171,4.09097,-1.26824,-0.513159,-0.00501594,0.00160168,0.00128302,0.00184172,-0.00525599,1.38584,0.00637945,642.936,-80.9733,-45.1004,0.360527,-0.0881468,0.000559376,0.00538273,111,597,105.763,28.2581,154.096,149.601,43.6927,109.169,0.000128215,0.000138072,0.000456327
-17.6499,5.13822,-298.159,4.08917,-1.26653,-0.511297,-0.00497226,0.00172815,0.00119267,0.00193412,-0.00517822,1.39979,0.00636946,642.972,-81.0658,-43.0544,0.321126,-0.0952402,-0.0208212,0.00545217,118,597,105.732,28.2236,155.271,150.202,44.9841,109.829,0.000128123,0.000139591,0.000454284
-17.3557,5.12704,-298.132,4.08731,-1.26453,-0.509157,-0.00491389,0.00182484,0.00111012,0.00200301,-0.00509206,1.41166,0.00633565,642.839,-81.134,-41.296,0.28455,-0.100285,-0.0372756,0.00536346,125,597,105.703,28.1853,156.667,150.776,46.4921,110.47,0.000125789,0.000137315,0.000446273
-17.0585,5.11569,-298.096,4.08558,-1.26211,-0.506224,-0.00484637,0.00189745,0.00103569,0.00205293,-0.00500184,1.42179,0.00628501,642.616,-81.2669,-39.5623,0.251232,-0.105579,-0.0501416,0.00510235,132,597,105.674,28.1421,158.222,151.355,48.1464,111.132,0.000120726,0.000129411,0.000427679
-16.7585,5.10441,-298.052,4.08377,-1.25942,-0.502714,-0.00478737,0.00196727,0.000962422,0.00210172,-0.00492182,1.43199,0.00624387,642.233,-81.3071,-38.1351,0.227386,-0.111871,-0.0621982,0.0047652,139,597,105.642,28.0908,159.918,151.938,49.9365,111.801,0.000114029,0.000119455,0.000404047
-16.4595,5.09392,-298.009,4.08211,-1.25676,-0.498867,-0.00472359,0.00201393,0.000901916,0.00213257,-0.00484224,1.44,0.00619044,641.998,-81.465,-36.4326,0.209526,-0.118556,-0.0710213,0.00458465,146,597,105.61,28.039,161.574,152.48,51.6803,112.426,0.000111203,0.000115105,0.000392441
-16.1636,5.08336,-297.976,4.08045,-1.25428,-0.495314,-0.0046594,0.00202895,0.000845444,0.00213416,-0.00476462,1.44699,0.00611757,641.82,-81.7457,-34.8314,0.198466,-0.127804,-0.0769734,0.00464262,153,597,105.579,27.9907,163.076,153.018,53.2732,113.044,0.000111005,0.000117508,0.000390784
-15.8702,5.07242,-297.95,4.07878,-1.25184,-0.492219,-0.00459542,0.00203471,0.000792482,0.00212812,-0.00468883,1.45347,0.00604089,641.779,-81.9585,-33.2363,0.195927,-0.135167,-0.0806514,0.00485908,160,597,105.548,27.9403,164.445,153.569,54.738,113.673,0.000114632,0.0001236,0.00040354
-15.5772,5.06108,-297.924,4.07723,-1.24941,-0.489128,-0.00454863,0.00202922,0.000745078,0.00211256,-0.00463197,1.45941,0.00597523,641.742,-82.058,-31.7438,0.201857,-0.143746,-0.0801302,0.00518762,167,597,105.521,27.8882,165.798,154.143,56.1836,114.322,0.000122495,0.000132075,0.000431638
-15.2823,5.04976,-297.892,4.07566,-1.24694,-0.485592,-0.00452446,0.00201819,0.000711672,0.0020947,-0.00460098,1.46369,0.0059325,641.655,-82.1838,-30.0125,0.212232,-0.152033,-0.0736168,0.00542937,174,597,105.492,27.8334,167.252,154.725,57.7242,114.978,0.000134149,0.000137968,0.000472168
-14.9854,5.03856,-297.854,4.07399,-1.24438,-0.48206,-0.00451953,0.00199994,0.000692656,0.00207272,-0.00459231,1.46611,0.00590796,641.457,-82.3544,-28.2547,0.224892,-0.158931,-0.0597798,0.00577431,181,597,105.463,27.78,168.799,155.304,59.3588,115.635,0.000146615,0.000147077,0.000515285
-14.6879,5.02738,-297.813,4.07235,-1.24169,-0.47827,-0.00451814,0.00197553,0.00068003,0.00204598,-0.00458859,1.46757,0.00588467,641.22,-82.574,-26.5087,0.242345,-0.162814,-0.0428368,0.00592433,188,597,105.434,27.7261,170.385,155.881,61.028,116.295,0.000153388,0.000151463,0.000539508
-14.3911,5.01556,-297.773,4.07068,-1.23905,-0.47425,-0.00451674,0.00194831,0.0006688,0.00201677,-0.0045852,1.46879,0.00585992,641.05,-82.7514,-24.6656,0.259135,-0.163026,-0.0260436,0.00606106,195,597,105.403,27.6761,171.936,156.487,62.6608,116.986,0.000153928,0.000155134,0.000544948
-14.096,5.00365,-297.739,4.06904,-1.23628,-0.469645,-0.00451558,0.00192099,0.000657485,0.00198746,-0.00458205,1.47003,0.0058354,640.968,-82.8667,-22.6518,0.271496,-0.159879,-0.0103957,0.00620008,202,597,105.366,27.6237,173.403,157.088,64.205,117.676,0.000155665,0.000158245,0.000553707
-13.8024,4.9919,-297.709,4.06736,-1.23367,-0.464703,-0.00450944,0.00189406,0.000646818,0.00195874,-0.00457412,1.47113,0.00580679,640.863,-83.0133,-20.5513,0.279951,-0.154276,0.00403158,0.00609846,209,597,105.326,27.5724,174.799,157.683,65.6766,118.352,0.000153886,0.000155403,0.000548285
-13.5082,4.98082,-297.676,4.06542,-1.23113,-0.46035,-0.00451102,0.00186754,0.000637275,0.00193059,-0.00457407,1.47219,0.00578618,640.699,-83.2224,-18.6157,0.289469,-0.148581,0.0164638,0.00592758,216,597,105.284,27.5172,176.218,158.253,67.1825,118.997,0.000152401,0.000151297,0.000541522
-13.2115,4.97052,-297.635,4.06318,-1.22843,-0.456608,-0.00452657,0.00184176,0.000628029,0.00190311,-0.00458791,1.47343,0.00577945,640.459,-83.3055,-17.1495,0.306778,-0.142913,0.0249572,0.00567349,223,597,105.243,27.4567,177.75,158.789,68.8109,119.611,0.000145961,0.000145663,0.000513425
-12.9121,4.96019,-297.585,4.0609,-1.22524,-0.452755,-0.0045488,0.00182031,0.000614731,0.0018791,-0.00460759,1.47545,0.00578092,640.145,-83.2182,-15.9627,0.33066,-0.138662,0.0279451,0.0054455,230,597,105.202,27.3883,179.429,159.323,70.5834,120.239,0.000138998,0.000140568,0.000484393
-12.6115,4.94941,-297.53,4.05873,-1.22172,-0.448266,-0.00455634,0.00180143,0.000593024,0.00185628,-0.00461118,1.47858,0.00576788,639.867,-83.0145,-14.8036,0.348954,-0.136008,0.0234829,0.00514113,237,597,105.162,27.3157,181.177,159.873,72.414,120.895,0.00013118,0.00013457,0.000452451
-12.3118,4.93854,-297.478,4.0568,-1.21821,-0.443341,-0.00454325,0.00178362,0.000564509,0.00183359,-0.00459322,1.4825,0.00573427,639.651,-82.9464,-13.2915,0.355398,-0.137141,0.0125524,0.00487787,244,597,105.123,27.2465,182.89,160.423,74.2,121.553,0.000125816,0.00012757,0.000433062
-12.0142,4.92686,-297.432,4.05483,-1.2151,-0.438631,-0.00452557,0.0017661,0.000529774,0.0018104,-0.00456986,1.48738,0.00569513,639.422,-83.1047,-11.767,0.356161,-0.142625,-0.0031587,0.0045489,251,597,105.084,27.1801,184.491,161.025,75.8785,122.247,0.00011935,0.000120279,0.00041015
-11.7182,4.91494,-297.39,4.05291,-1.2122,-0.433911,-0.00451206,0.00175045,0.000489382,0.00178847,-0.00455007,1.49328,0.00566033,639.245,-83.4115,-9.79674,0.356149,-0.150956,-0.0204531,0.00432259,258,597,105.045,27.1185,186.016,161.64,77.4787,122.947,0.000113416,0.000114821,0.000388134
-11.4222,4.90329,-297.347,4.05088,-1.20927,-0.42943,-0.00449689,0.00173596,0.000443994,0.00176743,-0.00452836,1.50004,0.00562435,639.058,-83.6362,-8.28698,0.35853,-0.160524,-0.0376106,0.00438646,265,597,105.006,27.0585,187.538,162.239,79.081,123.634,0.000115913,0.000116989,0.000394948
-11.1245,4.89166,-297.298,4.04857,-1.20617,-0.425375,-0.00447018,0.00172062,0.00038889,0.00174496,-0.00449451,1.50831,0.00557568,639.046,-83.8041,-5.98446,0.358808,-0.169395,-0.0540011,0.00457832,272,597,104.966,26.9949,189.14,162.839,80.7706,124.328,0.000124683,0.000126316,0.000423585
-10.8239,4.88057,-297.24,4.046,-1.20269,-0.421324,-0.00443466,0.00170514,0.000324418,0.00172223,-0.00445175,1.51815,0.00551825,639.079,-83.8447,-3.29635,0.350997,-0.178429,-0.0676051,0.00481833,279,597,104.922,26.9215,190.894,163.415,82.6174,125.007,0.000133774,0.000130816,0.000455392
-10.522,4.87012,-297.177,4.04347,-1.19894,-0.416621,-0.00442426,0.00169183,0.000264136,0.00170322,-0.00443564,1.52772,0.00548915,639.004,-83.9289,-0.986248,0.330487,-0.18567,-0.0731699,0.00508263,286,597,104.875,26.8418,192.727,163.957,84.534,125.658,0.000137773,0.000135595,0.000470786
-10.2201,4.85959,-297.113,4.04125,-1.19512,-0.410842,-0.0044514,0.001682,0.000216692,0.00168965,-0.00445904,1.53553,0.00550202,638.57,-83.9801,0.303686,0.301055,-0.190516,-0.0669042,0.00495666,293,597,104.83,26.7598,194.579,164.505,86.4516,126.314,0.000133562,0.000131293,0.000458162
-9.91842,4.8489,-297.049,4.03901,-1.1913,-0.404765,-0.00448686,0.00167794,0.000175588,0.00168294,-0.00449186,1.54234,0.00552889,638.042,-84.0392,1.1951,0.277748,-0.192305,-0.0521518,0.00489,300,597,104.782,26.6778,196.426,165.061,88.3628,126.979,0.00012952,0.000125071,0.000446015
-9.61709,4.83799,-296.985,4.03673,-1.18749,-0.39913,-0.00449178,0.0016803,0.000124706,0.00168282,-0.0044943,1.5506,0.00553116,637.594,-84.0542,2.22781,0.26386,-0.190532,-0.0341494,0.00492339,307,597,104.736,26.5983,198.256,165.626,90.2592,127.655,0.000128684,0.000123751,0.000444428
-9.31538,4.82693,-296.919,4.03433,-1.18362,-0.393463,-0.0044461,0.00168732,5.60375e-05,0.00168783,-0.00444661,1.56166,0.00548874,637.334,-84.1308,3.73328,0.257137,-0.186382,-0.0191584,0.00512949,314,597,104.688,26.5178,200.108,166.2,92.1795,128.342,0.000134228,0.000128832,0.000463938
-9.01395,4.81601,-296.854,4.03191,-1.1799,-0.387862,-0.00439159,0.00169856,-1.74754e-05,0.00169861,-0.00439164,-1.56793,0.00544348,637.162,-84.2812,5.42241,0.256311,-0.181601,-0.0069221,0.00511509,321,597,104.641,26.4361,201.949,166.776,94.09,129.022,0.000134173,0.00012937,0.000464355
-8.71352,4.80516,-296.791,4.02947,-1.17624,-0.381775,-0.00436509,0.00171271,-8.74044e-05,0.00171396,-0.00436635,-1.55642,0.00543014,636.962,-84.4196,7.09951,0.260293,-0.176482,0.00416097,0.00500497,328,597,104.589,26.3534,203.745,167.349,95.9519,129.694,0.000133342,0.000125337,0.000461377
-8.41498,4.79436,-296.733,4.0272,-1.17278,-0.375654,-0.00434511,0.00172489,-0.000154691,0.00172883,-0.00434905,-1.54533,0.00542419,636.642,-84.5591,8.48031,0.273976,-0.171775,0.0134662,0.00516615,335,597,104.541,26.2726,205.449,167.921,97.7182,130.358,0.000137569,0.000124597,0.000475658
-8.11684,4.78342,-296.676,4.02393,-1.16887,-0.372715,-0.00430766,0.00173296,-0.000221218,0.00174105,-0.00431575,-1.53424,0.005401,636.158,-84.5171,9.33674,0.302537,-0.167406,0.0192802,0.00616812,342,597,104.49,26.1952,207.085,168.468,99.4667,131.028,0.000164572,0.000147632,0.000567512
-7.81752,4.77263,-296.614,4.02048,-1.16463,-0.369679,-0.00424553,0.00173885,-0.000283468,0.00175225,-0.00425893,-1.52357,0.00535458,635.745,-84.4549,10.458,0.338611,-0.165561,0.0209241,0.00700038,349,597,104.435,26.1167,208.786,168.998,101.282,131.697,0.0001876,0.000170577,0.000646449
-7.51714,4.76145,-296.548,4.01712,-1.16024,-0.365956,-0.00416611,0.0017409,-0.000337325,0.0017601,-0.00418531,-1.51394,0.00528974,635.522,-84.3953,12.2294,0.369191,-0.166003,0.0194683,0.00705456,356,597,104.379,26.0329,210.557,169.554,103.158,132.392,0.000186835,0.000176623,0.000643832
-7.21281,4.75066,-296.469,4.01506,-1.15672,-0.356283,-0.00407699,0.00173743,-0.000376507,0.00176171,-0.00410127,-1.5064,0.0052105,635.309,-84.601,14.2299,0.384647,-0.168636,0.0181401,0.00626939,363,597,104.318,25.9421,212.631,170.169,105.251,133.084,0.000162305,0.000164706,0.00056042
-6.90438,4.74045,-296.374,4.01311,-1.15265,-0.345553,-0.00399952,0.00173024,-0.00040181,0.00175828,-0.00402756,-1.50112,0.00513755,635.036,-84.8359,16.2008,0.387229,-0.172714,0.0196184,0.00530392,370,597,104.257,25.8375,214.947,170.761,107.57,133.765,0.000133508,0.000140409,0.000461823
-6.59124,4.73034,-296.263,4.00965,-1.14754,-0.338414,-0.00394482,0.00172044,-0.000411373,0.00175015,-0.00397453,-1.49869,0.00508094,634.643,-84.9655,18.0099,0.386539,-0.177141,0.0247798,0.00469859,377,597,104.189,25.7151,217.462,171.33,110.152,134.462,0.000118144,0.000121693,0.000408655
-6.27534,4.71999,-296.142,4.00531,-1.14147,-0.333718,-0.0039122,0.00170776,-0.000407287,0.00173712,-0.00394156,-1.49883,0.00503989,634.263,-85.0334,20.0917,0.387839,-0.180742,0.0316544,0.00468602,384,597,104.12,25.5853,220.096,171.879,112.891,135.186,0.000119104,0.000118688,0.000412174
-5.96231,4.70938,-296.029,4.00133,-1.13571,-0.327877,-0.00388321,0.00169504,-0.000397836,0.00172327,-0.00391144,-1.49996,0.00500095,633.776,-85.0364,21.972,0.388535,-0.184349,0.0390445,0.00460279,391,597,104.049,25.4566,222.603,172.447,115.486,135.913,0.000118472,0.000116858,0.000409409
-5.65775,4.69802,-295.944,3.99854,-1.1309,-0.321103,-0.00386466,0.00168615,-0.00038389,0.00171257,-0.00389108,-1.50207,0.00497365,633.399,-85.0933,23.3168,0.383063,-0.187616,0.0466408,0.00464491,398,597,103.993,25.3485,224.692,173.046,117.629,136.644,0.000120333,0.000119278,0.000414766
-5.36501,4.68659,-295.897,3.99683,-1.1273,-0.313656,-0.00388171,0.00167803,-0.000356946,0.00170085,-0.00390453,-1.50694,0.00497788,633.116,-85.1382,24.5818,0.371012,-0.191977,0.054925,0.00465474,405,597,103.949,25.2661,226.168,173.634,119.135,137.328,0.000120878,0.000116919,0.000416119
-5.08021,4.67572,-295.877,3.99567,-1.12456,-0.307313,-0.00395494,0.00167344,-0.000309797,0.00169045,-0.00397194,-1.51598,0.0050347,633.02,-85.2478,25.6817,0.366983,-0.195218,0.0603062,0.00464822,412,597,103.919,25.2042,227.215,174.178,120.212,137.95,0.000120054,0.000113411,0.000413179
-4.79977,4.66472,-295.871,3.99454,-1.12233,-0.301381,-0.00406834,0.00167062,-0.00024984,0.00168147,-0.0040792,-1.52737,0.00513091,633.001,-85.3919,27.0313,0.375587,-0.197635,0.0610421,0.00454327,419,597,103.888,25.1551,228.018,174.723,121.05,138.559,0.000117302,0.000108785,0.000403949
-4.51982,4.65342,-295.867,3.99313,-1.12026,-0.295558,-0.00415347,0.00166715,-0.00019722,0.00167382,-0.00416014,-1.53697,0.00520306,632.976,-85.4764,28.625,0.388916,-0.197727,0.0542939,0.00439339,426,597,103.851,25.1105,228.785,175.286,121.861,139.183,0.000113482,0.000104457,0.000390986
-4.23612,4.64258,-295.849,3.99134,-1.1178,-0.289704,-0.0041901,0.00166386,-0.000156303,0.00166803,-0.00419427,-1.54412,0.00523167,632.912,-85.5644,30.2464,0.403349,-0.195537,0.0405216,0.00431825,433,597,103.809,25.0562,229.754,175.833,122.88,139.8,0.000111114,0.00010335,0.000383102
-3.94882,4.63185,-295.818,3.98942,-1.11491,-0.28328,-0.00422343,0.00166105,-0.000119511,0.00166348,-0.00422585,-1.5505,0.00525876,632.791,-85.6639,31.6646,0.418865,-0.190047,0.0212646,0.00430279,440,597,103.765,24.9936,230.929,176.38,124.099,140.428,0.000111401,0.000104025,0.000384092
-3.65882,4.62116,-295.777,3.98733,-1.11161,-0.276865,-0.00428305,0.00165982,-8.11643e-05,0.00166092,-0.00428416,-1.55714,0.00531304,632.69,-85.7545,32.8988,0.434908,-0.182161,0.000902794,0.00438925,447,597,103.719,24.9209,232.255,176.926,125.47,141.067,0.000114641,0.000107122,0.00039536
-3.36727,4.61083,-295.731,3.9851,-1.10806,-0.270283,-0.00435592,0.00165795,-4.22674e-05,0.00165824,-0.00435621,-1.56377,0.00538052,632.638,-85.9473,34.0582,0.447024,-0.171134,-0.0176061,0.00448111,454,597,103.67,24.8426,233.673,177.455,126.932,141.695,0.000118304,0.000111681,0.000407844
-3.07415,4.60035,-295.678,3.98265,-1.10411,-0.263821,-0.00441206,0.00165462,-3.88651e-06,0.00165462,-0.00441206,-1.57016,0.00543179,632.527,-86.0244,35.4066,0.451607,-0.160381,-0.0322805,0.00456539,461,597,103.619,24.7568,235.177,177.987,128.486,142.339,0.000121671,0.000115581,0.000419294
-2.77914,4.58986,-295.617,3.97994,-1.09996,-0.257426,-0.00443752,0.00165398,3.13195e-05,0.00165414,-0.00443768,1.56565,0.00545617,632.45,-86.2107,37.2988,0.449923,-0.150483,-0.0423609,0.00475312,468,597,103.564,24.6667,236.788,178.524,130.15,142.993,0.000124627,0.000117345,0.000429851
-2.48329,4.57929,-295.553,3.97706,-1.09565,-0.25096,-0.00442076,0.00165548,6.30762e-05,0.00165614,-0.00442142,1.56042,0.00544189,632.22,-86.3726,39.3955,0.440051,-0.143182,-0.0476125,0.0049327,475,597,103.506,24.5709,238.449,179.069,131.866,143.657,0.000127841,0.000118742,0.000441443
-2.18746,4.56848,-295.489,3.97421,-1.09139,-0.244387,-0.00437987,0.00165956,8.80329e-05,0.00166084,-0.00438115,1.55622,0.00540641,631.953,-86.5617,41.3333,0.422478,-0.141125,-0.0470713,0.00492932,482,597,103.449,24.4741,240.117,179.63,133.588,144.335,0.000127565,0.000118203,0.000440256
-1.89309,4.55743,-295.428,3.97145,-1.08722,-0.237743,-0.00432685,0.00166515,0.000105011,0.00166699,-0.00432869,1.55328,0.00536025,631.719,-86.7729,42.9035,0.404682,-0.145862,-0.0399186,0.00482216,489,597,103.392,24.3794,241.711,180.202,135.233,145.021,0.000126046,0.000118746,0.000433411
-1.59993,4.54644,-295.371,3.96889,-1.08314,-0.230415,-0.00425993,0.00167013,0.000115995,0.0016724,-0.0042622,1.55125,0.00530013,631.546,-86.9358,44.4385,0.398963,-0.155418,-0.0274324,0.00477866,496,597,103.335,24.2873,243.255,180.769,136.816,145.698,0.000124822,0.000121561,0.000428235
-1.30605,4.5358,-295.31,3.96631,-1.07881,-0.223402,-0.00418232,0.00167381,0.000123031,0.00167639,-0.0041849,1.5498,0.00522869,631.356,-87.0616,45.6082,0.406659,-0.168494,-0.0112714,0.00500508,503,597,103.281,24.1901,244.845,181.314,138.445,146.362,0.000126524,0.000127026,0.000433723
-1.01171,4.52516,-295.248,3.9635,-1.07437,-0.216496,-0.00410742,0.00167887,0.000126323,0.00168163,-0.00411018,1.54898,0.00516074,631.13,-87.0893,46.7466,0.417597,-0.182352,0.00701717,0.0052892,510,597,103.223,24.0907,246.461,181.859,140.108,147.03,0.000130212,0.000133889,0.00044635
-0.717025,4.5146,-295.183,3.96047,-1.06988,-0.210032,-0.00403347,0.00168333,0.000127359,0.00168616,-0.00403631,1.54853,0.00509321,630.81,-87.1371,47.7737,0.423926,-0.197857,0.0236705,0.00541951,517,597,103.163,23.9907,248.096,182.4,141.797,147.696,0.00013341,0.000136846,0.000456218
-0.422192,4.50411,-295.116,3.95758,-1.06542,-0.202801,-0.00396543,0.00169199,0.000128787,0.00169492,-0.00396836,1.54805,0.00503455,630.583,-87.2058,49.1178,0.431544,-0.213173,0.0348175,0.00551118,524,597,103.103,23.8936,249.759,182.94,143.501,148.361,0.000137996,0.000137632,0.000470181
-0.128622,4.49333,-295.053,3.95483,-1.0612,-0.195561,-0.00389989,0.0016984,0.000132254,0.00170152,-0.00390301,1.54719,0.00497692,630.431,-87.3197,50.6382,0.456857,-0.230702,0.0448823,0.00558828,531,597,103.046,23.7997,251.358,183.5,145.139,149.036,0.000141331,0.000138075,0.000480175
0.163924,4.48288,-294.993,3.95236,-1.05704,-0.188123,-0.00385264,0.00170395,0.00014159,0.00170755,-0.00385625,1.54534,0.00493671,630.431,-87.5093,52.0226,0.484977,-0.246942,0.0504593,0.00559277,538,597,102.994,23.7086,252.916,184.04,146.726,149.691,0.000145865,0.000139058,0.000493961
0.456099,4.47235,-294.934,3.95005,-1.05282,-0.180432,-0.0038247,0.00171077,0.000154111,0.00171505,-0.00382899,1.54298,0.00491625,630.396,-87.5317,53.3841,0.505388,-0.259609,0.0520558,0.00560384,545,597,102.944,23.6152,254.465,184.583,148.298,150.35,0.000149177,0.000138401,0.000504998
0.747835,4.46176,-294.875,3.94769,-1.0484,-0.172976,-0.00382507,0.00172053,0.000169626,0.00172571,-0.00383025,1.54025,0.00492532,630.538,-87.543,54.4939,0.51216,-0.26507,0.0489631,0.00558984,552,597,102.895,23.5139,255.994,185.125,149.85,151.011,0.00014956,0.000137968,0.000505461
1.03972,4.45087,-294.815,3.9451,-1.04371,-0.165826,-0.00387995,0.00173672,0.000190839,0.00174319,-0.00388642,1.53687,0.00499177,630.562,-87.4848,55.9548,0.501537,-0.261399,0.041908,0.00568578,559,597,102.842,23.4049,257.53,185.677,151.418,151.69,0.000150729,0.000142486,0.000508073
1.33201,4.44012,-294.752,3.94216,-1.03895,-0.158756,-0.00402316,0.00176289,0.000225378,0.00177165,-0.00403193,1.53192,0.00515154,630.23,-87.5443,57.0176,0.465385,-0.249673,0.0320572,0.00579956,566,597,102.782,23.295,259.088,186.222,153.017,152.365,0.000152072,0.000147158,0.00051127
1.62471,4.42934,-294.688,3.93918,-1.03409,-0.15166,-0.00424459,0.00180468,0.000278706,0.0018175,-0.0042574,1.52485,0.00540061,629.709,-87.7198,58.1478,0.393622,-0.227142,0.0159822,0.00593235,573,597,102.722,23.1832,260.678,186.77,154.646,153.045,0.000156728,0.000150513,0.000525511
0,0,0,0,0,0,0,0,0,0,0,0,0,0,0,0,0,0,0,-1,580,597,0,0,0,0,0,0,0,0,0
0,0,0,0,0,0,0,0,0,0,0,0,0,0,0,0,0,0,0,-1,587,597,0,0,0,0,0,0,0,0,0
0,0,0,0,0,0,0,0,0,0,0,0,0,0,0,0,0,0,0,-1,594,597,0,0,0,0,0,0,0,0,0
0,0,0,0,0,0,0,0,0,0,0,0,0,0,0,0,0,0,0,-1,601,597,0,0,0,0,0,0,0,0,0
0,0,0,0,0,0,0,0,0,0,0,0,0,0,0,0,0,0,0,-1,62,604,0,0,0,0,0,0,0,0,0
0,0,0,0,0,0,0,0,0,0,0,0,0,0,0,0,0,0,0,-1,69,604,0,0,0,0,0,0,0,0,0
0,0,0,0,0,0,0,0,0,0,0,0,0,0,0,0,0,0,0,-1,76,604,0,0,0,0,0,0,0,0,0
-19.0743,4.92424,-298.111,4.09677,-1.27171,-0.51403,-0.00461832,0.000240711,0.00179293,0.000830653,-0.00520827,1.25292,0.00566942,641.724,-80.289,-51.5392,0.48946,-0.0301057,0.176936,0.00581031,83,604,105.833,28.3326,150.474,148.191,39.5568,107.645,0.000146931,0.0001416,0.000522909
-18.7954,4.91212,-298.131,4.09567,-1.27092,-0.512032,-0.00479357,0.000683643,0.00161607,0.00112492,-0.00523484,1.30424,0.00587859,641.858,-80.4896,-50.0958,0.485151,-0.0512236,0.123579,0.00560086,90,604,105.808,28.3213,151.152,148.785,40.3408,108.278,0.000144992,0.000134365,0.000516604
-18.5066,4.90109,-298.122,4.09426,-1.26992,-0.509667,-0.0048732,0.00102369,0.00146024,0.00136547,-0.00521499,1.34087,0.00601511,642.019,-80.6648,-48.5043,0.452716,-0.0702636,0.079317,0.00523254,97,604,105.782,28.306,152.309,149.359,41.6027,108.89,0.000136455,0.000128231,0.000487051
-18.2172,4.89,-298.111,4.09274,-1.2686,-0.507791,-0.0048864,0.0012815,0.00132038,0.00155227,-0.00515717,1.36853,0.00608369,642.173,-80.727,-46.5944,0.408836,-0.0858654,0.0406436,0.00515819,104,604,105.758,28.2797,153.485,149.93,42.8895,109.508,0.0001314,0.000130796,0.000469554
-17.9292,4.87864,-298.104,4.09098,-1.26705,-0.506142,-0.00487065,0.00147713,0.00119843,0.00169585,-0.00508937,1.39028,0.00611624,642.3,-80.7616,-44.3707,0.363293,-0.0963983,0.00944093,0.00537208,111,604,105.729,28.2472,154.579,150.504,44.1019,110.135,0.000131667,0.000137272,0.000469613
-17.6388,4.86685,-298.089,4.08911,-1.26526,-0.504217,-0.00483754,0.00162724,0.00109242,0.00180685,-0.00501715,1.40784,0.00612386,642.319,-80.8418,-42.3273,0.319966,-0.101876,-0.0140555,0.0054195,118,604,105.697,28.2107,155.792,151.101,45.4316,110.793,0.000131178,0.000138057,0.000466222
-17.3458,4.85555,-298.066,4.08731,-1.26324,-0.501887,-0.00478766,0.00174211,0.00100031,0.00189191,-0.00493747,1.42214,0.0061073,642.263,-80.9106,-40.4692,0.278765,-0.103815,-0.0320138,0.00532649,125,604,105.667,28.1721,157.132,151.677,46.8817,111.437,0.000127367,0.000135526,0.000453404
-17.0494,4.84412,-298.033,4.08563,-1.26089,-0.498742,-0.00472672,0.00182867,0.00092155,0.00195576,-0.00485381,1.43376,0.00607267,642.053,-81.0187,-38.8659,0.240963,-0.105087,-0.0462125,0.00501154,132,604,105.637,28.1291,158.657,152.263,48.5038,112.101,0.000120616,0.000125352,0.000428713
-16.7497,4.83312,-297.988,4.08394,-1.2582,-0.495096,-0.00467427,0.00191324,0.00084638,0.00202025,-0.00478128,1.44503,0.0060499,641.711,-81.0703,-37.372,0.214389,-0.107431,-0.0597946,0.00466664,139,604,105.607,28.0773,160.348,152.832,50.284,112.755,0.000115022,0.0001144,0.00040896
-16.4517,4.82275,-297.949,4.08236,-1.2556,-0.491433,-0.00461706,0.00197047,0.000789696,0.00206381,-0.0047104,1.45314,0.00601403,641.472,-81.2649,-35.6877,0.194686,-0.110631,-0.0694878,0.00454182,146,604,105.578,28.0281,161.958,153.364,51.9815,113.371,0.000114558,0.000110706,0.000405529
-16.1572,4.81213,-297.92,4.08082,-1.25324,-0.487851,-0.00456222,0.00199189,0.000739561,0.0020743,-0.00464463,1.45982,0.005959,641.309,-81.5123,-34.045,0.18176,-0.117579,-0.0757336,0.00467278,153,604,105.548,27.9821,163.394,153.905,53.5062,113.987,0.000117915,0.000114904,0.000415981
-15.8648,4.80106,-297.896,4.07925,-1.25095,-0.484699,-0.00450696,0.00200698,0.000696104,0.00208053,-0.00458052,1.46552,0.00590251,641.239,-81.7273,-32.4634,0.17732,-0.122924,-0.0792148,0.00486155,160,604,105.519,27.9339,164.72,154.465,54.9254,114.619,0.000121809,0.000120917,0.000429425
-15.5724,4.78953,-297.872,4.07771,-1.24864,-0.481475,-0.00446991,0.00201007,0.000658951,0.0020764,-0.00453624,1.47047,0.0058573,641.14,-81.7859,-31.1843,0.182766,-0.130706,-0.0781139,0.00521999,167,604,105.49,27.8845,166.045,155.05,56.3412,115.276,0.000128722,0.000130489,0.000453031
-15.2771,4.7785,-297.839,4.07614,-1.24612,-0.477788,-0.0044578,0.00200796,0.000636402,0.00207001,-0.00451985,1.47361,0.00583695,641.033,-81.919,-29.5588,0.194,-0.138862,-0.0711457,0.00559133,174,604,105.461,27.8315,167.519,155.616,57.9012,115.919,0.00013913,0.000139451,0.00048778
-14.9797,4.76757,-297.799,4.07445,-1.24339,-0.473957,-0.0044678,0.00199922,0.000627915,0.00205962,-0.0045282,1.47489,0.00583721,640.799,-82.114,-27.9683,0.208838,-0.145343,-0.0572038,0.0060729,181,604,105.43,27.7776,169.101,156.177,59.5678,116.565,0.000151967,0.000152523,0.000530119
-14.6813,4.75655,-297.755,4.07274,-1.24051,-0.470218,-0.00448121,0.00198474,0.000622494,0.00204412,-0.00454059,1.47569,0.00583755,640.575,-82.3075,-26.1112,0.229773,-0.148363,-0.0408559,0.00630846,188,604,105.4,27.7236,170.734,156.741,61.2846,117.221,0.00015669,0.000160193,0.000548456
-14.3836,4.74511,-297.713,4.071,-1.23775,-0.466273,-0.00449029,0.00196721,0.000614911,0.00202524,-0.00454832,1.4767,0.00583098,640.428,-82.5351,-24.0417,0.249841,-0.147644,-0.0250341,0.00657768,195,604,105.369,27.6717,172.331,157.329,62.965,117.897,0.000157222,0.000168301,0.000555515
-14.0893,4.73321,-297.681,4.06944,-1.23505,-0.46207,-0.00449491,0.00194857,0.000604413,0.00200478,-0.00455112,1.47807,0.00581857,640.412,-82.6555,-21.8528,0.265453,-0.143756,-0.0109043,0.00678481,202,604,105.337,27.6185,173.761,157.93,64.4733,118.584,0.000162299,0.000173581,0.000577232
-13.7971,4.72141,-297.655,4.06792,-1.23258,-0.45754,-0.00449179,0.00192828,0.00059328,0.00198265,-0.00454616,1.47942,0.00579757,640.306,-82.8015,-19.8942,0.276719,-0.138305,0.00189466,0.00665168,209,604,105.302,27.5655,175.087,158.531,65.8747,119.258,0.000164065,0.000170026,0.000586109
-13.5045,4.71043,-297.627,4.06604,-1.23023,-0.45354,-0.00449266,0.00190548,0.000583166,0.0019582,-0.00454538,1.48064,0.00577891,640.148,-82.9837,-18.1302,0.287941,-0.133463,0.0123122,0.00643841,216,604,105.263,27.5114,176.423,159.097,67.2996,119.891,0.000164794,0.000164082,0.000587696
-13.2096,4.70019,-297.591,4.06387,-1.22761,-0.44987,-0.00450109,0.00188092,0.000572526,0.00193187,-0.00455205,1.48203,0.00576604,639.963,-83.0166,-16.7025,0.306993,-0.129502,0.0188536,0.00614686,223,604,105.223,27.4527,177.873,159.627,68.8455,120.497,0.000158886,0.000156197,0.000560325
-12.9128,4.69033,-297.549,4.06165,-1.22452,-0.446272,-0.00451125,0.00186003,0.000556075,0.0019082,-0.00455942,1.48439,0.00575585,639.682,-82.9136,-15.5914,0.333697,-0.128286,0.0205738,0.0059138,230,604,105.183,27.3886,179.416,160.126,70.4842,121.091,0.000153052,0.00015169,0.000533053
-12.6138,4.67967,-297.5,4.05944,-1.22105,-0.441913,-0.00450457,0.00184112,0.000530538,0.00188517,-0.00454862,1.48796,0.00572876,639.449,-82.7712,-14.3417,0.35517,-0.129828,0.0163813,0.00552671,237,604,105.141,27.3209,181.082,160.663,72.2361,121.736,0.000143374,0.000144956,0.000493371
-12.3152,4.66865,-297.451,4.05758,-1.21767,-0.436598,-0.00447675,0.00182219,0.000498423,0.00186138,-0.00451594,1.49232,0.00568017,639.249,-82.7286,-12.7223,0.363923,-0.136094,0.00719953,0.00518755,244,604,105.101,27.2551,182.748,161.222,73.9708,122.399,0.000136298,0.000136539,0.000467952
-12.0175,4.65716,-297.404,4.0557,-1.21465,-0.431397,-0.0044452,0.00180229,0.000460404,0.00183604,-0.00447894,1.49763,0.00562632,639.02,-82.983,-11.2047,0.366038,-0.147109,-0.00626541,0.00481156,251,604,105.06,27.1895,184.362,161.821,75.6552,123.084,0.00012889,0.000126601,0.000441566
-11.7209,4.64538,-297.36,4.05389,-1.21181,-0.426026,-0.00441976,0.0017835,0.000417497,0.00181147,-0.00444773,1.5039,0.00557859,638.819,-83.3359,-9.3253,0.367331,-0.161209,-0.0208878,0.00443878,258,604,105.02,27.1264,185.927,162.439,77.2875,123.781,0.00011874,0.000115751,0.000405871
-11.4242,4.6337,-297.315,4.0519,-1.20881,-0.421099,-0.00439445,0.00176548,0.000371175,0.00178776,-0.00441673,1.51083,0.0055317,638.647,-83.4991,-7.69713,0.370912,-0.176317,-0.0348537,0.00445269,265,604,104.98,27.0646,187.494,163.043,78.9292,124.474,0.000119861,0.000115429,0.000408319
-11.1259,4.62235,-297.265,4.04958,-1.20565,-0.417045,-0.00436,0.00174676,0.000317024,0.00176317,-0.00437642,1.51907,0.00547523,638.579,-83.617,-5.5832,0.370345,-0.189751,-0.0474694,0.0047138,272,604,104.939,26.9996,189.129,163.631,80.6523,125.157,0.000129966,0.00012489,0.000440939
-10.8257,4.61148,-297.208,4.04702,-1.20218,-0.413315,-0.00432042,0.00172788,0.00025471,0.00173859,-0.00433112,1.52878,0.005414,638.634,-83.6657,-3.02491,0.360112,-0.20295,-0.0570729,0.00494825,279,604,104.898,26.9271,190.859,164.195,82.4762,125.824,0.000139143,0.00013154,0.000472608
-10.5248,4.60099,-297.147,4.04452,-1.19853,-0.408877,-0.00431028,0.00171057,0.000198484,0.00171711,-0.00431682,1.53788,0.00538477,638.617,-83.7631,-0.515223,0.3362,-0.213585,-0.0587998,0.00515954,286,604,104.854,26.8498,192.642,164.74,84.3453,126.475,0.000143367,0.000138178,0.000488998
-10.2239,4.59037,-297.086,4.04243,-1.19485,-0.403042,-0.00434214,0.001699,0.000154283,0.00170293,-0.00434608,1.54528,0.00540273,638.282,-83.8689,1.06564,0.302651,-0.220052,-0.0497332,0.00504149,293,604,104.81,26.7702,194.449,165.295,86.2142,127.134,0.000137467,0.000134064,0.00047119
-9.92309,4.57966,-297.025,4.0402,-1.19114,-0.397141,-0.00438383,0.00169453,0.000113172,0.00169663,-0.00438594,1.55219,0.00543658,637.818,-83.9659,2.13516,0.275139,-0.221165,-0.0341978,0.00490179,300,604,104.763,26.6907,196.25,165.854,88.0807,127.799,0.000129361,0.000126002,0.000445799
-9.62217,4.56872,-296.963,4.03799,-1.1874,-0.391285,-0.00439318,0.0016997,5.73569e-05,0.00170024,-0.00439372,1.56138,0.00544665,637.342,-84.0337,3.07533,0.256517,-0.215682,-0.017082,0.00485566,307,604,104.718,26.6124,198.063,166.424,89.9571,128.477,0.000125688,0.000123804,0.000434759
-9.32058,4.55771,-296.897,4.03553,-1.18353,-0.38567,-0.00434954,0.00170982,-1.84399e-05,0.00170988,-0.00434959,-1.56775,0.00541109,637.017,-84.1463,4.33663,0.244981,-0.205952,-0.00494286,0.00496773,314,604,104.669,26.5315,199.908,166.999,91.8726,129.163,0.000128193,0.000127153,0.000444038
-9.01909,4.54692,-296.831,4.0331,-1.17975,-0.380152,-0.00429377,0.00172205,-9.75861e-05,0.00172363,-0.00429535,-1.55458,0.00536885,636.817,-84.2499,5.83524,0.239991,-0.196258,0.00366677,0.0049672,321,604,104.622,26.4487,201.753,167.568,93.7876,129.838,0.000128445,0.000126058,0.000445057
-8.71817,4.53617,-296.767,4.03058,-1.17601,-0.374049,-0.0042614,0.00173589,-0.000172117,0.00174082,-0.00426634,-1.54213,0.00535341,636.571,-84.3537,7.42891,0.240653,-0.187519,0.0108145,0.00490398,328,604,104.569,26.3645,203.575,168.138,95.6763,130.51,0.00012947,0.000123609,0.000448103
-8.41822,4.52561,-296.704,4.02819,-1.17236,-0.367927,-0.00423426,0.00174761,-0.000243067,0.00175747,-0.00424412,-1.53025,0.00534417,636.225,-84.4806,8.85302,0.252592,-0.180882,0.0167795,0.00514783,335,604,104.518,26.2806,205.354,168.7,97.5192,131.169,0.000136229,0.000125156,0.000470775
-8.11942,4.5148,-296.645,4.02496,-1.16831,-0.364716,-0.00419321,0.00175656,-0.000312434,0.00177292,-0.00420957,-1.51848,0.00532231,635.761,-84.453,9.86582,0.282367,-0.175996,0.0198002,0.00614374,342,604,104.467,26.2017,207.031,169.24,99.3049,131.838,0.000162272,0.000147937,0.000559226
-7.81979,4.50408,-296.583,4.02173,-1.16411,-0.361028,-0.00413175,0.00176413,-0.000375953,0.00178801,-0.00415562,-1.50737,0.00528171,635.381,-84.4095,11.0402,0.322306,-0.174924,0.0194919,0.0069028,349,604,104.414,26.123,208.762,169.774,101.139,132.506,0.000181741,0.000171276,0.000625771
-7.51997,4.49313,-296.518,4.01881,-1.15996,-0.356313,-0.00405495,0.00176979,-0.000428102,0.00180108,-0.00408624,-1.49782,0.00522503,635.161,-84.3741,12.6768,0.35722,-0.177794,0.0178045,0.0069777,356,604,104.361,26.0434,210.525,170.328,102.986,133.189,0.000179344,0.000173676,0.000616933
-7.21801,4.48226,-296.446,4.01694,-1.15664,-0.347015,-0.00397377,0.00177201,-0.000464081,0.00180925,-0.00401101,-1.49072,0.00515931,634.968,-84.5492,14.5394,0.377698,-0.184202,0.0170349,0.00614027,363,604,104.306,25.9573,212.473,170.945,104.954,133.878,0.000156651,0.000159029,0.000540417
-6.91245,4.47194,-296.362,4.01493,-1.15275,-0.337769,-0.00390691,0.00177127,-0.000483769,0.00181219,-0.00394784,-1.48641,0.00510134,634.706,-84.7361,16.3097,0.385037,-0.192508,0.019606,0.0051991,370,604,104.251,25.8619,214.622,171.531,107.121,134.555,0.000134473,0.000136001,0.000464982
-6.60386,4.46206,-296.266,4.01193,-1.14819,-0.33097,-0.00386456,0.00176797,-0.000485749,0.00180955,-0.00390614,-1.4854,0.00505973,634.418,-84.8875,18.3046,0.388368,-0.201127,0.0257782,0.00455856,377,604,104.193,25.7515,216.899,172.087,109.459,135.224,0.000118966,0.000116693,0.000411413
-6.29397,4.45205,-296.165,4.00827,-1.14275,-0.325926,-0.00384551,0.00176175,-0.000473312,0.00180142,-0.00388518,-1.48717,0.00503374,634.093,-84.9918,20.27,0.391649,-0.207915,0.0333637,0.00453789,384,604,104.132,25.6318,219.225,172.618,111.875,135.908,0.00011838,0.000113297,0.000409629
-5.98692,4.44125,-296.072,4.00471,-1.13735,-0.320282,-0.00382949,0.00175556,-0.000456984,0.0017927,-0.00386663,-1.48969,0.00500963,633.705,-85.045,22.2178,0.392513,-0.213367,0.0406089,0.00444004,391,604,104.067,25.5123,221.412,173.18,114.144,136.622,0.000116782,0.000110432,0.000403855
-5.68472,4.43053,-295.995,4.00187,-1.13259,-0.314,-0.00382465,0.00175052,-0.000435546,0.00178434,-0.00385847,-1.4933,0.00499564,633.369,-85.1417,23.7024,0.386455,-0.21731,0.0475472,0.00449944,398,604,104.012,25.4075,223.364,173.736,116.158,137.312,0.000119375,0.000112742,0.000412214
-5.38994,4.41911,-295.941,3.99986,-1.12871,-0.306675,-0.00385728,0.00174449,-0.000400248,0.00177294,-0.00388574,-1.49983,0.00501313,633.066,-85.1868,25.0881,0.3741,-0.221651,0.0550326,0.00460472,405,604,103.962,25.3219,224.943,174.323,117.773,138.007,0.000121768,0.000113382,0.000419882
-5.10155,4.40818,-295.909,3.99835,-1.12566,-0.300181,-0.00394544,0.0017384,-0.000344655,0.00175922,-0.00396627,-1.51045,0.00507973,632.909,-85.2711,26.2361,0.370792,-0.223354,0.0584671,0.00460372,412,604,103.926,25.2529,226.179,174.881,119.043,138.647,0.000120784,0.000110392,0.000416185
-4.81681,4.39722,-295.889,3.99695,-1.12315,-0.293928,-0.00406649,0.00173159,-0.000279616,0.00174504,-0.00407994,-1.52272,0.00517792,632.797,-85.3622,27.6262,0.380639,-0.222727,0.0564184,0.00450748,419,604,103.891,25.1963,227.216,175.438,120.117,139.274,0.000117654,0.000106684,0.000405457
-4.53398,4.38625,-295.875,3.99538,-1.12089,-0.288057,-0.00415218,0.00172129,-0.000226755,0.00173003,-0.00416092,-1.53227,0.0052445,632.742,-85.4615,29.2975,0.395521,-0.218313,0.0459902,0.00436293,426,604,103.854,25.1458,228.14,175.994,121.086,139.893,0.000113715,0.000102147,0.000391878
-4.24903,4.37555,-295.852,3.9936,-1.11833,-0.282202,-0.00418687,0.00170644,-0.00018642,0.00171233,-0.00419276,-1.53921,0.00526219,632.614,-85.5337,31.0208,0.40989,-0.210824,0.0286848,0.0042739,433,604,103.814,25.0888,229.18,176.538,122.174,140.509,0.000111047,0.000100937,0.000382844
-3.9624,4.36487,-295.824,3.99177,-1.11547,-0.276046,-0.00421376,0.00168703,-0.000148898,0.00169079,-0.00421752,-1.54558,0.0052704,632.507,-85.6538,32.5646,0.423353,-0.199815,0.00659475,0.00427316,440,604,103.772,25.0268,230.318,177.081,123.357,141.132,0.000111583,0.000101845,0.000384583
-3.6739,4.35427,-295.788,3.98979,-1.11237,-0.269858,-0.00426173,0.00166707,-0.000107957,0.00166904,-0.00426369,-1.5526,0.00529916,632.43,-85.783,33.7443,0.436763,-0.187241,-0.0143713,0.00443188,447,604,103.729,24.9588,231.561,177.623,124.645,141.761,0.000115954,0.00010727,0.000399702
-3.3839,4.34396,-295.747,3.98767,-1.109,-0.263369,-0.00432221,0.00164827,-6.44494e-05,0.00164897,-0.0043229,-1.56,0.00534181,632.404,-85.953,34.7172,0.447541,-0.173426,-0.0307173,0.00457416,454,604,103.683,24.8853,232.892,178.149,126.02,142.382,0.000120311,0.000113939,0.000414503
-3.09177,4.33343,-295.698,3.98525,-1.1052,-0.256931,-0.00437103,0.00163072,-2.06439e-05,0.00163079,-0.00437111,-1.56736,0.00537535,632.417,-86.1455,36.0045,0.452606,-0.161976,-0.041757,0.00469478,461,604,103.632,24.8044,234.341,178.685,127.518,143.026,0.000124297,0.000118433,0.000428155
-2.79677,4.32295,-295.638,3.98253,-1.10108,-0.250502,-0.00438915,0.00161907,2.00496e-05,0.00161914,-0.00438922,1.56746,0.00538457,632.33,-86.2114,37.5982,0.450347,-0.152464,-0.0475002,0.00477426,468,604,103.576,24.7156,235.95,179.224,129.181,143.682,0.000126687,0.000119492,0.000436704
-2.5001,4.31261,-295.571,3.97964,-1.09671,-0.24388,-0.00436652,0.00161457,5.67077e-05,0.00161511,-0.00436705,1.56132,0.00536032,632.145,-86.3773,39.7138,0.437973,-0.147635,-0.0474494,0.00486558,475,604,103.518,24.619,237.659,179.761,130.943,144.34,0.00012717,0.000119219,0.000439067
-2.20319,4.30205,-295.502,3.97667,-1.09236,-0.237463,-0.00432142,0.00161703,8.5364e-05,0.00161826,-0.00432265,1.55643,0.0053197,631.849,-86.548,41.6732,0.417054,-0.149744,-0.0404954,0.0048508,482,604,103.46,24.5203,239.385,180.315,132.725,145.012,0.000125502,0.000118116,0.000433503
-1.90812,4.29104,-295.439,3.97389,-1.08807,-0.230785,-0.00426486,0.00162235,0.000105163,0.00162423,-0.00426674,1.55294,0.00527004,631.556,-86.7515,43.0714,0.396309,-0.160252,-0.0270144,0.00478526,489,604,103.404,24.4231,241.019,180.887,134.41,145.701,0.000123667,0.00011996,0.000425782
-1.61467,4.28003,-295.381,3.9714,-1.08384,-0.223311,-0.00419435,0.00162647,0.000118111,0.00162887,-0.00419675,1.55052,0.00520594,631.322,-86.9147,44.5999,0.388673,-0.17612,-0.00902666,0.00486113,496,604,103.348,24.3283,242.582,181.454,136.008,146.383,0.000124508,0.000124152,0.000427462
-1.32008,4.26956,-295.318,3.96873,-1.07946,-0.216318,-0.00411236,0.00162817,0.000125349,0.0016309,-0.00411509,1.54897,0.00512885,631.172,-87.018,45.7006,0.395791,-0.195241,0.011497,0.00511745,503,604,103.293,24.2305,244.211,181.995,137.678,147.044,0.000127567,0.000129571,0.000438182
-1.02539,4.25896,-295.254,3.96592,-1.07503,-0.209678,-0.00403163,0.00163064,0.000126624,0.00163347,-0.00403446,1.54845,0.00505324,630.926,-87.0197,46.7512,0.407232,-0.213561,0.0331976,0.00529371,510,604,103.237,24.1315,245.846,182.542,139.361,147.713,0.000129766,0.000133785,0.000445787
-0.730741,4.24871,-295.189,3.96294,-1.07053,-0.203264,-0.00395239,0.00163047,0.000123637,0.00163321,-0.00395513,1.54867,0.00497694,630.631,-87.0965,48.0119,0.415088,-0.232631,0.0523986,0.00540087,517,604,103.179,24.0326,247.48,183.068,141.048,148.366,0.000132106,0.000136485,0.000452509
-0.436057,4.23831,-295.123,3.96014,-1.06602,-0.196193,-0.00388328,0.00163453,0.000119809,0.00163713,-0.00388589,1.5491,0.00491345,630.339,-87.1419,49.2943,0.426003,-0.25049,0.0646618,0.00549844,524,604,103.122,23.9335,249.134,183.605,142.744,149.028,0.000135223,0.000137654,0.000461198
-0.143259,4.22771,-295.063,3.95754,-1.06177,-0.188972,-0.00381711,0.00163328,0.000118516,0.00163586,-0.00381968,1.54907,0.00484917,630.151,-87.2331,50.7008,0.455913,-0.269184,0.0752312,0.00559565,531,604,103.068,23.8387,250.693,184.154,144.338,149.693,0.00013912,0.000137825,0.000472852
0.148738,4.21742,-295.006,3.95515,-1.05767,-0.181535,-0.00376813,0.00162964,0.000123343,0.00163246,-0.00377094,1.54796,0.00480009,630.084,-87.3438,52.1373,0.490014,-0.285126,0.080617,0.00561261,538,604,103.017,23.7484,252.221,184.687,145.893,150.338,0.00014289,0.000138454,0.000483929
0.440322,4.20699,-294.948,3.95275,-1.05349,-0.174037,-0.00373757,0.00162696,0.000131024,0.00163016,-0.00374077,1.54639,0.00476957,630.03,-87.4224,53.5765,0.516705,-0.295996,0.0816138,0.0055469,545,604,102.966,23.6559,253.732,185.225,147.43,150.991,0.000144614,0.000138287,0.000488785
0.731333,4.19647,-294.892,3.95046,-1.04918,-0.166382,-0.00373665,0.00162818,0.000141364,0.0016319,-0.00374037,1.54447,0.00477047,630.167,-87.4395,54.8341,0.528238,-0.298092,0.0778588,0.00549619,552,604,102.917,23.5573,255.22,185.765,148.94,151.647,0.000145101,0.000138103,0.000489984
1.02192,4.18588,-294.837,3.94808,-1.04477,-0.158956,-0.00379343,0.00163939,0.0001575,0.00164395,-0.003798,1.54184,0.00483436,630.218,-87.4951,56.1416,0.520518,-0.289395,0.0708586,0.00562481,559,604,102.867,23.4546,256.687,186.306,150.432,152.306,0.00014733,0.0001413,0.000497283
1.31303,4.17536,-294.779,3.94532,-1.04029,-0.151995,-0.00394343,0.00166796,0.00018788,0.00167424,-0.00394971,1.53736,0.0050016,629.95,-87.6002,57.3595,0.485976,-0.271494,0.0622626,0.00574102,566,604,102.811,23.3506,258.178,186.845,151.961,152.966,0.000148949,0.000145853,0.000501454
1.60419,4.16484,-294.719,3.94249,-1.03562,-0.145437,-0.00417662,0.00172355,0.000237258,0.00173307,-0.00418615,1.53067,0.00527089,629.552,-87.8084,58.6466,0.413461,-0.241769,0.0481749,0.00587145,573,604,102.757,23.244,259.674,187.378,153.499,153.627,0.000153098,0.000148989,0.000513509
0,0,0,0,0,0,0,0,0,0,0,0,0,0,0,0,0,0,0,-1,580,604,0,0,0,0,0,0,0,0,0
0,0,0,0,0,0,0,0,0,0,0,0,0,0,0,0,0,0,0,-1,587,604,0,0,0,0,0,0,0,0,0
0,0,0,0,0,0,0,0,0,0,0,0,0,0,0,0,0,0,0,-1,594,604,0,0,0,0,0,0,0,0,0
0,0,0,0,0,0,0,0,0,0,0,0,0,0,0,0,0,0,0,-1,601,604,0,0,0,0,0,0,0,0,0
0,0,0,0,0,0,0,0,0,0,0,0,0,0,0,0,0,0,0,-1,62,611,0,0,0,0,0,0,0,0,0
0,0,0,0,0,0,0,0,0,0,0,0,0,0,0,0,0,0,0,-1,69,611,0,0,0,0,0,0,0,0,0
0,0,0,0,0,0,0,0,0,0,0,0,0,0,0,0,0,0,0,-1,76,611,0,0,0,0,0,0,0,0,0
-19.0642,4.65237,-298.045,4.09577,-1.2695,-0.508449,-0.00426502,-5.62493e-05,0.00180932,0.000614629,-0.0049359,1.21572,0.00527016,641.051,-79.9581,-50.5204,0.495206,-0.0328772,0.193405,0.00570249,83,611,105.784,28.3009,150.894,149.089,39.9418,108.642,0.000145385,0.000141065,0.000520492
-18.7843,4.64094,-298.063,4.0952,-1.26864,-0.505641,-0.00450873,0.000467453,0.00159428,0.000934412,-0.00497569,1.28587,0.00550272,641.207,-80.1549,-49.107,0.496547,-0.0556067,0.138799,0.00537662,90,611,105.766,28.2873,151.644,149.649,40.7765,109.24,0.000139337,0.000133529,0.000499276
-18.494,4.6294,-298.049,4.09415,-1.26788,-0.502886,-0.00464118,0.000865122,0.00140651,0.00120359,-0.00497965,1.33464,0.00567794,641.329,-80.3572,-47.7512,0.465217,-0.0759909,0.0936255,0.00512654,97,611,105.748,28.2771,152.888,150.263,42.111,109.884,0.000133991,0.000128092,0.000479924
-18.2023,4.61846,-298.031,4.09262,-1.26681,-0.501077,-0.00469087,0.00116134,0.00124036,0.00141337,-0.0049429,1.37033,0.00578066,641.479,-80.4551,-45.9923,0.419264,-0.0923221,0.0534942,0.00512652,104,611,105.727,28.258,154.179,150.844,43.5121,110.503,0.000132702,0.000128677,0.000474419
-17.9139,4.60746,-298.022,4.09091,-1.26536,-0.49936,-0.00469944,0.00138175,0.00109768,0.00157382,-0.00489151,1.39757,0.0058397,641.602,-80.5416,-43.8208,0.369868,-0.10231,0.0202043,0.00529603,111,611,105.699,28.2283,155.3,151.403,44.7499,111.112,0.000133025,0.000134283,0.000474418
-17.6245,4.59589,-298.01,4.08916,-1.26353,-0.497252,-0.00468457,0.00154791,0.000977456,0.00169761,-0.00483427,1.41882,0.00587016,641.637,-80.5985,-41.72,0.321671,-0.105334,-0.00531849,0.00531649,118,611,105.669,28.1907,156.473,151.985,46.0348,111.756,0.000131276,0.000134281,0.000467124
-17.3325,4.58454,-297.99,4.08748,-1.26153,-0.49467,-0.00465009,0.00167358,0.000878094,0.00179324,-0.00476975,1.43535,0.00587534,641.626,-80.6912,-39.7997,0.274894,-0.102653,-0.0248832,0.00525236,125,611,105.639,28.153,157.775,152.56,47.442,112.398,0.000127435,0.000132282,0.000452816
-17.0372,4.57312,-297.96,4.08594,-1.25929,-0.491255,-0.00460196,0.00176725,0.000797796,0.00186566,-0.00470037,1.44806,0.00586032,641.46,-80.803,-38.1385,0.231539,-0.097631,-0.0407418,0.00496347,132,611,105.609,28.1103,159.251,153.146,49.009,113.057,0.000120715,0.000122272,0.000428025
-16.7396,4.56214,-297.922,4.0844,-1.25674,-0.487629,-0.00456121,0.00185965,0.000724503,0.00194039,-0.00464194,1.45982,0.00585832,641.231,-80.838,-36.3808,0.200271,-0.0933133,-0.0561904,0.00466896,139,611,105.581,28.0603,160.846,153.713,50.6917,113.704,0.000118208,0.000110645,0.000419135
-16.4442,4.55163,-297.89,4.08293,-1.25434,-0.48414,-0.00451518,0.0019216,0.000675314,0.00199169,-0.00458527,1.46738,0.00584157,640.985,-81.0448,-34.7134,0.17712,-0.0903743,-0.0672536,0.00463674,146,611,105.554,28.0147,162.331,154.249,52.2643,114.318,0.000119801,0.000108112,0.000423752
-16.1512,4.54085,-297.865,4.08142,-1.25222,-0.480681,-0.00447407,0.00194536,0.000634442,0.00200746,-0.00453618,1.47322,0.00580629,640.823,-81.2651,-33.1612,0.161278,-0.0928706,-0.0743164,0.00480585,153,611,105.524,27.9722,163.692,154.801,53.7143,114.937,0.000124118,0.000113702,0.000438442
-15.8598,4.52971,-297.844,4.07985,-1.25016,-0.47755,-0.00443031,0.00196819,0.000603836,0.00202467,-0.0044868,1.47752,0.00577191,640.691,-81.4352,-31.6286,0.153987,-0.0944817,-0.0781421,0.00495935,160,611,105.495,27.9282,164.974,155.369,55.0902,115.569,0.000127583,0.000120227,0.000450642
-15.5678,4.51824,-297.822,4.07829,-1.24791,-0.47398,-0.00440407,0.00197946,0.00057988,0.0020317,-0.00445632,1.48094,0.00574809,640.558,-81.5587,-30.3992,0.158249,-0.100181,-0.0771332,0.00525541,167,611,105.463,27.8822,166.283,155.951,56.4886,116.221,0.000132371,0.000129508,0.00046612
-15.272,4.50745,-297.787,4.07668,-1.2453,-0.470093,-0.00440365,0.0019871,0.000570605,0.00203764,-0.0044542,1.48244,0.00575047,640.381,-81.6996,-28.9628,0.170114,-0.107425,-0.0705803,0.00557959,174,611,105.432,27.831,167.786,156.501,58.0753,116.854,0.000140962,0.000137956,0.000493835
-14.974,4.49669,-297.745,4.075,-1.24233,-0.465871,-0.00442746,0.00199045,0.00057449,0.00204147,-0.00447848,1.48222,0.00577642,640.108,-81.8543,-27.5887,0.1875,-0.112891,-0.0576198,0.00601025,181,611,105.399,27.7766,169.407,157.046,59.7771,117.495,0.000152329,0.000150604,0.000530202
-14.6749,4.48592,-297.699,4.07325,-1.23933,-0.462222,-0.0044544,0.00199058,0.000576873,0.00204181,-0.00450563,1.48223,0.00580253,639.896,-82.0204,-25.7898,0.212985,-0.114764,-0.0429909,0.00632334,188,611,105.37,27.7213,171.074,157.596,61.5297,118.142,0.000158764,0.000160691,0.000554448
-14.3767,4.47465,-297.655,4.07136,-1.23642,-0.458517,-0.00447233,0.0019886,0.000572413,0.00203892,-0.00452265,1.48311,0.00581661,639.768,-82.2166,-23.6854,0.238034,-0.113235,-0.0289904,0.00672676,195,611,105.337,27.6665,172.693,158.173,63.237,118.811,0.000161753,0.000172325,0.00056991
-14.0825,4.46271,-297.623,4.0697,-1.23379,-0.454836,-0.00448114,0.00198532,0.000561473,0.00203371,-0.00452953,1.48483,0.00581931,639.75,-82.4143,-21.5022,0.258991,-0.109047,-0.0168947,0.00697043,202,611,105.307,27.6115,174.116,158.783,64.7437,119.501,0.000166169,0.000178481,0.000590311
-13.7911,4.45089,-297.599,4.0682,-1.2314,-0.450623,-0.00448031,0.00197817,0.000548198,0.00202437,-0.00452651,1.48672,0.00580953,639.688,-82.6108,-19.4305,0.275193,-0.104806,-0.00594428,0.006858,209,611,105.274,27.5575,175.405,159.386,66.1114,120.174,0.000169898,0.000175576,0.000607144
-13.4997,4.43988,-297.574,4.06642,-1.22918,-0.446612,-0.0044798,0.00196481,0.000535362,0.00200898,-0.00452397,1.48848,0.00579576,639.54,-82.7705,-17.844,0.289377,-0.102067,0.00232959,0.0065983,216,611,105.237,27.5039,176.683,159.955,67.4758,120.804,0.000171028,0.000168274,0.000610224
-13.2073,4.42958,-297.546,4.06444,-1.22663,-0.442812,-0.0044793,0.00194575,0.00052046,0.00198764,-0.00452119,1.49049,0.0057774,639.442,-82.7562,-16.1535,0.310082,-0.101171,0.00693122,0.00630387,223,611,105.197,27.4479,178.014,160.479,68.8993,121.404,0.000165258,0.000159025,0.000582688
-12.9132,4.41964,-297.513,4.06232,-1.22361,-0.439218,-0.00447469,0.00192792,0.000497314,0.00196632,-0.00451309,1.49374,0.005754,639.225,-82.639,-14.8553,0.338756,-0.104448,0.00753955,0.00605259,230,611,105.158,27.3891,179.426,160.97,70.4048,121.991,0.000159022,0.000154483,0.000553436
-12.6167,4.40911,-297.471,4.06018,-1.22033,-0.435002,-0.0044516,0.00190931,0.000464675,0.00194308,-0.00448536,1.49826,0.00571047,639.046,-82.5303,-13.4457,0.362374,-0.111886,0.00405774,0.00565465,237,611,105.116,27.3277,180.966,161.494,72.0313,122.621,0.000148421,0.000148888,0.000509813
-12.3189,4.39812,-297.425,4.05834,-1.21722,-0.429585,-0.00440778,0.00188752,0.000426352,0.00191627,-0.00443653,1.50348,0.00564415,638.892,-82.6106,-11.76,0.372703,-0.125074,-0.00274144,0.00541929,244,611,105.075,27.2645,182.589,162.062,73.723,123.28,0.000142184,0.000143289,0.000486457
-12.0209,4.38702,-297.377,4.05651,-1.21432,-0.424224,-0.00436212,0.00186143,0.000383258,0.00188495,-0.00438563,1.50952,0.00557256,638.686,-82.9512,-10.3132,0.375465,-0.143555,-0.0130372,0.00507934,251,611,105.035,27.1986,184.227,162.651,75.4284,123.948,0.000134623,0.000132927,0.00045972
-11.7234,4.37568,-297.33,4.05474,-1.21147,-0.418505,-0.00432578,0.00183421,0.000336626,0.00185255,-0.00434412,1.51637,0.00550917,638.491,-83.2858,-8.5659,0.377335,-0.165692,-0.0237654,0.00457539,258,611,104.995,27.1334,185.844,163.253,77.1087,124.627,0.000122226,0.000118246,0.000417213
-11.4255,4.3643,-297.281,4.05274,-1.20827,-0.413395,-0.00429256,0.00180634,0.000288648,0.00181997,-0.00430619,1.52361,0.00544911,638.264,-83.3691,-7.09093,0.381556,-0.18884,-0.0329984,0.00445998,265,611,104.954,27.0691,187.474,163.841,78.8105,125.31,0.000121122,0.000113959,0.000412693
-11.1267,4.35312,-297.229,4.05053,-1.20503,-0.408949,-0.00425376,0.00177749,0.000235589,0.00178668,-0.00426295,1.53181,0.00538344,638.157,-83.3873,-4.96498,0.379694,-0.209244,-0.0399789,0.0046409,272,611,104.914,27.0025,189.146,164.422,80.5634,125.988,0.000128123,0.000119647,0.000435087
-10.8271,4.34229,-297.173,4.04817,-1.20161,-0.404734,-0.00421373,0.00174833,0.000176303,0.00175354,-0.00421894,1.54126,0.00531718,638.092,-83.3955,-2.7864,0.367065,-0.228918,-0.0436014,0.00481611,279,611,104.874,26.9308,190.861,164.986,82.3637,126.652,0.000133845,0.000124827,0.000454914
-10.5268,4.3318,-297.115,4.04577,-1.19809,-0.400331,-0.00420418,0.00171989,0.0001249,0.00172252,-0.00420681,1.54973,0.00528305,638.01,-83.503,-0.414222,0.340794,-0.245177,-0.0397287,0.00497167,286,611,104.832,26.8561,192.612,165.534,84.1985,127.303,0.00013624,0.000131335,0.000464975
-10.2269,4.3212,-297.057,4.04363,-1.19454,-0.394928,-0.00423674,0.00169992,8.41654e-05,0.00170111,-0.00423793,1.55662,0.00529746,637.751,-83.6793,1.3479,0.305068,-0.255053,-0.0268011,0.00487947,293,611,104.79,26.7786,194.363,166.091,86.0179,127.959,0.00012973,0.000128578,0.000445503
-9.92732,4.31046,-297,4.04144,-1.19095,-0.389217,-0.0042787,0.00169003,4.26741e-05,0.00169033,-0.004279,1.56365,0.00532917,637.414,-83.8828,2.77826,0.275148,-0.256577,-0.0104355,0.00477938,300,611,104.744,26.7014,196.101,166.652,87.8213,128.622,0.00012425,0.000123436,0.000429256
-9.62729,4.2995,-296.94,4.03923,-1.18731,-0.383441,-0.00428818,0.00169452,-1.84076e-05,0.00169458,-0.00428823,-1.56772,0.00534109,637.03,-84.0608,3.9677,0.253023,-0.247325,0.00506526,0.0047692,307,611,104.698,26.6264,197.867,167.224,89.6525,129.299,0.000122079,0.000122757,0.000423444
-9.32661,4.28846,-296.878,4.03679,-1.18355,-0.377806,-0.00424641,0.00170588,-0.000100464,0.00170758,-0.0042481,-1.55392,0.00531189,636.732,-84.1994,5.20358,0.237153,-0.230914,0.0131549,0.0048992,314,611,104.649,26.549,199.666,167.8,91.5218,129.985,0.000124107,0.000125435,0.000431095
-9.0254,4.27773,-296.813,4.03435,-1.17969,-0.372317,-0.00418999,0.00171812,-0.000183793,0.00172383,-0.0041957,-1.53973,0.00527334,636.542,-84.239,6.56378,0.227831,-0.214974,0.0166726,0.00493041,321,611,104.602,26.4672,201.497,168.362,93.4231,130.657,0.000127083,0.000125992,0.000440864
-8.72401,4.26723,-296.747,4.03178,-1.17587,-0.366377,-0.0041501,0.00173181,-0.000261579,0.00174342,-0.00416171,-1.52644,0.00525499,636.261,-84.2743,7.98553,0.224138,-0.201343,0.018107,0.00490099,328,611,104.55,26.3816,203.343,168.922,95.3385,131.321,0.000129091,0.000124647,0.000446986
-8.42251,4.25688,-296.679,4.02922,-1.17206,-0.36054,-0.00411331,0.00174443,-0.000334363,0.00176345,-0.00413233,-1.51396,0.00524148,635.873,-84.3385,9.2811,0.232263,-0.191673,0.0186619,0.00505128,335,611,104.499,26.294,205.201,169.477,97.2647,131.978,0.00013296,0.000124189,0.00045952
-8.12234,4.24639,-296.616,4.0262,-1.16788,-0.356509,-0.00406785,0.00175815,-0.000404214,0.00178606,-0.00409576,-1.50186,0.00522308,635.435,-84.293,10.4831,0.260993,-0.185275,0.0168066,0.0056476,342,611,104.448,26.2104,206.967,170.009,99.1252,132.637,0.000146819,0.000137817,0.000506041
-7.82251,4.23564,-296.552,4.0235,-1.16391,-0.351097,-0.00400943,0.00177344,-0.000466567,0.00181084,-0.00404683,-1.49081,0.00519463,635.104,-84.267,11.9444,0.302614,-0.184149,0.0126258,0.00625624,349,611,104.396,26.131,208.738,170.563,100.971,133.311,0.000160156,0.000156387,0.000551187
-7.52278,4.22493,-296.488,4.02103,-1.16011,-0.345361,-0.00394067,0.00179125,-0.000514606,0.00183708,-0.00398651,-1.48196,0.00515662,634.894,-84.2768,13.6524,0.340163,-0.188914,0.0090487,0.00622983,356,611,104.348,26.0537,210.518,171.124,102.816,133.983,0.000155923,0.000155488,0.000536247
-7.22386,4.2143,-296.426,4.01908,-1.15675,-0.337685,-0.00387424,0.00180926,-0.000545202,0.00186109,-0.00392607,-1.47602,0.00511707,634.651,-84.4079,15.2206,0.364958,-0.199293,0.00766042,0.00560893,363,611,104.299,25.9736,212.289,171.707,104.623,134.648,0.00014073,0.000143627,0.000485219
-6.92373,4.2038,-296.359,4.01703,-1.15315,-0.33022,-0.00382401,0.00182559,-0.000557354,0.00188005,-0.00387847,-1.47339,0.00508614,634.443,-84.5661,16.8506,0.377479,-0.212727,0.0106033,0.004929,370,611,104.251,25.8881,214.127,172.282,106.5,135.313,0.000126988,0.000128841,0.000438938
-6.62212,4.19367,-296.287,4.01451,-1.1491,-0.323874,-0.003798,0.00183945,-0.00055034,0.00189267,-0.00385122,-1.47439,0.00506983,634.216,-84.7642,18.6059,0.386468,-0.227127,0.0174503,0.00440784,377,611,104.201,25.7915,216.032,172.833,108.462,135.968,0.000115743,0.00011201,0.000400405
-6.31748,4.18338,-296.203,4.01148,-1.14441,-0.318404,-0.00379468,0.0018501,-0.000528815,0.00189921,-0.0038438,-1.47819,0.00506774,633.975,-84.9074,20.4377,0.393955,-0.238915,0.0256391,0.00441457,384,611,104.148,25.6864,218.09,173.381,110.593,136.645,0.000116167,0.000107713,0.000402108
-6.01482,4.17244,-296.126,4.00839,-1.13948,-0.312614,-0.00379471,0.00186016,-0.000504879,0.00190489,-0.00383943,-1.48245,0.00506789,633.662,-85.0159,22.3556,0.396891,-0.247861,0.0327509,0.00436317,391,611,104.09,25.5784,220.047,173.946,112.623,137.35,0.000115309,0.000105387,0.000399145
-5.71437,4.16197,-296.054,4.00556,-1.13487,-0.306478,-0.00380703,0.00186639,-0.00047506,0.00190589,-0.00384654,-1.48783,0.00507537,633.372,-85.1476,24.0928,0.391686,-0.253972,0.039245,0.0044199,398,611,104.033,25.4784,221.9,174.486,114.539,138.021,0.000117589,0.000107739,0.000406752
-5.41831,4.15122,-295.997,4.00325,-1.13083,-0.299651,-0.003856,0.00186697,-0.000431197,0.00189928,-0.00388831,-1.49601,0.00510991,633.04,-85.232,25.5805,0.380436,-0.259822,0.0460958,0.00450568,405,611,103.982,25.3901,223.536,175.04,116.223,138.687,0.000120063,0.000109267,0.000414742
-5.12688,4.14086,-295.955,4.0014,-1.12749,-0.293176,-0.00395501,0.00186019,-0.00036807,0.00188339,-0.00397821,-1.50784,0.00518323,632.835,-85.2873,26.8851,0.379125,-0.26117,0.047491,0.00451323,412,611,103.94,25.3156,224.931,175.574,117.659,139.314,0.000119738,0.000108456,0.000413042
-4.83824,4.12991,-295.921,3.99966,-1.12465,-0.28696,-0.00407529,0.00184679,-0.000299843,0.00186193,-0.00409043,-1.52034,0.00527395,632.643,-85.3515,28.2269,0.390714,-0.258199,0.0425218,0.00442826,419,611,103.901,25.251,226.173,176.143,118.944,139.958,0.000116951,0.000105009,0.000403349
-4.5518,4.11906,-295.895,3.99794,-1.12207,-0.280858,-0.00415528,0.00182396,-0.000248024,0.00183423,-0.00416555,-1.52941,0.00532511,632.518,-85.4166,29.8862,0.406566,-0.249535,0.0284993,0.00432674,426,611,103.863,25.1927,227.296,176.703,120.111,140.588,0.000113695,0.000102441,0.000392083
-4.26535,4.10836,-295.868,3.99619,-1.11928,-0.274901,-0.0041867,0.00178944,-0.000208705,0.00179672,-0.00419398,-1.53593,0.00532475,632.362,-85.4832,31.7134,0.419227,-0.23666,0.00813539,0.00426393,433,611,103.824,25.1307,228.421,177.249,121.281,141.211,0.000111723,0.000100951,0.00038552
-3.97884,4.09763,-295.84,3.9944,-1.11632,-0.268985,-0.00420786,0.00174395,-0.000171174,0.00174887,-0.00421278,-1.54207,0.00530789,632.278,-85.5989,33.3175,0.427852,-0.220074,-0.0160818,0.00433774,440,611,103.785,25.0671,229.551,177.79,122.456,141.837,0.000114014,0.00010234,0.000393366
-3.6913,4.08696,-295.807,3.99253,-1.11326,-0.262785,-0.00424447,0.00169529,-0.000128762,0.00169808,-0.00424726,-1.54913,0.00530423,632.234,-85.7489,34.5194,0.434812,-0.202952,-0.0365854,0.00453676,447,611,103.744,25.0005,230.743,178.333,123.69,142.466,0.000119327,0.000107713,0.000411608
-3.40221,4.07657,-295.769,3.99035,-1.10999,-0.256534,-0.00429218,0.00165083,-8.17509e-05,0.00165196,-0.00429331,-1.55704,0.00531543,632.258,-85.9534,35.4407,0.440803,-0.18679,-0.0490936,0.0047853,454,611,103.697,24.9283,232.019,178.864,125.015,143.088,0.000126233,0.000116498,0.000435005
-3.10988,4.06614,-295.719,3.98786,-1.10622,-0.250033,-0.00433278,0.00161211,-3.3925e-05,0.0016123,-0.00433297,-1.56509,0.00532543,632.276,-86.1469,36.5172,0.444409,-0.175175,-0.0547311,0.00493066,461,611,103.644,24.8481,233.477,179.399,126.523,143.73,0.000130424,0.000121951,0.000449091
-2.81416,4.05582,-295.657,3.98507,-1.10209,-0.243615,-0.0043424,0.0015845,1.07712e-05,0.00158452,-0.00434242,1.56898,0.00531488,632.264,-86.2408,38.2001,0.440789,-0.166608,-0.0545771,0.00493993,468,611,103.588,24.7604,235.125,179.935,128.225,144.383,0.000131495,0.000122183,0.000452649
-2.5169,4.04567,-295.588,3.98214,-1.09772,-0.23715,-0.0043137,0.00157173,5.09197e-05,0.00157217,-0.00431414,1.56215,0.00527883,632.096,-86.4158,40.1614,0.425593,-0.165257,-0.0479886,0.00488506,475,611,103.531,24.665,236.865,180.467,130.02,145.036,0.000129647,0.000119937,0.000446981
-2.21969,4.03534,-295.518,3.97928,-1.09334,-0.230392,-0.004265,0.00157253,8.23699e-05,0.00157369,-0.00426616,1.55669,0.00523357,631.777,-86.5549,42.0398,0.401462,-0.172643,-0.0334139,0.004816,482,611,103.473,24.5653,238.613,181.013,131.819,145.7,0.000125831,0.000118746,0.000434023
-1.9248,4.0246,-295.456,3.97663,-1.08902,-0.22357,-0.00420538,0.00157858,0.000104861,0.00158048,-0.00420728,1.55267,0.00518157,631.426,-86.7316,43.3695,0.378598,-0.189812,-0.0124951,0.00475114,489,611,103.419,24.4689,240.242,181.571,133.493,146.376,0.000122222,0.000120185,0.00042056
-1.63165,4.01395,-295.399,3.97414,-1.08479,-0.216188,-0.0041305,0.00158328,0.000119967,0.0015858,-0.00413301,1.54981,0.00511377,631.097,-86.9008,44.6642,0.370198,-0.212395,0.0117824,0.00485517,496,611,103.364,24.3753,241.787,182.118,135.074,147.04,0.000123821,0.000123826,0.000425315
-1.33631,4.00374,-295.334,3.97131,-1.08043,-0.209286,-0.00404251,0.00158469,0.000127783,0.00158759,-0.00404541,1.5481,0.00503073,630.917,-87.0093,45.9597,0.377805,-0.237467,0.0369238,0.00509862,503,611,103.306,24.2788,243.454,182.652,136.787,147.693,0.000126781,0.000129321,0.000435727
-1.04097,3.99301,-295.267,3.96843,-1.07584,-0.202611,-0.00395386,0.00158592,0.000127749,0.00158886,-0.0039568,1.54775,0.00494647,630.652,-86.9852,47.0893,0.391336,-0.259644,0.0619533,0.0052749,510,611,103.25,24.1758,245.124,183.208,138.506,148.375,0.000128288,0.000134079,0.000441264
-0.744975,3.98274,-295.198,3.96531,-1.07123,-0.196348,-0.00386716,0.00158148,0.000121662,0.00158419,-0.00386987,1.54848,0.00485965,630.374,-87.0321,48.5587,0.402824,-0.281558,0.0836156,0.00534057,517,611,103.191,24.0758,246.831,183.741,140.269,149.038,0.000129348,0.000136231,0.000443969
-0.448996,3.97243,-295.127,3.96256,-1.06658,-0.189291,-0.00379599,0.00158037,0.00011306,0.00158274,-0.00379837,1.54978,0.00479004,630.041,-87.0966,49.8666,0.419574,-0.301201,0.0968344,0.00541264,524,611,103.137,23.9733,248.563,184.279,142.039,149.704,0.00013332,0.000137652,0.000456367
-0.155824,3.96183,-295.066,3.96012,-1.06221,-0.181821,-0.00372905,0.00157068,0.000107639,0.00157286,-0.00373123,1.5505,0.00471855,629.796,-87.1171,50.9582,0.455635,-0.319979,0.107566,0.0055322,531,611,103.085,23.874,250.151,184.83,143.655,150.373,0.000139158,0.000138029,0.000475016
0.136117,3.95159,-295.008,3.95776,-1.058,-0.174835,-0.0036783,0.00155605,0.000108289,0.00155829,-0.00368054,1.55012,0.0046594,629.623,-87.1354,52.1853,0.497159,-0.334554,0.112588,0.00556453,538,611,103.039,23.7813,251.672,185.359,145.207,151.018,0.000141965,0.000138346,0.000483016
0.427279,3.94125,-294.953,3.9553,-1.05389,-0.167672,-0.00364449,0.00154109,0.000110896,0.00154346,-0.00364686,1.54942,0.00461634,629.545,-87.2133,53.6794,0.531501,-0.342739,0.113248,0.00548959,545,611,102.988,23.6886,253.154,185.897,146.72,151.667,0.000140469,0.000137889,0.000475735
0.717857,3.93095,-294.898,3.95307,-1.04966,-0.159954,-0.003641,0.00152987,0.000114884,0.00153242,-0.00364355,1.54859,0.00460514,629.604,-87.3405,55.1984,0.549337,-0.340983,0.109285,0.00546778,552,611,102.94,23.5917,254.62,186.428,148.205,152.311,0.000140392,0.000139007,0.000474511
1.00722,3.92047,-294.847,3.95085,-1.04558,-0.152704,-0.00369838,0.00153169,0.00012359,0.00153461,-0.0037013,1.54718,0.00466205,629.612,-87.5189,56.779,0.546456,-0.327314,0.102923,0.00553171,559,611,102.894,23.4975,256.016,186.969,149.626,152.96,0.00014447,0.000140605,0.00048786
1.29587,3.91008,-294.798,3.94848,-1.04142,-0.14593,-0.00385354,0.00155809,0.000146228,0.00156204,-0.00385749,1.5438,0.00483174,629.497,-87.6357,58.4659,0.516292,-0.30406,0.0967228,0.00562103,566,611,102.847,23.4021,257.37,187.498,151.01,153.602,0.000149853,0.000140524,0.000504453
1.58425,3.89986,-294.749,3.94608,-1.03716,-0.139103,-0.00409601,0.00162289,0.000187319,0.00162902,-0.00410214,1.53809,0.00511505,629.281,-87.8612,59.8601,0.447256,-0.268947,0.0863142,0.00583235,573,611,102.799,23.3069,258.714,188.013,152.386,154.235,0.000155798,0.00014083,0.00052265
0,0,0,0,0,0,0,0,0,0,0,0,0,0,0,0,0,0,0,-1,580,611,0,0,0,0,0,0,0,0,0
0,0,0,0,0,0,0,0,0,0,0,0,0,0,0,0,0,0,0,-1,587,611,0,0,0,0,0,0,0,0,0
0,0,0,0,0,0,0,0,0,0,0,0,0,0,0,0,0,0,0,-1,594,611,0,0,0,0,0,0,0,0,0
0,0,0,0,0,0,0,0,0,0,0,0,0,0,0,0,0,0,0,-1,601,611,0,0,0,0,0,0,0,0,0
0,0,0,0,0,0,0,0,0,0,0,0,0,0,0,0,0,0,0,-1,62,618,0,0,0,0,0,0,0,0,0
0,0,0,0,0,0,0,0,0,0,0,0,0,0,0,0,0,0,0,-1,69,618,0,0,0,0,0,0,0,0,0
0,0,0,0,0,0,0,0,0,0,0,0,0,0,0,0,0,0,0,-1,76,618,0,0,0,0,0,0,0,0,0
0,0,0,0,0,0,0,0,0,0,0,0,0,0,0,0,0,0,0,-1,83,618,0,0,0,0,0,0,0,0,0
0,0,0,0,0,0,0,0,0,0,0,0,0,0,0,0,0,0,0,-1,90,618,0,0,0,0,0,0,0,0,0
-18.4644,4.35858,-297.925,4.09336,-1.26528,-0.496225,-0.00436088,0.000769514,0.00132964,0.00109364,-0.00468501,1.33169,0.00531686,640.485,-80.0564,-46.9443,0.482988,-0.0823133,0.11235,0.00500436,97,618,105.715,28.2392,154.285,151.187,43.4469,110.909,0.000131377,0.00012422,0.000473234
-18.1814,4.34752,-297.933,4.09229,-1.26463,-0.494357,-0.00445992,0.00109612,0.00113942,0.00132071,-0.00468451,1.37618,0.00546588,640.69,-80.2133,-45.4004,0.434272,-0.0986022,0.0724494,0.00501865,104,618,105.697,28.2288,155.165,151.749,44.4287,111.499,0.00013161,0.000124324,0.000471536
-17.8967,4.33628,-297.935,4.09098,-1.26343,-0.492185,-0.00450336,0.00133186,0.000977826,0.00149136,-0.00466286,1.40911,0.00556061,640.872,-80.3467,-43.3121,0.380449,-0.106938,0.0377756,0.00512671,111,618,105.672,28.2059,156.125,152.312,45.4924,112.106,0.000130491,0.000128177,0.000466883
-17.6099,4.32477,-297.931,4.08948,-1.2617,-0.4899,-0.00451595,0.00150332,0.000845575,0.00161985,-0.00463248,1.43385,0.00562029,640.931,-80.4012,-41.2118,0.326763,-0.105877,0.0102635,0.0051208,118,618,105.644,28.1716,157.176,152.881,46.6488,112.735,0.000128102,0.000127712,0.000457103
-17.3193,4.31352,-297.914,4.08791,-1.2598,-0.487167,-0.00450484,0.00162921,0.00074192,0.00171767,-0.0045933,1.45212,0.00565142,640.959,-80.5072,-39.157,0.273622,-0.0962109,-0.0113269,0.0050665,125,618,105.615,28.1339,158.417,153.45,47.9915,113.367,0.000124897,0.00012582,0.000443423
-17.0258,4.30228,-297.889,4.08645,-1.25766,-0.48375,-0.00447642,0.00172017,0.00066355,0.00179043,-0.00454668,1.46531,0.00565848,640.894,-80.623,-37.3076,0.22375,-0.081758,-0.0296166,0.00484074,132,618,105.586,28.0916,159.813,154.025,49.4781,114.01,0.000121462,0.000117967,0.000429301
-16.7318,4.29131,-297.862,4.085,-1.25536,-0.480438,-0.00445327,0.00180992,0.00059682,0.00186629,-0.00450963,1.47664,0.00567768,640.743,-80.6959,-35.5016,0.185733,-0.0669999,-0.0475939,0.00474038,139,618,105.559,28.046,161.232,154.584,50.9864,114.643,0.000123144,0.00011102,0.000434695
-16.439,4.28053,-297.838,4.08354,-1.25325,-0.477138,-0.00442357,0.00186811,0.00055914,0.00191742,-0.00447287,1.48285,0.00567974,640.552,-80.8785,-33.704,0.157224,-0.054222,-0.0611583,0.00475435,146,618,105.531,28.0052,162.586,155.133,52.4304,115.26,0.000124595,0.000109829,0.00044031
-16.1469,4.26957,-297.816,4.08201,-1.25135,-0.473821,-0.00440069,0.00188879,0.000530324,0.00193319,-0.00444509,1.48726,0.00566474,640.407,-81.0673,-32.1908,0.137203,-0.0492641,-0.0703377,0.00492739,153,618,105.501,27.9664,163.903,155.699,53.8397,115.885,0.000128853,0.000115608,0.000456508
-15.8558,4.25849,-297.796,4.08048,-1.24938,-0.470546,-0.00437064,0.00191708,0.000515908,0.00195913,-0.00441269,1.48947,0.00565288,640.208,-81.2542,-30.7866,0.125873,-0.0446928,-0.0758464,0.00509808,160,618,105.472,27.9253,165.171,156.266,55.1997,116.513,0.000133275,0.000122866,0.0004731
-15.5637,4.24721,-297.772,4.07893,-1.24714,-0.466651,-0.00435539,0.00193568,0.000508099,0.00197645,-0.00439616,1.49072,0.0056499,640.061,-81.4077,-29.4911,0.127915,-0.0461864,-0.0764657,0.00533437,167,618,105.438,27.8803,166.497,156.838,56.6117,117.156,0.000137034,0.000131292,0.00048471
-15.2679,4.23651,-297.737,4.0773,-1.2444,-0.462679,-0.00436523,0.00195348,0.000514447,0.00199509,-0.00440684,1.49009,0.00567386,639.853,-81.5252,-28.1867,0.139988,-0.0509055,-0.0721067,0.00555812,174,618,105.406,27.8279,168.003,157.38,58.201,117.785,0.000143284,0.000138649,0.000503646
-14.97,4.22601,-297.695,4.07558,-1.24135,-0.458585,-0.0044004,0.00197158,0.000531933,0.00201568,-0.0044445,1.48808,0.00572496,639.583,-81.6741,-26.9025,0.160302,-0.0539003,-0.0622089,0.00583082,181,618,105.373,27.7714,169.619,157.91,59.8995,118.413,0.000150757,0.000147889,0.00052611
-14.6715,4.21556,-297.651,4.07383,-1.23825,-0.45507,-0.00443796,0.00199183,0.000541677,0.00203714,-0.00448327,1.48734,0.00577778,639.396,-81.7974,-25.1066,0.191441,-0.0536686,-0.0512953,0.00609577,188,618,105.344,27.7151,171.255,158.437,61.6218,119.041,0.000156754,0.000156103,0.000547508
-14.3741,4.20433,-297.61,4.0719,-1.23538,-0.451388,-0.00446139,0.0020127,0.000538589,0.0020572,-0.00450589,1.48836,0.00581417,639.253,-81.9997,-23.1115,0.223233,-0.0510395,-0.040655,0.00646684,195,618,105.31,27.6591,172.839,159.014,63.2954,119.708,0.000159941,0.000166045,0.000561808
-14.0794,4.19228,-297.576,4.07012,-1.23281,-0.447742,-0.00447129,0.0020332,0.000525202,0.00207533,-0.00451343,1.49074,0.0058348,639.138,-82.206,-21.1692,0.251826,-0.0468952,-0.0314447,0.00672045,202,618,105.278,27.604,174.285,159.635,64.829,120.405,0.000164334,0.00017234,0.000581405
-13.7878,4.18051,-297.551,4.06848,-1.23046,-0.443625,-0.00447102,0.00204768,0.000507806,0.002087,-0.00451034,1.49352,0.00584053,639.041,-82.4344,-19.1566,0.275561,-0.0450914,-0.0226241,0.00659187,209,618,105.243,27.551,175.584,160.238,66.2103,121.076,0.000167849,0.000168956,0.000597597
-13.4973,4.16953,-297.53,4.06685,-1.22824,-0.439301,-0.00446779,0.00205158,0.000490178,0.00208823,-0.00450444,1.49617,0.00583584,638.958,-82.5856,-17.4589,0.294458,-0.046052,-0.0165062,0.00625057,216,618,105.206,27.499,176.824,160.802,67.5312,121.702,0.000167578,0.000159702,0.000595667
-13.2065,4.15914,-297.506,4.06507,-1.22578,-0.43517,-0.00445614,0.00204436,0.000468441,0.00207795,-0.00448972,1.49923,0.00581419,638.907,-82.6284,-15.6812,0.316828,-0.0499438,-0.0137829,0.0059856,223,618,105.168,27.4459,178.082,161.326,68.8742,122.299,0.000160047,0.000150287,0.000563316
-12.9146,4.14887,-297.48,4.06313,-1.22298,-0.431373,-0.00443412,0.00203346,0.000435649,0.00206267,-0.00446334,1.50384,0.00577775,638.798,-82.5684,-14.1546,0.346258,-0.0596053,-0.0140743,0.00572004,230,618,105.129,27.3927,179.388,161.831,70.2694,122.896,0.000152487,0.000145597,0.000530923
-12.62,4.13844,-297.444,4.06105,-1.22001,-0.427427,-0.00439301,0.0020159,0.000393553,0.00203998,-0.00441709,1.5097,0.0057169,638.695,-82.5399,-12.4675,0.370445,-0.0753057,-0.0162911,0.00541427,237,618,105.09,27.3357,180.83,162.354,71.7999,123.513,0.000140164,0.000141773,0.000482792
-12.3227,4.12763,-297.399,4.05921,-1.21706,-0.422202,-0.0043328,0.00198902,0.000347814,0.0020081,-0.00435188,1.516,0.00563119,638.587,-82.6462,-10.6573,0.381178,-0.0981276,-0.0198382,0.00529898,244,618,105.05,27.2743,182.429,162.918,73.4686,124.162,0.000137232,0.000139363,0.000469815
-12.0244,4.11683,-297.35,4.05744,-1.21416,-0.41675,-0.00427368,0.00195172,0.000299467,0.0019661,-0.00428805,1.52284,0.00553928,638.387,-82.8896,-9.325,0.383451,-0.127083,-0.0256575,0.00497439,251,618,105.011,27.2081,184.086,163.495,75.1913,124.816,0.000131867,0.000129905,0.00045023
-11.726,4.10576,-297.3,4.05559,-1.21119,-0.411181,-0.00422841,0.00190926,0.000249423,0.00191938,-0.00423853,1.53025,0.00545752,638.229,-83.1586,-7.68653,0.384649,-0.160511,-0.0309174,0.00456254,258,618,104.971,27.142,185.754,164.084,76.9245,125.487,0.000122809,0.00011741,0.000419131
-11.427,4.09473,-297.248,4.05352,-1.20784,-0.4061,-0.00419098,0.0018634,0.000200261,0.00187001,-0.0041976,1.53777,0.00538204,637.95,-83.1736,-6.37925,0.388549,-0.195238,-0.033568,0.00437936,265,618,104.93,27.0757,187.442,164.654,78.6854,126.158,0.000119563,0.000111331,0.000407876
-11.1274,4.08375,-297.193,4.0514,-1.20438,-0.40128,-0.00415282,0.00181588,0.000149127,0.0018196,-0.00415654,1.54583,0.00530575,637.696,-83.1147,-4.7344,0.384783,-0.226109,-0.0326509,0.00439932,272,618,104.89,27.0072,189.163,165.223,80.4808,126.831,0.000120984,0.000111065,0.000412393
-10.8276,4.07293,-297.137,4.04919,-1.20094,-0.396567,-0.00411722,0.00176806,9.38291e-05,0.00176956,-0.00411872,1.55486,0.00523293,637.558,-83.1088,-2.57367,0.369888,-0.255651,-0.0277419,0.00452847,279,618,104.851,26.9354,190.897,165.79,82.2911,127.498,0.000124152,0.000114806,0.000423499
-10.5282,4.06229,-297.081,4.04692,-1.19754,-0.392007,-0.00410865,0.00172031,4.74724e-05,0.00172069,-0.00410904,1.56265,0.005188,637.417,-83.2607,-0.345558,0.342913,-0.280662,-0.0159915,0.00461566,286,618,104.81,26.8605,192.607,166.35,84.0808,128.154,0.000123728,0.000119138,0.000424278
-10.2294,4.05165,-297.027,4.04482,-1.19402,-0.386859,-0.00413666,0.00168446,9.49265e-06,0.00168447,-0.00413667,1.56917,0.00518822,637.185,-83.4669,1.47453,0.308164,-0.296435,0.00216649,0.00467678,293,618,104.77,26.784,194.302,166.905,85.8448,128.808,0.000120873,0.000121236,0.000416898
-9.93106,4.04096,-296.974,4.04263,-1.19054,-0.381536,-0.00417118,0.00166355,-3.37549e-05,0.00166375,-0.00417137,-1.56501,0.00520658,636.972,-83.7297,3.27092,0.27898,-0.299909,0.0195197,0.00480995,300,618,104.726,26.7092,195.973,167.462,87.5862,129.465,0.000122339,0.000123846,0.000423642
-9.63251,4.03005,-296.919,4.04041,-1.18699,-0.375925,-0.00417524,0.00166359,-0.000100991,0.00166533,-0.00417698,-1.55351,0.00521312,636.714,-83.9778,4.70588,0.255767,-0.287084,0.032572,0.00502019,307,618,104.68,26.6385,197.661,168.027,89.3418,130.135,0.000125505,0.000128998,0.000435672
-9.3333,4.01924,-296.861,4.03803,-1.18334,-0.370243,-0.00413519,0.00167465,-0.000188356,0.00168075,-0.00414129,-1.53842,0.00518995,636.482,-84.126,6.07085,0.236962,-0.262927,0.0352667,0.00528032,314,618,104.63,26.5659,199.386,168.588,91.1357,130.804,0.000130676,0.000135121,0.000453911
-9.03282,4.00884,-296.798,4.03565,-1.17961,-0.36464,-0.00407908,0.00168667,-0.000274021,0.00169966,-0.00409208,-1.52341,0.00515646,636.251,-84.1384,7.31283,0.223774,-0.239289,0.0321213,0.00529241,321,618,104.584,26.4877,201.183,169.136,93.0004,131.459,0.000133359,0.000135502,0.000462594
-8.73103,3.99863,-296.731,4.03307,-1.1758,-0.358946,-0.00403023,0.00170147,-0.000353087,0.00172314,-0.0040519,-1.5095,0.00513509,635.901,-84.1383,8.53577,0.214922,-0.219116,0.0258554,0.00515684,328,618,104.533,26.4028,203.05,169.684,94.9384,132.111,0.000132545,0.000132287,0.000458859
-8.42857,3.9884,-296.66,4.03047,-1.17189,-0.353275,-0.00398155,0.00171724,-0.000424835,0.00174874,-0.00401304,-1.49679,0.00511668,635.529,-84.156,9.89306,0.216755,-0.204711,0.0184604,0.00504213,335,618,104.484,26.3128,204.958,170.238,96.9166,132.769,0.000129979,0.000126439,0.000449179
-8.1269,3.97805,-296.591,4.02786,-1.16778,-0.347865,-0.00393098,0.0017405,-0.000491094,0.00178271,-0.00397319,-1.48506,0.00510366,635.123,-84.1118,11.1845,0.241218,-0.194949,0.00906101,0.00507544,342,618,104.435,26.2255,206.828,170.782,98.8582,133.43,0.000128872,0.000126039,0.000444335
-7.82745,3.96714,-296.529,4.02559,-1.16393,-0.341432,-0.00387833,0.00177049,-0.000548088,0.00182317,-0.00393102,-1.47496,0.00509351,634.861,-84.0888,12.8638,0.280971,-0.191913,-0.00154017,0.00513254,349,618,104.386,26.145,208.6,171.354,100.685,134.112,0.00012711,0.000127032,0.000437533
-7.52917,3.95645,-296.47,4.02353,-1.1604,-0.334819,-0.00382437,0.00180946,-0.000587901,0.00187015,-0.00388506,-1.46792,0.00508496,634.589,-84.1516,14.4739,0.318091,-0.197054,-0.00923342,0.00485941,356,618,104.341,26.0685,210.321,171.924,102.454,134.778,0.000119173,0.000119368,0.000409981
-7.23307,3.94596,-296.417,4.02143,-1.15704,-0.328622,-0.00378073,0.00185347,-0.000609243,0.0019186,-0.00384586,-1.4643,0.00508432,634.397,-84.2714,16.1489,0.344886,-0.210871,-0.0126974,0.00463215,363,618,104.297,25.9936,211.925,172.481,104.112,135.426,0.000116272,0.000115778,0.000400597
-6.93702,3.93543,-296.364,4.01924,-1.15365,-0.322785,-0.00375392,0.00189729,-0.000610866,0.00196256,-0.00381919,-1.46434,0.00509248,634.196,-84.4309,17.6824,0.36164,-0.229861,-0.0102066,0.00430773,370,618,104.253,25.9167,213.525,173.039,105.77,136.076,0.000112771,0.000110997,0.00038959
-6.63984,3.92531,-296.306,4.01695,-1.14998,-0.317181,-0.00374858,0.00193875,-0.000593008,0.00199993,-0.00380976,-1.468,0.00511207,634.007,-84.6196,19.143,0.377099,-0.251623,-0.00298681,0.00433889,377,618,104.209,25.8337,215.189,173.575,107.494,136.711,0.000113493,0.000107383,0.000392977
-6.34156,3.91518,-296.244,4.01459,-1.14605,-0.311411,-0.00376345,0.0019766,-0.000561556,0.00203102,-0.00381787,-1.47419,0.00514348,633.782,-84.7796,20.5915,0.390751,-0.270506,0.00584382,0.00435793,384,618,104.165,25.7446,216.917,174.111,109.282,137.353,0.000114785,0.000103003,0.000397522
-6.0427,3.90447,-296.179,4.01204,-1.14169,-0.305299,-0.00378337,0.00201238,-0.000528981,0.00206026,-0.00383125,-1.48052,0.00517847,633.566,-84.9518,22.4547,0.397669,-0.285339,0.0133968,0.00434921,391,618,104.114,25.6488,218.681,174.665,111.104,138.03,0.000115247,0.00010163,0.000399124
-5.74385,3.89381,-296.114,4.00936,-1.1373,-0.298932,-0.00381684,0.00203727,-0.000489936,0.00207799,-0.00385756,-1.48787,0.00521678,633.341,-85.1328,24.3979,0.394985,-0.296053,0.0204615,0.00438054,398,618,104.059,25.5532,220.449,175.218,112.931,138.705,0.000116305,0.00010483,0.000402797
-5.44684,3.88317,-296.053,4.00685,-1.13321,-0.292454,-0.00388243,0.00204929,-0.000437604,0.0020814,-0.00391454,-1.49755,0.00527291,633.037,-85.2005,26.2864,0.386822,-0.306245,0.0277497,0.00442503,405,618,104.005,25.463,222.127,175.771,114.664,139.372,0.000117621,0.000107501,0.000407116
-5.15303,3.87286,-296.003,4.0046,-1.12962,-0.286322,-0.00398696,0.00204283,-0.000368737,0.0020653,-0.00400942,-1.50995,0.00534991,632.776,-85.2524,27.696,0.389644,-0.309806,0.0278474,0.00442623,412,618,103.959,25.3832,223.638,176.308,116.228,140.008,0.000117867,0.000109103,0.00040761
-4.86149,3.8622,-295.96,4.00255,-1.12646,-0.2803,-0.00409642,0.00202008,-0.000299855,0.00203474,-0.00411108,-1.52193,0.00542274,632.537,-85.2771,29.0388,0.404103,-0.306631,0.0206131,0.00434345,419,618,103.917,25.3115,225.03,176.868,117.67,140.652,0.000115198,0.000107758,0.000398019
-4.57184,3.85151,-295.923,4.00071,-1.12351,-0.274011,-0.00416335,0.0019787,-0.000250189,0.00198887,-0.00417353,-1.53015,0.00544743,632.336,-85.3201,30.5057,0.42065,-0.295268,0.00391013,0.00432102,426,618,103.877,25.245,226.33,177.427,119.012,141.29,0.000113386,0.000106611,0.000391208
-4.28437,3.84085,-295.892,3.99896,-1.12049,-0.267899,-0.00418946,0.00191622,-0.000211933,0.00192357,-0.00419681,-1.53614,0.0054209,632.249,-85.3938,32.3987,0.430233,-0.278036,-0.018267,0.00435173,433,618,103.838,25.179,227.513,177.969,120.238,141.917,0.000113656,0.000106068,0.000392202
-3.99795,3.83015,-295.864,3.99723,-1.11744,-0.261949,-0.00420526,0.00183565,-0.000175274,0.00184073,-0.00421034,-1.54181,0.00537265,632.183,-85.5385,33.7796,0.431292,-0.256613,-0.0433962,0.00450228,440,618,103.801,25.1149,228.64,178.504,121.407,142.541,0.000118028,0.000107347,0.000407131
-3.71099,3.81954,-295.834,3.99535,-1.1144,-0.255812,-0.00423117,0.00174918,-0.000133556,0.00175216,-0.00423415,-1.54848,0.00533076,632.191,-85.6801,35.0799,0.427468,-0.235571,-0.0624046,0.00473707,447,618,103.759,25.05,229.798,179.042,122.609,143.164,0.000124732,0.000110717,0.000430376
-3.4219,3.80905,-295.796,3.99312,-1.11115,-0.249554,-0.00426598,0.00167095,-8.55693e-05,0.00167218,-0.00426722,-1.55639,0.0053048,632.18,-85.8684,36.0921,0.42465,-0.217576,-0.069934,0.00504655,454,618,103.711,24.9773,231.071,179.582,123.932,143.793,0.000133273,0.000118365,0.000459312
-3.12774,3.79884,-295.74,3.99038,-1.10735,-0.243142,-0.00429638,0.00160457,-3.68621e-05,0.0016048,-0.00429661,-1.56455,0.00528502,632.206,-86.0753,37.5172,0.424502,-0.205912,-0.0693196,0.00515755,461,618,103.655,24.8956,232.624,180.116,125.541,144.434,0.000136492,0.000122309,0.000469888
-2.82958,3.78902,-295.669,3.98736,-1.10299,-0.236976,-0.00429574,0.00155649,8.24322e-06,0.0015565,-0.00429575,1.56939,0.00525,632.12,-86.1921,38.9639,0.418752,-0.198226,-0.0625973,0.00514524,468,618,103.597,24.8019,234.403,180.636,127.38,145.075,0.000136555,0.000122085,0.000470267
-2.53135,3.77897,-295.597,3.98446,-1.09845,-0.230383,-0.00426052,0.00153372,4.86671e-05,0.00153413,-0.00426093,1.5624,0.00520057,631.926,-86.3389,40.687,0.400387,-0.200598,-0.0493035,0.00497882,475,618,103.541,24.7027,236.2,181.166,129.23,145.731,0.000132501,0.000119953,0.000456699
-2.2345,3.76883,-295.529,3.98183,-1.094,-0.223255,-0.00420904,0.00153334,8.04702e-05,0.00153447,-0.00421017,1.55679,0.00515175,631.596,-86.4714,42.3438,0.372793,-0.213459,-0.0272174,0.00484265,482,618,103.487,24.6039,237.938,181.7,131.008,146.386,0.000126974,0.000120027,0.000437383
-1.94189,3.75827,-295.475,3.97953,-1.08991,-0.216462,-0.00414714,0.00154169,0.000104032,0.00154359,-0.00414904,1.55252,0.00509918,631.23,-86.6969,43.4647,0.348209,-0.237232,0.00081116,0.004774,489,618,103.439,24.5128,239.446,182.245,132.553,147.043,0.000121925,0.000120803,0.000419201
-1.6504,3.74793,-295.424,3.97711,-1.08587,-0.209354,-0.00406779,0.00154921,0.000120132,0.00155178,-0.00407036,1.54942,0.00502913,630.842,-86.8961,44.6466,0.339975,-0.265762,0.0307397,0.00480864,496,618,103.386,24.4248,240.895,182.773,134.041,147.684,0.000123025,0.000122738,0.00042256
-1.35497,3.73784,-295.358,3.97415,-1.0816,-0.202329,-0.00397334,0.00155285,0.000128098,0.00155581,-0.00397631,1.54763,0.00494145,630.585,-86.9823,46.1462,0.349047,-0.295475,0.0594884,0.00496969,503,618,103.325,24.331,242.563,183.307,135.758,148.334,0.000125795,0.000127081,0.000432013
-1.05787,3.72733,-295.285,3.97097,-1.07692,-0.196077,-0.00387575,0.00155491,0.000127188,0.00155788,-0.00387873,1.54739,0.00484914,630.35,-86.9915,47.5643,0.36646,-0.319646,0.086795,0.00510694,510,618,103.265,24.227,244.323,183.86,137.576,149.016,0.000127245,0.000130918,0.000437446
-0.760029,3.71711,-295.209,3.96777,-1.07217,-0.189612,-0.00377994,0.00154697,0.000119197,0.00154964,-0.0037826,1.54843,0.00475091,630.098,-86.9985,49.2277,0.384018,-0.342503,0.110166,0.00518614,517,618,103.205,24.1241,246.137,184.399,139.445,149.688,0.000128942,0.000132983,0.000442906
-0.462763,3.70696,-295.134,3.96509,-1.06734,-0.18232,-0.00370585,0.00154025,0.000106874,0.00154243,-0.00370802,1.55044,0.00467417,629.747,-87.0268,50.3688,0.409713,-0.362111,0.123983,0.00531505,524,618,103.153,24.0165,247.948,184.935,141.289,150.355,0.000136187,0.000135517,0.00046756
-0.169093,3.69646,-295.071,3.96276,-1.06276,-0.174952,-0.00363844,0.0015215,9.86426e-05,0.00152338,-0.00364032,1.55169,0.00459546,629.539,-87.0229,51.5875,0.453775,-0.379006,0.134536,0.0055306,531,618,103.106,23.9111,249.567,185.482,142.933,151.024,0.00014417,0.000138136,0.000494317
0.122769,3.68605,-295.014,3.96051,-1.05847,-0.168266,-0.00358618,0.00149391,9.62878e-05,0.00149573,-0.003588,1.55185,0.00452523,629.287,-87.0172,52.7367,0.504523,-0.390312,0.139341,0.00568041,538,618,103.064,23.8142,251.084,186.022,144.48,151.68,0.00014886,0.000140116,0.000509969
0.413732,3.67567,-294.959,3.95813,-1.05428,-0.1612,-0.00354807,0.00146348,9.44993e-05,0.00146526,-0.00354985,1.55195,0.00446653,629.124,-87.1633,54.1477,0.548451,-0.394018,0.140518,0.00561639,545,618,103.016,23.7203,252.556,186.559,145.981,152.332,0.000147431,0.00014156,0.000502591
0.70385,3.6653,-294.906,3.95594,-1.05022,-0.153813,-0.00353927,0.00143511,9.17221e-05,0.0014368,-0.00354096,1.55237,0.00443739,629.051,-87.3488,55.8134,0.57496,-0.386949,0.137602,0.00570597,552,618,102.97,23.6257,253.992,187.101,147.44,152.979,0.000148424,0.000145281,0.000504382
0.991742,3.65521,-294.861,3.95383,-1.04638,-0.146841,-0.00359386,0.00142171,9.12029e-05,0.00142337,-0.00359552,1.55262,0.00448012,629.057,-87.5258,57.5807,0.579463,-0.367602,0.133286,0.0057523,559,618,102.928,23.5369,255.303,187.621,148.775,153.602,0.000152242,0.000144165,0.000516158
1.27856,3.64501,-294.818,3.95181,-1.04252,-0.139907,-0.00375158,0.00143945,0.00010305,0.0014415,-0.00375362,1.55096,0.00464526,628.988,-87.6285,59.4393,0.556993,-0.339334,0.13114,0.00580357,566,618,102.887,23.4496,256.558,188.141,150.053,154.226,0.000156312,0.000140353,0.000527725
1.56492,3.63487,-294.777,3.94965,-1.03855,-0.133271,-0.00400027,0.00150574,0.00013171,0.00150889,-0.00400342,1.54689,0.00493405,628.954,-87.807,60.9364,0.496851,-0.300829,0.126053,0.00587072,573,618,102.845,23.3629,257.786,188.649,151.309,154.846,0.000159132,0.000138148,0.000534602
0,0,0,0,0,0,0,0,0,0,0,0,0,0,0,0,0,0,0,-1,580,618,0,0,0,0,0,0,0,0,0
0,0,0,0,0,0,0,0,0,0,0,0,0,0,0,0,0,0,0,-1,587,618,0,0,0,0,0,0,0,0,0
0,0,0,0,0,0,0,0,0,0,0,0,0,0,0,0,0,0,0,-1,594,618,0,0,0,0,0,0,0,0,0
0,0,0,0,0,0,0,0,0,0,0,0,0,0,0,0,0,0,0,-1,601,618,0,0,0,0,0,0,0,0,0
0,0,0,0,0,0,0,0,0,0,0,0,0,0,0,0,0,0,0,-1,62,625,0,0,0,0,0,0,0,0,0
0,0,0,0,0,0,0,0,0,0,0,0,0,0,0,0,0,0,0,-1,69,625,0,0,0,0,0,0,0,0,0
0,0,0,0,0,0,0,0,0,0,0,0,0,0,0,0,0,0,0,-1,76,625,0,0,0,0,0,0,0,0,0
-18.9661,4.11258,-297.684,4.09235,-1.26341,-0.494681,0,0,0,0,0,0,0,0,0,0,0,0,0,-1,83,625,105.707,28.2214,155.523,150.99,44.4713,110.765,0.000133055,0.000125575,0.000484192
-18.6962,4.10092,-297.73,4.09248,-1.26294,-0.491846,0,0,0,0,0,0,0,0,0,0,0,0,0,-1,90,625,105.697,28.2073,155.815,151.536,44.8341,111.333,0.000128576,0.000121089,0.00046629
-18.4287,4.08909,-297.783,4.09243,-1.2628,-0.48935,-0.00402581,0.000745126,0.00123382,0.00104532,-0.00432601,1.33213,0.00493245,639.746,-79.699,-45.7804,0.495867,-0.0948944,0.135361,0.00482453,97,625,105.684,28.2045,155.979,152.086,45.0769,111.9,0.000127983,0.000118761,0.000462275
-18.1641,4.0761,-297.845,4.09221,-1.26255,-0.487245,-0.00419054,0.00109294,0.00102122,0.00128346,-0.00438106,1.38636,0.0051443,640.063,-79.9066,-44.4188,0.446904,-0.110462,0.0991255,0.00478183,104,625,105.667,28.2,155.981,152.678,45.1673,112.514,0.000126672,0.000117686,0.000456244
-17.8816,4.06474,-297.854,4.09113,-1.26156,-0.484954,-0.00428268,0.00133357,0.000842314,0.00145718,-0.00440629,1.42509,0.00528768,640.221,-80.081,-42.6228,0.390676,-0.115678,0.0648519,0.00482723,111,625,105.645,28.1843,156.843,153.241,46.1273,113.118,0.000125786,0.000120452,0.000452207
-17.5978,4.05346,-297.858,4.08996,-1.26012,-0.482636,-0.00433468,0.00149831,0.000700093,0.00158116,-0.00441753,1.453,0.00538512,640.31,-80.197,-40.6279,0.333075,-0.108413,0.0359901,0.00481852,118,625,105.621,28.1563,157.762,153.793,47.1441,113.722,0.000122629,0.000120813,0.000438778
-17.3095,4.04259,-297.849,4.08863,-1.25838,-0.479811,-0.00435699,0.0016124,0.00059496,0.00167112,-0.00441571,1.47242,0.00544704,640.347,-80.3357,-38.658,0.274623,-0.0888219,0.0122334,0.00480247,125,625,105.595,28.1206,158.9,154.339,48.3782,114.324,0.000120813,0.00012054,0.000428976
-17.019,4.03173,-297.832,4.08724,-1.25645,-0.476756,-0.00435661,0.00168958,0.000522027,0.00173432,-0.00440135,1.4853,0.00547842,640.31,-80.4946,-36.6829,0.21855,-0.0608929,-0.00939681,0.0048283,132,625,105.568,28.0794,160.147,154.89,49.7178,114.936,0.000124666,0.000119602,0.000440913
-16.7281,4.0207,-297.814,4.08574,-1.25442,-0.473783,-0.004358,0.001764,0.000467151,0.00179944,-0.00439344,1.49507,0.00551779,640.245,-80.605,-34.5439,0.172688,-0.030666,-0.0307327,0.00509844,139,625,105.54,28.0365,161.412,155.449,51.0787,115.559,0.000133841,0.000122865,0.000477322
-16.4369,4.00972,-297.795,4.08418,-1.25242,-0.47056,-0.0043507,0.00180905,0.000444729,0.00184099,-0.00438264,1.49909,0.00553762,640.135,-80.7825,-32.7381,0.137349,-0.00296882,-0.0483866,0.00533973,146,625,105.509,27.9951,162.688,156.008,52.4485,116.181,0.000141312,0.000127172,0.000508528
-16.1449,3.99871,-297.773,4.08259,-1.2505,-0.467203,-0.0043511,0.00182136,0.000429883,0.00185116,-0.00438089,1.5016,0.00554335,640.036,-80.9512,-31.2407,0.112047,0.0137469,-0.0616322,0.00550423,153,625,105.478,27.9566,163.999,156.575,53.8531,116.807,0.000146089,0.000133256,0.000528193
-15.8535,3.98763,-297.752,4.08106,-1.24848,-0.463573,-0.00433688,0.00185292,0.000434283,0.00188324,-0.0043672,1.50109,0.00555369,639.9,-81.1502,-29.7515,0.0954731,0.0283843,-0.0710382,0.00553724,160,625,105.446,27.9171,165.289,157.14,55.232,117.437,0.000147676,0.000137737,0.000532483
-15.5604,3.97649,-297.726,4.07957,-1.2462,-0.459291,-0.00433215,0.00187831,0.000445097,0.00191004,-0.00436388,1.49961,0.00557018,639.744,-81.347,-28.5164,0.0940384,0.0350086,-0.0760187,0.00549334,167,625,105.412,27.8742,166.669,157.707,56.6922,118.077,0.000145006,0.000139097,0.000517797
-15.2648,3.96601,-297.691,4.07792,-1.24354,-0.455384,-0.00434947,0.00190715,0.000468992,0.00194211,-0.00438443,1.49639,0.00561338,639.512,-81.4776,-27.1324,0.105617,0.0365531,-0.0769678,0.00542091,174,625,105.38,27.8246,168.17,158.239,58.2777,118.694,0.000143866,0.000138035,0.000506751
-14.9681,3.95553,-297.653,4.07623,-1.24055,-0.451398,-0.00439143,0.0019437,0.000500352,0.00198298,-0.00443071,1.49246,0.00568765,639.2,-81.5668,-25.8362,0.12894,0.0396594,-0.073527,0.00554309,181,625,105.347,27.7687,169.725,158.766,59.9161,119.317,0.000146023,0.000141852,0.000511472
-14.671,3.94494,-297.613,4.07446,-1.23765,-0.447831,-0.0044342,0.00199099,0.000515584,0.00203209,-0.00447531,1.49123,0.00576646,638.96,-81.6865,-24.0792,0.166397,0.0448194,-0.069436,0.00566918,188,625,105.317,27.7139,171.296,159.305,61.5746,119.948,0.000147097,0.000145127,0.00051552
-14.3749,3.9336,-297.575,4.0725,-1.23488,-0.443945,-0.00445755,0.00204308,0.000510935,0.002083,-0.00449747,1.49284,0.00582531,638.732,-81.8977,-22.1906,0.206306,0.0501062,-0.0645281,0.00586375,195,625,105.279,27.6593,172.813,159.886,63.1819,120.615,0.000147294,0.000150278,0.000518152
-14.0806,3.92171,-297.542,4.0707,-1.23232,-0.440018,-0.00446371,0.00209647,0.000492693,0.00213327,-0.00450051,1.49625,0.00586568,638.573,-82.0924,-20.268,0.244719,0.0544403,-0.0596579,0.00602379,202,625,105.244,27.6055,174.243,160.498,64.6982,121.303,0.000152114,0.000154518,0.000537282
-13.7886,3.91006,-297.516,4.06903,-1.23001,-0.435938,-0.00446068,0.00214159,0.000469557,0.00217482,-0.00449391,1.50015,0.00589054,638.446,-82.294,-18.5578,0.278704,0.0525932,-0.0535249,0.00592011,209,625,105.21,27.5537,175.56,161.098,66.0977,121.97,0.000155761,0.000150646,0.000552922
-13.4985,3.89912,-297.496,4.06751,-1.22771,-0.431619,-0.00445198,0.00217079,0.000446026,0.00220069,-0.00448188,1.50385,0.0058986,638.399,-82.4442,-16.9764,0.304297,0.0459901,-0.0495495,0.0057788,216,625,105.175,27.5027,176.79,161.654,67.4053,122.593,0.000154797,0.000143618,0.000548427
-13.2079,3.88869,-297.474,4.06587,-1.22534,-0.427391,-0.00442581,0.00218168,0.000416498,0.00220783,-0.00445196,1.50809,0.00587568,638.443,-82.5663,-15.058,0.328115,0.0349598,-0.0483542,0.00548969,223,625,105.14,27.4517,178.041,162.182,68.7361,123.191,0.00014721,0.000136407,0.000517671
-12.9175,3.87824,-297.451,4.06407,-1.22273,-0.423428,-0.00438331,0.0021809,0.000373192,0.00220205,-0.00440446,1.51419,0.00582642,638.43,-82.6079,-13.2869,0.356106,0.0160323,-0.0488984,0.00520696,230,625,105.103,27.4022,179.28,162.697,70.0604,123.791,0.00013883,0.000132815,0.000484363
-12.6238,3.86784,-297.418,4.06212,-1.21995,-0.419424,-0.00432309,0.00216352,0.000321656,0.00217944,-0.00433901,1.52137,0.00574748,638.415,-82.6704,-11.4356,0.377987,-0.0119035,-0.0486779,0.00509735,237,625,105.065,27.3476,180.679,163.223,71.5454,124.403,0.000127731,0.000132845,0.000441572
-12.3266,3.85721,-297.373,4.06022,-1.21701,-0.414587,-0.00424702,0.00212699,0.000269859,0.0021384,-0.00425843,1.52856,0.00564031,638.297,-82.7421,-9.76947,0.386847,-0.0490639,-0.047464,0.00497035,244,625,105.027,27.2865,182.272,163.778,73.2119,125.043,0.000124925,0.000129983,0.000428588
-12.0279,3.84658,-297.323,4.05837,-1.21398,-0.409503,-0.00417592,0.00207054,0.000218585,0.00207818,-0.00418356,1.53586,0.00552406,638.126,-82.8669,-8.37317,0.386843,-0.0936282,-0.0468067,0.00471523,251,625,104.989,27.2191,183.951,164.344,74.9604,125.692,0.000122083,0.000123317,0.000417182
-11.7283,3.83575,-297.27,4.05643,-1.21082,-0.404175,-0.00412448,0.00200315,0.000167612,0.00200773,-0.00412906,1.54347,0.00541943,637.941,-82.9597,-6.90502,0.385503,-0.143751,-0.044363,0.00443857,258,625,104.95,27.1505,185.672,164.92,76.7498,126.356,0.000118304,0.000114941,0.000403843
-11.4282,3.82499,-297.214,4.05432,-1.20733,-0.399076,-0.00408759,0.00192854,0.00011909,0.00193089,-0.00408994,1.55101,0.00532477,637.652,-82.9247,-5.57661,0.3873,-0.195921,-0.0377659,0.00420512,265,625,104.909,27.0807,187.422,165.48,78.5725,127.02,0.000114249,0.000106939,0.000390411
-11.1275,3.8142,-297.155,4.05222,-1.20373,-0.393966,-0.00405625,0.00185169,7.10471e-05,0.00185255,-0.00405711,1.55877,0.00523527,637.304,-82.8673,-4.12935,0.380539,-0.243197,-0.0257364,0.00415,272,625,104.869,27.0108,189.206,166.042,80.4268,127.69,0.000112574,0.000103135,0.000385982
-10.827,3.80335,-297.097,4.05008,-1.20019,-0.388899,-0.00403106,0.00177565,1.99418e-05,0.00177572,-0.00403113,1.56736,0.00515377,637.01,-82.9065,-2.28968,0.363813,-0.288266,-0.00896123,0.00423092,279,625,104.829,26.9395,190.98,166.61,82.2727,128.363,0.000113916,0.0001055,0.000391628
-10.5278,3.79265,-297.042,4.04793,-1.1967,-0.384279,-0.00402429,0.00170016,-2.2639e-05,0.00170025,-0.00402438,-1.56684,0.00509205,636.811,-83.1188,-0.295013,0.339053,-0.326989,0.0136126,0.00450654,286,625,104.791,26.8611,192.69,167.174,84.0582,129.024,0.000119009,0.000114957,0.000411304
-10.2299,3.78199,-296.99,4.04586,-1.19327,-0.379338,-0.00404181,0.00164214,-6.05628e-05,0.00164279,-0.00404245,-1.56014,0.00506765,636.66,-83.3538,1.55482,0.310515,-0.352506,0.0388214,0.00484357,293,625,104.752,26.7832,194.335,167.733,85.7739,129.677,0.000122507,0.000124378,0.000424869
-9.93314,3.77131,-296.942,4.04377,-1.18988,-0.37405,-0.00405983,0.00160644,-0.000109173,0.00160854,-0.00406194,-1.55154,0.00506167,636.528,-83.6135,3.37666,0.287473,-0.360416,0.0576421,0.00510433,300,625,104.709,26.7084,195.93,168.288,87.4371,130.327,0.000126941,0.000130921,0.000441049
-9.63643,3.76071,-296.893,4.04159,-1.18649,-0.368585,-0.00405249,0.00160008,-0.000184566,0.0016061,-0.00405851,-1.53819,0.00505662,636.361,-83.8597,4.94978,0.267609,-0.344814,0.0676917,0.00540627,307,625,104.664,26.6416,197.523,168.834,89.0987,130.975,0.000132106,0.000137842,0.000459413
-9.3383,3.75026,-296.838,4.03925,-1.18298,-0.362922,-0.00401521,0.00161164,-0.00027636,0.00162518,-0.00402875,-1.52184,0.00504177,636.162,-83.984,6.45712,0.248978,-0.312263,0.0639694,0.00569218,314,625,104.615,26.5767,199.194,169.373,90.8381,131.622,0.000138221,0.000144938,0.000480438
-9.03898,3.74018,-296.78,4.03695,-1.17942,-0.357151,-0.0039618,0.00162589,-0.000362415,0.00164929,-0.00398521,-1.5063,0.00501745,635.892,-83.9999,7.7635,0.233605,-0.279702,0.0530063,0.00573906,321,625,104.568,26.5045,200.934,169.905,92.6441,132.257,0.000141316,0.000146584,0.000490312
-8.73731,3.73009,-296.712,4.03446,-1.17569,-0.351528,-0.00390359,0.00164522,-0.000440155,0.00167992,-0.00393828,-1.49213,0.00499482,635.53,-84.0058,9.05669,0.219556,-0.251444,0.0375439,0.00552272,328,625,104.52,26.4218,202.798,170.45,94.5773,132.904,0.000136973,0.00014131,0.000474539
-8.43473,3.71996,-296.641,4.03187,-1.17175,-0.346017,-0.00384164,0.0016672,-0.000506449,0.00171337,-0.00388782,-1.47988,0.00497112,635.143,-83.999,10.3891,0.212627,-0.230297,0.0198451,0.00516738,335,625,104.472,26.3304,204.714,171.003,96.5633,133.56,0.000129607,0.000131706,0.000448495
-8.13307,3.70962,-296.573,4.02946,-1.16765,-0.340203,-0.0037853,0.00170496,-0.000563112,0.00176212,-0.00384246,-1.46963,0.00496391,634.794,-83.953,11.8325,0.228565,-0.214565,0.00018446,0.00484847,342,625,104.426,26.2419,206.592,171.551,98.5049,134.223,0.000121301,0.000123116,0.000418795
-7.83429,3.69858,-296.512,4.02726,-1.16387,-0.333812,-0.00374076,0.00175637,-0.000608424,0.00182291,-0.0038073,-1.46187,0.00497583,634.522,-83.9128,13.582,0.260899,-0.206751,-0.0195376,0.00476778,349,625,104.379,26.1613,208.331,172.133,100.297,134.911,0.000118503,0.000119295,0.0004083
-7.53862,3.68792,-296.462,4.0253,-1.16047,-0.327485,-0.00370972,0.00182491,-0.000634125,0.00189664,-0.00378144,-1.45817,0.00500685,634.309,-84.0187,15.5086,0.292542,-0.209685,-0.0336537,0.00466693,356,625,104.336,26.0875,209.913,172.694,101.929,135.565,0.000116089,0.000116375,0.000399741
-7.24456,3.67766,-296.416,4.02341,-1.15732,-0.321389,-0.00369722,0.00190328,-0.000640742,0.00197565,-0.00376959,-1.45832,0.00505572,634.139,-84.1722,17.2883,0.316767,-0.225033,-0.0406649,0.00451171,363,625,104.295,26.0187,211.412,173.234,103.479,136.192,0.000115456,0.000114533,0.000398178
-6.95093,3.66728,-296.371,4.02142,-1.15414,-0.315623,-0.00370031,0.00198271,-0.000628131,0.00205131,-0.00376891,-1.46202,0.00511309,633.966,-84.3748,18.7815,0.334954,-0.248534,-0.0395796,0.00431797,370,625,104.255,25.9487,212.887,173.779,105.008,136.824,0.0001129,0.000110676,0.000390673
-6.65653,3.65711,-296.322,4.01936,-1.15079,-0.310152,-0.00371951,0.0020595,-0.000597663,0.00212066,-0.00378067,-1.46881,0.00517766,633.81,-84.5749,19.9805,0.356295,-0.27784,-0.0324036,0.00442887,377,625,104.216,25.874,214.404,174.313,106.582,137.45,0.000113896,0.000106742,0.00039516
-6.36147,3.64691,-296.271,4.01733,-1.14723,-0.304444,-0.00375462,0.00213172,-0.00055594,0.00218377,-0.00380666,-1.47745,0.00525094,633.589,-84.718,21.0508,0.37713,-0.304929,-0.0227885,0.00441052,384,625,104.177,25.7945,215.963,174.848,108.195,138.082,0.000114683,0.000102705,0.000397903
-6.06564,3.63661,-296.217,4.01516,-1.14338,-0.298379,-0.00379831,0.00220001,-0.000514334,0.00224379,-0.00384209,-1.48588,0.00533077,633.406,-84.888,22.6932,0.38943,-0.327436,-0.014087,0.00433101,391,625,104.133,25.7096,217.57,175.384,109.854,138.725,0.00011408,0.00010106,0.000395517
-5.76897,3.62631,-296.158,4.01278,-1.13936,-0.291913,-0.00385691,0.0022493,-0.000466337,0.00228471,-0.00389232,-1.49501,0.00540952,633.246,-85.0559,24.824,0.39101,-0.344764,-0.00519052,0.00430522,398,625,104.082,25.6207,219.226,175.921,111.562,139.372,0.00011383,0.000104246,0.000394523
-5.47207,3.61593,-296.099,4.01024,-1.13537,-0.285587,-0.00393893,0.00227807,-0.000407151,0.00230462,-0.00396548,-1.50568,0.0054932,632.981,-85.1273,26.9527,0.388453,-0.362184,0.00392328,0.00432711,405,625,104.03,25.5328,220.894,176.466,113.287,140.027,0.00011384,0.000108442,0.000394536
-5.17639,3.60555,-296.042,4.00771,-1.13162,-0.279761,-0.00404278,0.00227482,-0.00033649,0.00229269,-0.00406065,-1.51773,0.00557271,632.676,-85.1553,28.4256,0.398579,-0.370869,0.00367666,0.00439884,412,625,103.981,25.4492,222.496,177.014,114.95,140.677,0.000115105,0.000112464,0.000398908
-4.88268,3.59491,-295.992,4.00543,-1.12812,-0.273775,-0.00413052,0.00224167,-0.000270967,0.00225317,-0.00414202,-1.52838,0.00561835,632.409,-85.1639,29.633,0.417964,-0.370536,-0.00490373,0.00438102,419,625,103.935,25.3703,224.003,177.574,116.511,141.333,0.000115022,0.000114025,0.000398158
-4.59176,3.58408,-295.95,4.00348,-1.12486,-0.267389,-0.00417675,0.00217719,-0.000224721,0.00218513,-0.00418469,-1.53549,0.00560629,632.221,-85.202,30.9983,0.435649,-0.359186,-0.0230885,0.0044074,426,625,103.893,25.2975,225.37,178.138,117.921,141.985,0.000115196,0.000112121,0.000397773
-4.30386,3.57337,-295.918,4.0017,-1.12171,-0.261067,-0.00419513,0.00208034,-0.000187566,0.00208594,-0.00420073,-1.54094,0.00554615,632.197,-85.2866,32.7153,0.441602,-0.339558,-0.0457408,0.00446848,433,625,103.853,25.2285,226.577,178.684,119.169,142.617,0.000116779,0.000109715,0.000402998
-4.01754,3.56272,-295.891,4.00001,-1.11864,-0.254983,-0.00420543,0.001958,-0.000152921,0.00196179,-0.00420923,-1.54601,0.00546112,632.196,-85.4751,34.2623,0.433281,-0.314973,-0.0704724,0.00464091,440,625,103.815,25.1639,227.7,179.217,120.332,143.239,0.000121763,0.000109871,0.000419896
-3.73055,3.55213,-295.861,3.99812,-1.1156,-0.248931,-0.00422145,0.00182626,-0.000114343,0.00182842,-0.00422361,-1.5519,0.0053763,632.168,-85.6277,35.5909,0.414766,-0.291265,-0.0874322,0.00489175,447,625,103.774,25.0993,228.858,179.754,121.535,143.862,0.00012883,0.000112813,0.000444537
-3.44092,3.5417,-295.821,3.99585,-1.11223,-0.242818,-0.00424312,0.0017068,-6.8698e-05,0.00170759,-0.00424392,-1.55925,0.00530788,632.093,-85.8085,36.747,0.399204,-0.272008,-0.0899789,0.00521667,454,625,103.726,25.0239,230.159,180.291,122.887,144.492,0.000137846,0.000119073,0.00047528
-3.14405,3.53153,-295.755,3.99285,-1.1082,-0.236473,-0.00425897,0.00160585,-2.31262e-05,0.00160594,-0.00425907,-1.56685,0.00524962,632.017,-85.9821,38.2489,0.39282,-0.260077,-0.0837517,0.00526205,461,625,103.667,24.9353,231.857,180.836,124.647,145.146,0.000139197,0.000121023,0.000479414
-2.84263,3.52167,-295.673,3.98952,-1.10342,-0.230521,-0.00424542,0.00153271,1.75932e-05,0.00153276,-0.00424547,1.56775,0.00518466,631.912,-86.113,39.7742,0.384428,-0.252254,-0.0713158,0.00515122,468,625,103.607,24.8317,233.81,181.366,126.667,145.809,0.000136603,0.000119485,0.000470144
-2.54201,3.5115,-295.593,3.98651,-1.09855,-0.223766,-0.00420275,0.00149802,5.4269e-05,0.00149854,-0.00420327,1.56128,0.00511975,631.645,-86.2553,41.2018,0.362775,-0.257032,-0.0527355,0.0049736,475,625,103.549,24.7274,235.742,181.907,128.65,146.486,0.000132367,0.000119338,0.000455579
-2.24602,3.50185,-295.528,3.98406,-1.09419,-0.21661,-0.00414897,0.00149732,8.35381e-05,0.00149855,-0.0041502,1.55601,0.00506844,631.281,-86.4038,42.5174,0.331159,-0.273735,-0.0250873,0.00486674,482,625,103.499,24.6327,237.438,182.414,130.382,147.113,0.000128027,0.000121096,0.000440207
-1.95594,3.49176,-295.482,3.98215,-1.0904,-0.209601,-0.00408573,0.00151042,0.000106254,0.00151244,-0.00408775,1.55182,0.00501793,630.945,-86.6478,43.6466,0.304475,-0.302007,0.00751062,0.00490446,489,625,103.457,24.5486,238.814,182.932,131.786,147.734,0.000125191,0.000121844,0.000430595
-1.66754,3.4815,-295.442,3.98001,-1.08673,-0.202577,-0.00400255,0.00152409,0.00012182,0.00152677,-0.00400523,1.54877,0.00494853,630.598,-86.8601,45.0513,0.296538,-0.333769,0.040088,0.00493332,496,625,103.409,24.468,240.092,183.453,133.098,148.357,0.000125762,0.000122814,0.000432151
-1.37384,3.47156,-295.383,3.97706,-1.08269,-0.195863,-0.00390277,0.00153386,0.00012932,0.00153693,-0.00390584,1.54703,0.00486012,630.276,-86.8977,46.5921,0.307361,-0.365359,0.0690181,0.0049572,503,625,103.348,24.3804,241.658,183.977,134.717,148.992,0.000127196,0.000124494,0.000436577
-1.07618,3.46115,-295.308,3.97372,-1.07805,-0.189509,-0.00379735,0.00154046,0.000128026,0.00154353,-0.00380041,1.54683,0.00476358,630.023,-86.8837,48.3017,0.329943,-0.388445,0.0953358,0.00506066,510,625,103.285,24.2774,243.446,184.533,136.566,149.674,0.00012919,0.000128031,0.000443878
-0.777024,3.45106,-295.228,3.97051,-1.07325,-0.18291,-0.00369214,0.00153142,0.000119443,0.00153415,-0.00369487,1.54795,0.00465556,629.78,-86.8908,50.1644,0.355469,-0.409477,0.117872,0.00519407,517,625,103.225,24.1724,245.337,185.077,138.509,150.35,0.000133047,0.000131574,0.000457169
-0.480175,3.44112,-295.154,3.96794,-1.06843,-0.175648,-0.00361493,0.0015203,0.000104456,0.00152242,-0.00361705,1.55047,0.00457247,629.555,-86.9358,51.5789,0.393032,-0.42656,0.130604,0.00541641,524,625,103.175,24.0644,247.126,185.603,140.328,151.007,0.00014109,0.000133666,0.000484729
-0.186825,3.43077,-295.092,3.96575,-1.06383,-0.168193,-0.00354871,0.00149384,9.4882e-05,0.00149562,-0.0035505,1.55199,0.00448922,629.331,-86.9429,52.6859,0.446542,-0.43929,0.139447,0.00561362,531,625,103.131,23.9577,248.73,186.143,141.954,151.668,0.000148276,0.000135394,0.000509069
0.104336,3.42051,-295.038,3.96357,-1.05946,-0.16157,-0.00349625,0.00145286,9.0863e-05,0.00145453,-0.00349792,1.55245,0.00440896,629.134,-86.9708,53.5613,0.508101,-0.445326,0.143314,0.00570025,538,625,103.091,23.8583,250.207,186.671,143.46,152.315,0.000150878,0.000137826,0.00051668
0.394544,3.40992,-294.985,3.96131,-1.05523,-0.154558,-0.00345289,0.00140446,8.56e-05,0.00140597,-0.0034544,1.55318,0.00433202,628.97,-87.0712,54.8219,0.563674,-0.442618,0.145399,0.00566497,545,625,103.045,23.7611,251.636,187.219,144.916,152.975,0.000149597,0.000141694,0.000510224
0.684356,3.39969,-294.934,3.95911,-1.05116,-0.14759,-0.00343545,0.00135419,7.62046e-05,0.00135541,-0.00343667,1.55489,0.00427854,628.848,-87.2318,56.4121,0.601919,-0.428558,0.144932,0.00577243,552,625,103.002,23.6662,253.049,187.753,146.356,153.616,0.000149473,0.00014692,0.00050715
0.972488,3.38959,-294.887,3.95706,-1.04733,-0.14073,-0.00348354,0.00131932,6.61457e-05,0.00132023,-0.00348445,1.55703,0.00429938,628.781,-87.4156,58.0782,0.617687,-0.402609,0.144572,0.00588773,559,625,102.962,23.5789,254.374,188.276,147.704,154.242,0.000153866,0.000147177,0.000521253
1.25957,3.37963,-294.844,3.95506,-1.04353,-0.134212,-0.00364087,0.00132129,6.62466e-05,0.00132217,-0.00364175,1.55745,0.00445259,628.704,-87.5202,60.0196,0.607866,-0.369328,0.148628,0.00593284,566,625,102.926,23.4952,255.641,188.786,148.997,154.856,0.000158616,0.000143708,0.000535123
1.54561,3.3695,-294.804,3.95306,-1.03963,-0.127266,-0.00389246,0.00138075,8.02465e-05,0.00138197,-0.00389368,1.55558,0.0047383,628.714,-87.713,61.6076,0.56397,-0.329033,0.150706,0.00599769,573,625,102.885,23.4119,256.856,189.295,150.233,155.475,0.000162444,0.000140617,0.000545499
0,0,0,0,0,0,0,0,0,0,0,0,0,0,0,0,0,0,0,-1,580,625,0,0,0,0,0,0,0,0,0
0,0,0,0,0,0,0,0,0,0,0,0,0,0,0,0,0,0,0,-1,587,625,0,0,0,0,0,0,0,0,0
0,0,0,0,0,0,0,0,0,0,0,0,0,0,0,0,0,0,0,-1,594,625,0,0,0,0,0,0,0,0,0
0,0,0,0,0,0,0,0,0,0,0,0,0,0,0,0,0,0,0,-1,601,625,0,0,0,0,0,0,0,0,0
0,0,0,0,0,0,0,0,0,0,0,0,0,0,0,0,0,0,0,-1,62,632,0,0,0,0,0,0,0,0,0
0,0,0,0,0,0,0,0,0,0,0,0,0,0,0,0,0,0,0,-1,69,632,0,0,0,0,0,0,0,0,0
0,0,0,0,0,0,0,0,0,0,0,0,0,0,0,0,0,0,0,-1,76,632,0,0,0,0,0,0,0,0,0
0,0,0,0,0,0,0,0,0,0,0,0,0,0,0,0,0,0,0,-1,83,632,0,0,0,0,0,0,0,0,0
0,0,0,0,0,0,0,0,0,0,0,0,0,0,0,0,0,0,0,-1,90,632,0,0,0,0,0,0,0,0,0
0,0,0,0,0,0,0,0,0,0,0,0,0,0,0,0,0,0,0,-1,97,632,0,0,0,0,0,0,0,0,0
0,0,0,0,0,0,0,0,0,0,0,0,0,0,0,0,0,0,0,-1,104,632,0,0,0,0,0,0,0,0,0
-17.8718,3.79453,-297.789,4.09158,-1.26017,-0.47768,-0.00404118,0.00140243,0.000716411,0.00149514,-0.00413388,1.44211,0.00505026,639.608,-79.855,-41.8948,0.393773,-0.138476,0.0992034,0.00453865,111,632,105.619,28.1693,157.311,154.103,46.507,114.046,0.000119738,0.000112111,0.000431436
-17.5907,3.78338,-297.801,4.09062,-1.25903,-0.475266,-0.00414622,0.0015444,0.000565566,0.00160006,-0.00420188,1.47269,0.00519031,639.705,-80.0309,-40.1239,0.336637,-0.123416,0.0703106,0.00454162,118,632,105.598,28.149,158.105,154.644,47.3944,114.631,0.000118062,0.000115112,0.000423429
-17.3048,3.77261,-297.799,4.08933,-1.25757,-0.472381,-0.00421321,0.00163124,0.000460849,0.00166736,-0.00424932,1.49259,0.00528413,639.728,-80.1295,-38.2596,0.276528,-0.0910979,0.0445986,0.00475376,125,632,105.57,28.1198,159.131,155.181,48.5161,115.218,0.000121402,0.000121183,0.000433696
-17.0169,3.7615,-297.79,4.08788,-1.25589,-0.469447,-0.00424981,0.00168123,0.000395788,0.00170753,-0.00427611,1.50446,0.00533876,639.687,-80.241,-36.0889,0.216603,-0.0454704,0.0186713,0.00512075,132,632,105.541,28.0828,160.251,155.742,49.7336,115.831,0.000133173,0.000130104,0.0004779
-16.7274,3.75017,-297.776,4.08634,-1.25402,-0.466418,-0.00428256,0.00172489,0.000357708,0.00174611,-0.00430379,1.51153,0.00539318,639.553,-80.3506,-33.5823,0.163253,0.00601448,-0.00700363,0.0056452,139,632,105.51,28.0416,161.444,156.317,51.0242,116.463,0.000150295,0.000141787,0.00054649
-16.4372,3.73889,-297.76,4.08473,-1.25198,-0.463213,-0.00430357,0.0017467,0.000352633,0.00176718,-0.00432405,1.51277,0.00542787,639.524,-80.5241,-31.5241,0.120466,0.0548111,-0.0305414,0.00600021,146,632,105.477,27.9968,162.669,156.888,52.3455,117.096,0.000162021,0.000150265,0.000594285
-16.1455,3.72776,-297.738,4.08312,-1.24988,-0.460091,-0.00433231,0.0017464,0.000351049,0.0017666,-0.00435251,1.5133,0.00545476,639.457,-80.754,-29.9289,0.0891699,0.0892222,-0.0501547,0.00607303,153,632,105.447,27.9545,163.967,157.454,53.7382,117.728,0.000164796,0.000153767,0.000605463
-15.8531,3.71668,-297.714,4.08169,-1.24769,-0.456145,-0.00433631,0.00178032,0.000373994,0.0018031,-0.00435909,1.50995,0.00548751,639.414,-81.0366,-28.4824,0.0666641,0.119885,-0.066299,0.00608668,160,632,105.416,27.9131,165.316,158.017,55.1696,118.362,0.000161649,0.000153295,0.000588818
-15.5588,3.70568,-297.684,4.08028,-1.24531,-0.45184,-0.00434191,0.00181368,0.000402969,0.00183994,-0.00436818,1.5057,0.005523,639.363,-81.2314,-27.4093,0.0607651,0.141113,-0.0791662,0.0058489,167,632,105.385,27.8705,166.759,158.579,56.6897,119,0.000152301,0.000147954,0.000546251
-15.2634,3.69517,-297.65,4.07861,-1.24278,-0.448013,-0.00436317,0.00185677,0.000443175,0.00188819,-0.00439459,1.50002,0.0055835,639.186,-81.4275,-26.0452,0.070902,0.155432,-0.0892128,0.00551817,174,632,105.353,27.8247,168.249,159.116,58.2652,119.618,0.000143305,0.000139316,0.000504019
-14.9678,3.68438,-297.615,4.07692,-1.24003,-0.444219,-0.0044052,0.00191862,0.000484982,0.0019556,-0.00444217,1.4947,0.00567841,638.92,-81.542,-24.5945,0.0968608,0.171402,-0.0961358,0.00542302,181,632,105.322,27.7696,169.747,159.666,59.8484,120.253,0.00013947,0.000137597,0.000489135
-14.672,3.67367,-297.579,4.07513,-1.23732,-0.440588,-0.00444545,0.00200331,0.000500241,0.00204189,-0.00448403,1.49384,0.00578201,638.571,-81.6627,-23.109,0.140529,0.18716,-0.102033,0.00532758,188,632,105.289,27.7153,171.254,160.215,61.4446,120.886,0.00013518,0.000135772,0.000474823
-14.377,3.66254,-297.544,4.07326,-1.23465,-0.436263,-0.00446181,0.00209729,0.000488411,0.00213345,-0.00449798,1.49688,0.00586342,638.301,-81.8185,-21.3691,0.189448,0.198821,-0.105067,0.00525112,195,632,105.25,27.6617,172.728,160.786,63.0036,121.538,0.000131656,0.000134244,0.00046409
-14.0833,3.65127,-297.514,4.0715,-1.23208,-0.432113,-0.00445869,0.00219349,0.000461278,0.00222532,-0.00449052,1.50189,0.00592534,638.14,-81.9436,-19.561,0.23968,0.204813,-0.105551,0.00528075,202,632,105.214,27.6085,174.131,161.363,64.4906,122.192,0.000136151,0.000135337,0.000480567
-13.7917,3.63991,-297.489,4.06996,-1.22974,-0.427862,-0.00444898,0.00227768,0.000430403,0.0023051,-0.00447641,1.50716,0.00597247,638.064,-82.1255,-17.8956,0.286741,0.198506,-0.101835,0.00530152,209,632,105.181,27.5589,175.438,161.944,65.8747,122.842,0.000139671,0.000130628,0.000493934
-13.5018,3.62921,-297.469,4.06855,-1.22747,-0.423477,-0.00443137,0.00233868,0.000400706,0.00236232,-0.004455,1.51188,0.00599598,638.06,-82.2988,-16.2898,0.321215,0.183767,-0.0987209,0.00529099,216,632,105.149,27.5098,176.66,162.486,67.1705,123.451,0.00013997,0.000126061,0.000492393
-13.2115,3.61887,-297.447,4.06695,-1.2252,-0.419468,-0.0043863,0.00237138,0.000364574,0.00239099,-0.00440591,1.51705,0.00597188,638.132,-82.5392,-14.4666,0.34572,0.162601,-0.0971649,0.00505176,223,632,105.116,27.4611,177.898,163.012,68.4894,124.044,0.000134286,0.000122325,0.000470327
-12.9214,3.60816,-297.426,4.06523,-1.22276,-0.415576,-0.00431947,0.00238002,0.000313384,0.00239465,-0.0043341,1.52415,0.0059074,638.149,-82.6907,-12.5264,0.368446,0.130675,-0.09593,0.00476108,230,632,105.081,27.4131,179.125,163.547,69.8001,124.656,0.000126992,0.000121159,0.000442817
-12.6279,3.59752,-297.393,4.06332,-1.22,-0.411513,-0.00423924,0.00235646,0.000256761,0.00236645,-0.00424922,1.53195,0.00580616,638.151,-82.7711,-10.5706,0.383178,0.085583,-0.0911761,0.00466553,237,632,105.044,27.3589,180.518,164.086,71.2774,125.28,0.000116578,0.000120832,0.000404638
-12.3302,3.587,-297.347,4.06137,-1.21694,-0.406905,-0.00414833,0.00229936,0.000204645,0.00230585,-0.00415482,1.5391,0.00567097,637.992,-82.808,-8.93304,0.386225,0.028163,-0.0835191,0.00457669,244,632,105.006,27.2973,182.134,164.633,72.9707,125.919,0.000113804,0.000119464,0.000391722
-12.0306,3.57656,-297.294,4.05939,-1.21373,-0.402131,-0.00406666,0.00220894,0.000156902,0.00221286,-0.00407058,1.54582,0.00552033,637.797,-82.7733,-7.62484,0.380952,-0.0383845,-0.0746314,0.00441293,251,632,104.97,27.2288,183.851,165.186,74.7612,126.563,0.000113869,0.000115629,0.000389857
-11.73,3.56587,-297.237,4.05734,-1.21032,-0.397141,-0.00401107,0.00210057,0.000111081,0.00210259,-0.00401309,1.55263,0.00538179,637.557,-82.7194,-6.38163,0.374048,-0.112039,-0.0625119,0.00430269,258,632,104.931,27.1574,185.625,165.752,76.6074,127.226,0.00011494,0.000110908,0.000392704
-11.4285,3.55525,-297.177,4.05515,-1.20669,-0.392115,-0.0039788,0.00198065,6.76938e-05,0.00198142,-0.00397957,1.55944,0.00525816,637.29,-82.623,-4.88394,0.370315,-0.189281,-0.0443738,0.0041037,265,632,104.89,27.0842,187.447,166.31,78.5039,127.891,0.000110997,0.000104216,0.000379848
-11.1264,3.54461,-297.113,4.05295,-1.203,-0.387192,-0.00395986,0.00185931,2.47941e-05,0.00185942,-0.00395997,1.56654,0.00514801,636.932,-82.6108,-3.43555,0.358516,-0.260485,-0.0188692,0.00409535,272,632,104.85,27.0122,189.306,166.87,80.4355,128.562,0.000110152,0.000102643,0.00037872
-10.8246,3.53388,-297.051,4.05083,-1.19936,-0.381946,-0.00395079,0.00174224,-2.2557e-05,0.00174233,-0.00395088,-1.56683,0.00505261,636.556,-82.7193,-1.75744,0.340685,-0.328349,0.0120376,0.00422337,279,632,104.811,26.9404,191.151,167.437,82.3485,129.236,0.000112124,0.000107467,0.000386792
-10.525,3.5233,-296.994,4.04881,-1.1957,-0.377166,-0.00394606,0.00162894,-6.52027e-05,0.0016297,-0.00394682,-1.5591,0.00496643,636.335,-82.9704,0.00846386,0.322559,-0.387351,0.04744,0.00464454,286,632,104.776,26.8585,192.889,167.993,84.157,129.894,0.000121284,0.000119772,0.000420078
-10.2275,3.51284,-296.944,4.04685,-1.1922,-0.372091,-0.00394497,0.00154236,-0.000108876,0.00154452,-0.00394713,-1.55097,0.00490529,636.153,-83.2392,1.45778,0.308053,-0.42784,0.0810365,0.00509383,293,632,104.738,26.7789,194.524,168.541,85.8589,130.537,0.00012981,0.000131082,0.00045031
-9.93182,3.50213,-296.899,4.04489,-1.18882,-0.366624,-0.00393556,0.00148773,-0.000168351,0.00149295,-0.00394078,-1.53979,0.00486231,636.027,-83.5149,3.13348,0.299346,-0.444084,0.102197,0.00537984,300,632,104.696,26.703,196.066,169.096,87.465,131.186,0.000135573,0.000137792,0.000471048
-9.63632,3.49181,-296.854,4.04278,-1.18559,-0.361043,-0.00391112,0.00147139,-0.00025348,0.0014833,-0.00392303,-1.52384,0.00483833,635.859,-83.7221,4.70096,0.289972,-0.428004,0.109701,0.00567302,307,632,104.651,26.6387,197.602,169.629,89.0668,131.814,0.000141452,0.00014402,0.00049182
-9.33982,3.48158,-296.805,4.04051,-1.18228,-0.355459,-0.00387986,0.00148326,-0.000347488,0.00150568,-0.00390228,-1.50636,0.0048343,635.695,-83.8244,6.45062,0.276859,-0.388014,0.100173,0.00592682,314,632,104.602,26.579,199.189,170.155,90.7233,132.444,0.00014546,0.000150408,0.000505637
-9.0417,3.47164,-296.75,4.0382,-1.17884,-0.349719,-0.00383449,0.00150156,-0.000430912,0.00153614,-0.00386906,-1.49073,0.00482419,635.471,-83.8889,8.14742,0.26245,-0.346634,0.0826857,0.0060421,321,632,104.555,26.5107,200.867,170.679,92.4681,133.067,0.000147896,0.000153515,0.000513586
-8.74087,3.46159,-296.685,4.03576,-1.17524,-0.344206,-0.00377015,0.00152777,-0.000502917,0.00157509,-0.00381747,-1.47699,0.0048028,635.107,-83.8906,9.50864,0.244394,-0.309844,0.0592002,0.00587009,328,632,104.508,26.4315,202.69,171.224,94.3592,133.711,0.000142586,0.000149153,0.000494586
-8.43937,3.45154,-296.618,4.03329,-1.1714,-0.338554,-0.00369632,0.00155656,-0.000556624,0.00161489,-0.00375465,-1.46638,0.00477165,634.721,-83.9132,10.753,0.227069,-0.280707,0.0313797,0.00549671,335,632,104.462,26.3425,204.553,171.772,96.2895,134.359,0.000134381,0.00013964,0.000465687
-8.13907,3.44107,-296.553,4.03097,-1.16746,-0.332867,-0.00363455,0.00160995,-0.000594917,0.00167659,-0.00370118,-1.45925,0.00476603,634.425,-83.8435,12.3165,0.229733,-0.256467,0.000955595,0.00496299,342,632,104.417,26.2564,206.362,172.329,98.1609,135.025,0.000125497,0.000126613,0.000433944
-7.8435,3.42995,-296.503,4.02899,-1.16386,-0.326741,-0.00360108,0.00168644,-0.00061904,0.00175795,-0.00367259,-1.45579,0.00479943,634.24,-83.8032,14.2562,0.247401,-0.240813,-0.0288323,0.00470132,349,632,104.375,26.1796,207.932,172.906,99.7836,135.704,0.000121296,0.000119102,0.000418611
-7.55067,3.41941,-296.462,4.02729,-1.16068,-0.320342,-0.00360277,0.00179226,-0.00062312,0.00186329,-0.0036738,-1.45729,0.00487996,634.093,-83.9621,16.3114,0.266669,-0.237812,-0.0507665,0.00454645,356,632,104.335,26.1111,209.369,173.453,101.265,136.339,0.000116481,0.000114726,0.00040163
-7.25844,3.40949,-296.423,4.02558,-1.15782,-0.31427,-0.00362978,0.00191316,-0.000609354,0.00197936,-0.00369598,-1.46258,0.00498937,633.989,-84.1777,18.2986,0.282044,-0.251003,-0.0628019,0.00434189,363,632,104.297,26.0484,210.774,173.977,102.717,136.94,0.000113212,0.000112071,0.000390918
-6.96626,3.39913,-296.382,4.02366,-1.15482,-0.30853,-0.00366829,0.00203718,-0.000580084,0.00209556,-0.00372667,-1.47049,0.00510773,633.779,-84.35,19.6083,0.297711,-0.275886,-0.0645693,0.00428938,370,632,104.257,25.9841,212.172,174.519,104.169,137.566,0.000110156,0.000109936,0.000381399
-6.67279,3.38892,-296.337,4.02174,-1.15161,-0.302849,-0.00371444,0.00215803,-0.000537347,0.0022068,-0.00376321,-1.4803,0.00522841,633.592,-84.5345,20.6623,0.32326,-0.310982,-0.0585934,0.00441976,377,632,104.219,25.9141,213.643,175.055,105.693,138.191,0.000111866,0.000107281,0.000388444
-6.37869,3.3787,-296.289,4.01973,-1.14815,-0.297413,-0.00377006,0.00227298,-0.000488061,0.00231214,-0.00380923,-1.49072,0.00535385,633.377,-84.6721,21.6999,0.351683,-0.345251,-0.0490764,0.0044332,384,632,104.182,25.8397,215.149,175.588,107.254,138.821,0.000113661,0.000104208,0.000394843
-6.0838,3.36864,-296.238,4.01769,-1.14457,-0.291373,-0.00383996,0.00238275,-0.000440136,0.00241373,-0.00387093,-1.50053,0.00549123,633.184,-84.8548,23.2348,0.370708,-0.375251,-0.0398393,0.0043581,391,632,104.141,25.7617,216.706,176.116,108.861,139.448,0.000113464,0.000103806,0.000393762
-5.78834,3.35873,-296.184,4.01548,-1.1409,-0.285092,-0.00392629,0.00246622,-0.000387721,0.00248965,-0.00394972,-1.51044,0.00562424,633.078,-85.024,25.3711,0.37868,-0.399286,-0.0293386,0.00428494,398,632,104.095,25.6798,218.298,176.64,110.504,140.071,0.00011176,0.000107743,0.000387522
-5.49186,3.34852,-296.125,4.01296,-1.13709,-0.278988,-0.00402271,0.00252351,-0.000328321,0.00253993,-0.00403914,-1.52081,0.00574674,632.856,-85.0908,27.4922,0.38498,-0.425142,-0.0184097,0.00437249,405,632,104.045,25.5958,219.942,177.181,112.206,140.716,0.000110299,0.000113686,0.000382364
-5.19553,3.33811,-296.067,4.01039,-1.13327,-0.273043,-0.00411806,0.00253337,-0.00026459,0.00254388,-0.00412857,-1.5311,0.00583258,632.537,-85.0132,28.8661,0.406327,-0.44053,-0.0190995,0.00455389,412,632,103.994,25.51,221.579,177.735,113.904,141.373,0.000113173,0.000118193,0.000392532
-4.90149,3.3275,-296.015,4.00809,-1.12954,-0.267158,-0.00417265,0.00249369,-0.000208865,0.00250023,-0.00417919,-1.53951,0.00584515,632.271,-84.998,29.8787,0.433333,-0.445524,-0.0287767,0.00465096,419,632,103.95,25.4268,223.102,178.29,115.481,142.03,0.000116832,0.000121521,0.000404617
-4.61032,3.31647,-295.973,4.00613,-1.12609,-0.260681,-0.00419085,0.00240421,-0.000167325,0.00240845,-0.00419509,-1.54545,0.00578819,632.121,-85.0704,31.3029,0.453406,-0.437176,-0.0480769,0.00459296,426,632,103.907,25.3505,224.483,178.861,116.904,142.695,0.000119325,0.000118362,0.000412199
-4.32232,3.30573,-295.941,4.00439,-1.12289,-0.2541,-0.00419907,0.00226847,-0.000131191,0.00227113,-0.00420173,-1.55052,0.00568816,632.106,-85.2324,33.0289,0.45581,-0.418017,-0.0702577,0.00459911,433,632,103.866,25.2804,225.699,179.408,118.157,143.33,0.000119882,0.000114204,0.000413503
-4.03583,3.29524,-295.913,4.00264,-1.11985,-0.248154,-0.0042047,0.0020998,-9.97895e-05,0.00210138,-0.00420628,-1.55497,0.00556305,632.103,-85.4776,34.7543,0.436564,-0.392655,-0.0934146,0.00470531,440,632,103.828,25.2152,226.828,179.937,119.329,143.945,0.000123273,0.000113095,0.000424886
-3.7492,3.28477,-295.884,4.00082,-1.11685,-0.242109,-0.00421282,0.00191743,-6.6564e-05,0.00191816,-0.00421355,-1.55994,0.00543282,632.062,-85.6802,36.2527,0.39963,-0.368412,-0.108052,0.00485825,447,632,103.789,25.1509,227.967,180.469,120.512,144.561,0.000128092,0.00011484,0.000442039
0,0,0,0,0,0,0,0,0,0,0,0,0,0,0,0,0,0,0,-1,454,632,0,0,0,0,0,0,0,0,0
-3.15918,3.26452,-295.767,3.99532,-1.10891,-0.229834,-0.00421712,0.00160411,1.1928e-05,0.00160414,-0.00421714,1.56875,0.00520792,631.797,-85.9481,39.1251,0.351982,-0.337775,-0.0961418,0.00521574,461,632,103.681,24.9757,231.158,181.54,123.818,145.849,0.000138355,0.000122538,0.000477267
-2.85498,3.25457,-295.675,3.99172,-1.1037,-0.224114,-0.00418781,0.00150026,4.34e-05,0.00150059,-0.00418814,1.56317,0.00510656,631.597,-86.0023,40.4868,0.340688,-0.329584,-0.0798276,0.00516734,468,632,103.619,24.8646,233.259,182.078,125.994,146.534,0.000137286,0.000121181,0.000473231
-2.55134,3.24446,-295.584,3.98849,-1.09846,-0.21752,-0.00413649,0.00145134,7.26776e-05,0.00145229,-0.00413743,1.55779,0.00502357,631.285,-86.1081,41.8293,0.316047,-0.335729,-0.0582672,0.00503524,475,632,103.56,24.7547,235.357,182.623,128.147,147.227,0.000134262,0.0001214,0.000461533
-2.25634,3.23513,-295.522,3.98625,-1.09425,-0.210306,-0.00408076,0.00145194,9.75723e-05,0.00145366,-0.00408248,1.55317,0.00497135,630.922,-86.3087,42.9131,0.280063,-0.354563,-0.0281446,0.0049802,482,632,103.513,24.6622,237.004,183.116,129.824,147.835,0.00013073,0.000121879,0.000448942
-1.96823,3.22525,-295.484,3.98454,-1.09071,-0.203314,-0.00401691,0.00147415,0.000119008,0.00147673,-0.00401949,1.54914,0.00492674,630.637,-86.5698,44.1964,0.250574,-0.384901,0.00462934,0.00500474,489,632,103.475,24.5835,238.273,183.621,131.117,148.436,0.000128653,0.000121703,0.00044229
-1.68185,3.21506,-295.451,3.98251,-1.08746,-0.196483,-0.00393101,0.00149954,0.000134192,0.00150285,-0.00393433,1.54611,0.00486315,630.343,-86.7826,45.7944,0.242264,-0.416747,0.0346873,0.00505217,496,632,103.429,24.5108,239.437,184.144,132.316,149.045,0.00012975,0.000122147,0.000445994
-1.39073,3.20519,-295.401,3.9798,-1.08385,-0.189782,-0.00382859,0.00152175,0.000142318,0.00152554,-0.00383238,1.54422,0.0047813,630.042,-86.8226,47.3983,0.254304,-0.447128,0.0575804,0.00503723,503,632,103.372,24.4303,240.859,184.667,133.788,149.665,0.000131318,0.000124379,0.000450438
-1.09462,3.19498,-295.332,3.97673,-1.0794,-0.18301,-0.00371789,0.00153949,0.000142087,0.00154333,-0.00372173,1.5438,0.00468796,629.753,-86.7456,49.2737,0.282793,-0.466308,0.076551,0.00510949,510,632,103.311,24.3311,242.567,185.213,135.548,150.331,0.000133159,0.000128559,0.000456594
-0.79762,3.18467,-295.259,3.97376,-1.07472,-0.176236,-0.00360333,0.00153453,0.000134699,0.00153806,-0.00360686,1.5446,0.00457412,629.506,-86.7867,51.1005,0.317337,-0.483399,0.0926331,0.00521518,517,632,103.255,24.2285,244.34,185.764,137.367,151.009,0.000135363,0.000131981,0.00046382
-0.502046,3.1747,-295.19,3.97121,-1.07001,-0.168953,-0.00352228,0.00152234,0.000118459,0.00152512,-0.00352506,1.54733,0.00448644,629.3,-86.8146,52.7297,0.368573,-0.496483,0.100005,0.00542018,524,632,103.204,24.1223,246.054,186.292,139.112,151.664,0.000141661,0.00013482,0.000485253
-0.208649,3.1644,-295.128,3.96895,-1.06543,-0.161533,-0.00345947,0.00149203,0.00010893,0.00149442,-0.00346186,1.54881,0.00440355,629.092,-86.8504,53.8337,0.431742,-0.50368,0.102841,0.00558043,531,632,103.158,24.0171,247.657,186.832,140.738,152.325,0.00014717,0.000136764,0.000503464
0.0826734,3.15413,-295.073,3.96672,-1.06093,-0.154865,-0.00340853,0.0014387,0.000104164,0.00144094,-0.00341077,1.54932,0.0043156,628.944,-86.898,54.7414,0.504396,-0.503619,0.10222,0.00568958,538,632,103.116,23.9161,249.142,187.358,142.252,152.975,0.00015,0.000138513,0.000512085
0.372873,3.14374,-295.021,3.96448,-1.05661,-0.147973,-0.00335834,0.00137019,9.54901e-05,0.00137212,-0.00336027,1.55061,0.0042172,628.839,-87.0613,55.7084,0.572673,-0.494278,0.103191,0.00575696,545,632,103.072,23.8174,250.568,187.894,143.706,153.627,0.000151596,0.000143305,0.000516025
0.662342,3.1338,-294.971,3.96245,-1.05252,-0.14115,-0.00332773,0.00129247,7.84987e-05,0.0012938,-0.00332907,1.55381,0.00413083,628.815,-87.2033,56.9843,0.62543,-0.473215,0.104664,0.00584362,552,632,103.034,23.7219,251.964,188.411,145.125,154.252,0.000152567,0.000147983,0.000516818
0.950366,3.12389,-294.925,3.96043,-1.04859,-0.134843,-0.00336392,0.00122902,5.71629e-05,0.00122973,-0.00336463,1.55835,0.00411953,628.73,-87.3953,58.5752,0.656747,-0.44107,0.108689,0.00598717,559,632,102.999,23.6333,253.277,188.922,146.466,154.869,0.000157226,0.000149231,0.000531649
1.23808,3.11422,-294.879,3.95847,-1.04474,-0.128288,-0.00351514,0.00120639,4.38362e-05,0.0012068,-0.00351554,1.56151,0.00424947,628.563,-87.4579,60.2967,0.665793,-0.403368,0.119815,0.00607786,566,632,102.964,23.5486,254.582,189.42,147.795,155.472,0.00016227,0.000146785,0.000546284
1.52506,3.10434,-294.836,3.95644,-1.04083,-0.121586,-0.00376491,0.00124938,4.13487e-05,0.00124972,-0.00376525,1.56255,0.00452155,628.471,-87.5984,61.9915,0.647658,-0.36202,0.129781,0.00622806,573,632,102.926,23.4659,255.849,189.922,149.084,156.085,0.000166934,0.00014611,0.000560957
0,0,0,0,0,0,0,0,0,0,0,0,0,0,0,0,0,0,0,-1,580,632,0,0,0,0,0,0,0,0,0
0,0,0,0,0,0,0,0,0,0,0,0,0,0,0,0,0,0,0,-1,587,632,0,0,0,0,0,0,0,0,0
0,0,0,0,0,0,0,0,0,0,0,0,0,0,0,0,0,0,0,-1,594,632,0,0,0,0,0,0,0,0,0
0,0,0,0,0,0,0,0,0,0,0,0,0,0,0,0,0,0,0,-1,601,632,0,0,0,0,0,0,0,0,0
0,0,0,0,0,0,0,0,0,0,0,0,0,0,0,0,0,0,0,-1,62,639,0,0,0,0,0,0,0,0,0
0,0,0,0,0,0,0,0,0,0,0,0,0,0,0,0,0,0,0,-1,69,639,0,0,0,0,0,0,0,0,0
0,0,0,0,0,0,0,0,0,0,0,0,0,0,0,0,0,0,0,-1,76,639,0,0,0,0,0,0,0,0,0
0,0,0,0,0,0,0,0,0,0,0,0,0,0,0,0,0,0,0,-1,83,639,0,0,0,0,0,0,0,0,0
0,0,0,0,0,0,0,0,0,0,0,0,0,0,0,0,0,0,0,-1,90,639,0,0,0,0,0,0,0,0,0
0,0,0,0,0,0,0,0,0,0,0,0,0,0,0,0,0,0,0,-1,97,639,0,0,0,0,0,0,0,0,0
0,0,0,0,0,0,0,0,0,0,0,0,0,0,0,0,0,0,0,-1,104,639,0,0,0,0,0,0,0,0,0
0,0,0,0,0,0,0,0,0,0,0,0,0,0,0,0,0,0,0,-1,111,639,0,0,0,0,0,0,0,0,0
0,0,0,0,0,0,0,0,0,0,0,0,0,0,0,0,0,0,0,-1,118,639,0,0,0,0,0,0,0,0,0
0,0,0,0,0,0,0,0,0,0,0,0,0,0,0,0,0,0,0,-1,125,639,0,0,0,0,0,0,0,0,0
0,0,0,0,0,0,0,0,0,0,0,0,0,0,0,0,0,0,0,-1,132,639,0,0,0,0,0,0,0,0,0
0,0,0,0,0,0,0,0,0,0,0,0,0,0,0,0,0,0,0,-1,139,639,0,0,0,0,0,0,0,0,0
0,0,0,0,0,0,0,0,0,0,0,0,0,0,0,0,0,0,0,-1,146,639,0,0,0,0,0,0,0,0,0
0,0,0,0,0,0,0,0,0,0,0,0,0,0,0,0,0,0,0,-1,153,639,0,0,0,0,0,0,0,0,0
0,0,0,0,0,0,0,0,0,0,0,0,0,0,0,0,0,0,0,-1,160,639,0,0,0,0,0,0,0,0,0
0,0,0,0,0,0,0,0,0,0,0,0,0,0,0,0,0,0,0,-1,167,639,0,0,0,0,0,0,0,0,0
0,0,0,0,0,0,0,0,0,0,0,0,0,0,0,0,0,0,0,-1,174,639,0,0,0,0,0,0,0,0,0
0,0,0,0,0,0,0,0,0,0,0,0,0,0,0,0,0,0,0,-1,181,639,0,0,0,0,0,0,0,0,0
0,0,0,0,0,0,0,0,0,0,0,0,0,0,0,0,0,0,0,-1,188,639,0,0,0,0,0,0,0,0,0
0,0,0,0,0,0,0,0,0,0,0,0,0,0,0,0,0,0,0,-1,195,639,0,0,0,0,0,0,0,0,0
0,0,0,0,0,0,0,0,0,0,0,0,0,0,0,0,0,0,0,-1,202,639,0,0,0,0,0,0,0,0,0
0,0,0,0,0,0,0,0,0,0,0,0,0,0,0,0,0,0,0,-1,209,639,0,0,0,0,0,0,0,0,0
0,0,0,0,0,0,0,0,0,0,0,0,0,0,0,0,0,0,0,-1,216,639,0,0,0,0,0,0,0,0,0
0,0,0,0,0,0,0,0,0,0,0,0,0,0,0,0,0,0,0,-1,223,639,0,0,0,0,0,0,0,0,0
0,0,0,0,0,0,0,0,0,0,0,0,0,0,0,0,0,0,0,-1,230,639,0,0,0,0,0,0,0,0,0
0,0,0,0,0,0,0,0,0,0,0,0,0,0,0,0,0,0,0,-1,237,639,0,0,0,0,0,0,0,0,0
0,0,0,0,0,0,0,0,0,0,0,0,0,0,0,0,0,0,0,-1,244,639,0,0,0,0,0,0,0,0,0
0,0,0,0,0,0,0,0,0,0,0,0,0,0,0,0,0,0,0,-1,251,639,0,0,0,0,0,0,0,0,0
0,0,0,0,0,0,0,0,0,0,0,0,0,0,0,0,0,0,0,-1,258,639,0,0,0,0,0,0,0,0,0
0,0,0,0,0,0,0,0,0,0,0,0,0,0,0,0,0,0,0,-1,265,639,0,0,0,0,0,0,0,0,0
0,0,0,0,0,0,0,0,0,0,0,0,0,0,0,0,0,0,0,-1,272,639,0,0,0,0,0,0,0,0,0
0,0,0,0,0,0,0,0,0,0,0,0,0,0,0,0,0,0,0,-1,279,639,0,0,0,0,0,0,0,0,0
0,0,0,0,0,0,0,0,0,0,0,0,0,0,0,0,0,0,0,-1,286,639,0,0,0,0,0,0,0,0,0
0,0,0,0,0,0,0,0,0,0,0,0,0,0,0,0,0,0,0,-1,293,639,0,0,0,0,0,0,0,0,0
0,0,0,0,0,0,0,0,0,0,0,0,0,0,0,0,0,0,0,-1,300,639,0,0,0,0,0,0,0,0,0
0,0,0,0,0,0,0,0,0,0,0,0,0,0,0,0,0,0,0,-1,307,639,0,0,0,0,0,0,0,0,0
0,0,0,0,0,0,0,0,0,0,0,0,0,0,0,0,0,0,0,-1,314,639,0,0,0,0,0,0,0,0,0
0,0,0,0,0,0,0,0,0,0,0,0,0,0,0,0,0,0,0,-1,321,639,0,0,0,0,0,0,0,0,0
0,0,0,0,0,0,0,0,0,0,0,0,0,0,0,0,0,0,0,-1,328,639,0,0,0,0,0,0,0,0,0
0,0,0,0,0,0,0,0,0,0,0,0,0,0,0,0,0,0,0,-1,335,639,0,0,0,0,0,0,0,0,0
0,0,0,0,0,0,0,0,0,0,0,0,0,0,0,0,0,0,0,-1,342,639,0,0,0,0,0,0,0,0,0
0,0,0,0,0,0,0,0,0,0,0,0,0,0,0,0,0,0,0,-1,349,639,0,0,0,0,0,0,0,0,0
0,0,0,0,0,0,0,0,0,0,0,0,0,0,0,0,0,0,0,-1,356,639,0,0,0,0,0,0,0,0,0
0,0,0,0,0,0,0,0,0,0,0,0,0,0,0,0,0,0,0,-1,363,639,0,0,0,0,0,0,0,0,0
0,0,0,0,0,0,0,0,0,0,0,0,0,0,0,0,0,0,0,-1,370,639,0,0,0,0,0,0,0,0,0
0,0,0,0,0,0,0,0,0,0,0,0,0,0,0,0,0,0,0,-1,377,639,0,0,0,0,0,0,0,0,0
0,0,0,0,0,0,0,0,0,0,0,0,0,0,0,0,0,0,0,-1,384,639,0,0,0,0,0,0,0,0,0
0,0,0,0,0,0,0,0,0,0,0,0,0,0,0,0,0,0,0,-1,391,639,0,0,0,0,0,0,0,0,0
0,0,0,0,0,0,0,0,0,0,0,0,0,0,0,0,0,0,0,-1,398,639,0,0,0,0,0,0,0,0,0
0,0,0,0,0,0,0,0,0,0,0,0,0,0,0,0,0,0,0,-1,405,639,0,0,0,0,0,0,0,0,0
0,0,0,0,0,0,0,0,0,0,0,0,0,0,0,0,0,0,0,-1,412,639,0,0,0,0,0,0,0,0,0
0,0,0,0,0,0,0,0,0,0,0,0,0,0,0,0,0,0,0,-1,419,639,0,0,0,0,0,0,0,0,0
0,0,0,0,0,0,0,0,0,0,0,0,0,0,0,0,0,0,0,-1,426,639,0,0,0,0,0,0,0,0,0
0,0,0,0,0,0,0,0,0,0,0,0,0,0,0,0,0,0,0,-1,433,639,0,0,0,0,0,0,0,0,0
0,0,0,0,0,0,0,0,0,0,0,0,0,0,0,0,0,0,0,-1,440,639,0,0,0,0,0,0,0,0,0
0,0,0,0,0,0,0,0,0,0,0,0,0,0,0,0,0,0,0,-1,447,639,0,0,0,0,0,0,0,0,0
0,0,0,0,0,0,0,0,0,0,0,0,0,0,0,0,0,0,0,-1,454,639,0,0,0,0,0,0,0,0,0
0,0,0,0,0,0,0,0,0,0,0,0,0,0,0,0,0,0,0,-1,461,639,0,0,0,0,0,0,0,0,0
0,0,0,0,0,0,0,0,0,0,0,0,0,0,0,0,0,0,0,-1,468,639,0,0,0,0,0,0,0,0,0
0,0,0,0,0,0,0,0,0,0,0,0,0,0,0,0,0,0,0,-1,475,639,0,0,0,0,0,0,0,0,0
0,0,0,0,0,0,0,0,0,0,0,0,0,0,0,0,0,0,0,-1,482,639,0,0,0,0,0,0,0,0,0
0,0,0,0,0,0,0,0,0,0,0,0,0,0,0,0,0,0,0,-1,489,639,0,0,0,0,0,0,0,0,0
0,0,0,0,0,0,0,0,0,0,0,0,0,0,0,0,0,0,0,-1,496,639,0,0,0,0,0,0,0,0,0
0,0,0,0,0,0,0,0,0,0,0,0,0,0,0,0,0,0,0,-1,503,639,0,0,0,0,0,0,0,0,0
0,0,0,0,0,0,0,0,0,0,0,0,0,0,0,0,0,0,0,-1,510,639,0,0,0,0,0,0,0,0,0
0,0,0,0,0,0,0,0,0,0,0,0,0,0,0,0,0,0,0,-1,517,639,0,0,0,0,0,0,0,0,0
0,0,0,0,0,0,0,0,0,0,0,0,0,0,0,0,0,0,0,-1,524,639,0,0,0,0,0,0,0,0,0
0,0,0,0,0,0,0,0,0,0,0,0,0,0,0,0,0,0,0,-1,531,639,0,0,0,0,0,0,0,0,0
0,0,0,0,0,0,0,0,0,0,0,0,0,0,0,0,0,0,0,-1,538,639,0,0,0,0,0,0,0,0,0
0,0,0,0,0,0,0,0,0,0,0,0,0,0,0,0,0,0,0,-1,545,639,0,0,0,0,0,0,0,0,0
0,0,0,0,0,0,0,0,0,0,0,0,0,0,0,0,0,0,0,-1,552,639,0,0,0,0,0,0,0,0,0
0,0,0,0,0,0,0,0,0,0,0,0,0,0,0,0,0,0,0,-1,559,639,0,0,0,0,0,0,0,0,0
0,0,0,0,0,0,0,0,0,0,0,0,0,0,0,0,0,0,0,-1,566,639,0,0,0,0,0,0,0,0,0
0,0,0,0,0,0,0,0,0,0,0,0,0,0,0,0,0,0,0,-1,573,639,0,0,0,0,0,0,0,0,0
0,0,0,0,0,0,0,0,0,0,0,0,0,0,0,0,0,0,0,-1,580,639,0,0,0,0,0,0,0,0,0
0,0,0,0,0,0,0,0,0,0,0,0,0,0,0,0,0,0,0,-1,587,639,0,0,0,0,0,0,0,0,0
0,0,0,0,0,0,0,0,0,0,0,0,0,0,0,0,0,0,0,-1,594,639,0,0,0,0,0,0,0,0,0
0,0,0,0,0,0,0,0,0,0,0,0,0,0,0,0,0,0,0,-1,601,639,0,0,0,0,0,0,0,0,0
0,0,0,0,0,0,0,0,0,0,0,0,0,0,0,0,0,0,0,-1,62,646,0,0,0,0,0,0,0,0,0
0,0,0,0,0,0,0,0,0,0,0,0,0,0,0,0,0,0,0,-1,69,646,0,0,0,0,0,0,0,0,0
0,0,0,0,0,0,0,0,0,0,0,0,0,0,0,0,0,0,0,-1,76,646,0,0,0,0,0,0,0,0,0
0,0,0,0,0,0,0,0,0,0,0,0,0,0,0,0,0,0,0,-1,83,646,0,0,0,0,0,0,0,0,0
0,0,0,0,0,0,0,0,0,0,0,0,0,0,0,0,0,0,0,-1,90,646,0,0,0,0,0,0,0,0,0
0,0,0,0,0,0,0,0,0,0,0,0,0,0,0,0,0,0,0,-1,97,646,0,0,0,0,0,0,0,0,0
0,0,0,0,0,0,0,0,0,0,0,0,0,0,0,0,0,0,0,-1,104,646,0,0,0,0,0,0,0,0,0
0,0,0,0,0,0,0,0,0,0,0,0,0,0,0,0,0,0,0,-1,111,646,0,0,0,0,0,0,0,0,0
0,0,0,0,0,0,0,0,0,0,0,0,0,0,0,0,0,0,0,-1,118,646,0,0,0,0,0,0,0,0,0
0,0,0,0,0,0,0,0,0,0,0,0,0,0,0,0,0,0,0,-1,125,646,0,0,0,0,0,0,0,0,0
0,0,0,0,0,0,0,0,0,0,0,0,0,0,0,0,0,0,0,-1,132,646,0,0,0,0,0,0,0,0,0
0,0,0,0,0,0,0,0,0,0,0,0,0,0,0,0,0,0,0,-1,139,646,0,0,0,0,0,0,0,0,0
0,0,0,0,0,0,0,0,0,0,0,0,0,0,0,0,0,0,0,-1,146,646,0,0,0,0,0,0,0,0,0
0,0,0,0,0,0,0,0,0,0,0,0,0,0,0,0,0,0,0,-1,153,646,0,0,0,0,0,0,0,0,0
0,0,0,0,0,0,0,0,0,0,0,0,0,0,0,0,0,0,0,-1,160,646,0,0,0,0,0,0,0,0,0
0,0,0,0,0,0,0,0,0,0,0,0,0,0,0,0,0,0,0,-1,167,646,0,0,0,0,0,0,0,0,0
0,0,0,0,0,0,0,0,0,0,0,0,0,0,0,0,0,0,0,-1,174,646,0,0,0,0,0,0,0,0,0
0,0,0,0,0,0,0,0,0,0,0,0,0,0,0,0,0,0,0,-1,181,646,0,0,0,0,0,0,0,0,0
0,0,0,0,0,0,0,0,0,0,0,0,0,0,0,0,0,0,0,-1,188,646,0,0,0,0,0,0,0,0,0
0,0,0,0,0,0,0,0,0,0,0,0,0,0,0,0,0,0,0,-1,195,646,0,0,0,0,0,0,0,0,0
0,0,0,0,0,0,0,0,0,0,0,0,0,0,0,0,0,0,0,-1,202,646,0,0,0,0,0,0,0,0,0
0,0,0,0,0,0,0,0,0,0,0,0,0,0,0,0,0,0,0,-1,209,646,0,0,0,0,0,0,0,0,0
0,0,0,0,0,0,0,0,0,0,0,0,0,0,0,0,0,0,0,-1,216,646,0,0,0,0,0,0,0,0,0
0,0,0,0,0,0,0,0,0,0,0,0,0,0,0,0,0,0,0,-1,223,646,0,0,0,0,0,0,0,0,0
0,0,0,0,0,0,0,0,0,0,0,0,0,0,0,0,0,0,0,-1,230,646,0,0,0,0,0,0,0,0,0
0,0,0,0,0,0,0,0,0,0,0,0,0,0,0,0,0,0,0,-1,237,646,0,0,0,0,0,0,0,0,0
0,0,0,0,0,0,0,0,0,0,0,0,0,0,0,0,0,0,0,-1,244,646,0,0,0,0,0,0,0,0,0
0,0,0,0,0,0,0,0,0,0,0,0,0,0,0,0,0,0,0,-1,251,646,0,0,0,0,0,0,0,0,0
0,0,0,0,0,0,0,0,0,0,0,0,0,0,0,0,0,0,0,-1,258,646,0,0,0,0,0,0,0,0,0
0,0,0,0,0,0,0,0,0,0,0,0,0,0,0,0,0,0,0,-1,265,646,0,0,0,0,0,0,0,0,0
0,0,0,0,0,0,0,0,0,0,0,0,0,0,0,0,0,0,0,-1,272,646,0,0,0,0,0,0,0,0,0
0,0,0,0,0,0,0,0,0,0,0,0,0,0,0,0,0,0,0,-1,279,646,0,0,0,0,0,0,0,0,0
0,0,0,0,0,0,0,0,0,0,0,0,0,0,0,0,0,0,0,-1,286,646,0,0,0,0,0,0,0,0,0
0,0,0,0,0,0,0,0,0,0,0,0,0,0,0,0,0,0,0,-1,293,646,0,0,0,0,0,0,0,0,0
0,0,0,0,0,0,0,0,0,0,0,0,0,0,0,0,0,0,0,-1,300,646,0,0,0,0,0,0,0,0,0
0,0,0,0,0,0,0,0,0,0,0,0,0,0,0,0,0,0,0,-1,307,646,0,0,0,0,0,0,0,0,0
0,0,0,0,0,0,0,0,0,0,0,0,0,0,0,0,0,0,0,-1,314,646,0,0,0,0,0,0,0,0,0
0,0,0,0,0,0,0,0,0,0,0,0,0,0,0,0,0,0,0,-1,321,646,0,0,0,0,0,0,0,0,0
0,0,0,0,0,0,0,0,0,0,0,0,0,0,0,0,0,0,0,-1,328,646,0,0,0,0,0,0,0,0,0
0,0,0,0,0,0,0,0,0,0,0,0,0,0,0,0,0,0,0,-1,335,646,0,0,0,0,0,0,0,0,0
0,0,0,0,0,0,0,0,0,0,0,0,0,0,0,0,0,0,0,-1,342,646,0,0,0,0,0,0,0,0,0
0,0,0,0,0,0,0,0,0,0,0,0,0,0,0,0,0,0,0,-1,349,646,0,0,0,0,0,0,0,0,0
0,0,0,0,0,0,0,0,0,0,0,0,0,0,0,0,0,0,0,-1,356,646,0,0,0,0,0,0,0,0,0
0,0,0,0,0,0,0,0,0,0,0,0,0,0,0,0,0,0,0,-1,363,646,0,0,0,0,0,0,0,0,0
0,0,0,0,0,0,0,0,0,0,0,0,0,0,0,0,0,0,0,-1,370,646,0,0,0,0,0,0,0,0,0
0,0,0,0,0,0,0,0,0,0,0,0,0,0,0,0,0,0,0,-1,377,646,0,0,0,0,0,0,0,0,0
0,0,0,0,0,0,0,0,0,0,0,0,0,0,0,0,0,0,0,-1,384,646,0,0,0,0,0,0,0,0,0
0,0,0,0,0,0,0,0,0,0,0,0,0,0,0,0,0,0,0,-1,391,646,0,0,0,0,0,0,0,0,0
0,0,0,0,0,0,0,0,0,0,0,0,0,0,0,0,0,0,0,-1,398,646,0,0,0,0,0,0,0,0,0
0,0,0,0,0,0,0,0,0,0,0,0,0,0,0,0,0,0,0,-1,405,646,0,0,0,0,0,0,0,0,0
0,0,0,0,0,0,0,0,0,0,0,0,0,0,0,0,0,0,0,-1,412,646,0,0,0,0,0,0,0,0,0
0,0,0,0,0,0,0,0,0,0,0,0,0,0,0,0,0,0,0,-1,419,646,0,0,0,0,0,0,0,0,0
0,0,0,0,0,0,0,0,0,0,0,0,0,0,0,0,0,0,0,-1,426,646,0,0,0,0,0,0,0,0,0
0,0,0,0,0,0,0,0,0,0,0,0,0,0,0,0,0,0,0,-1,433,646,0,0,0,0,0,0,0,0,0
0,0,0,0,0,0,0,0,0,0,0,0,0,0,0,0,0,0,0,-1,440,646,0,0,0,0,0,0,0,0,0
0,0,0,0,0,0,0,0,0,0,0,0,0,0,0,0,0,0,0,-1,447,646,0,0,0,0,0,0,0,0,0
0,0,0,0,0,0,0,0,0,0,0,0,0,0,0,0,0,0,0,-1,454,646,0,0,0,0,0,0,0,0,0
0,0,0,0,0,0,0,0,0,0,0,0,0,0,0,0,0,0,0,-1,461,646,0,0,0,0,0,0,0,0,0
0,0,0,0,0,0,0,0,0,0,0,0,0,0,0,0,0,0,0,-1,468,646,0,0,0,0,0,0,0,0,0
0,0,0,0,0,0,0,0,0,0,0,0,0,0,0,0,0,0,0,-1,475,646,0,0,0,0,0,0,0,0,0
0,0,0,0,0,0,0,0,0,0,0,0,0,0,0,0,0,0,0,-1,482,646,0,0,0,0,0,0,0,0,0
0,0,0,0,0,0,0,0,0,0,0,0,0,0,0,0,0,0,0,-1,489,646,0,0,0,0,0,0,0,0,0
0,0,0,0,0,0,0,0,0,0,0,0,0,0,0,0,0,0,0,-1,496,646,0,0,0,0,0,0,0,0,0
0,0,0,0,0,0,0,0,0,0,0,0,0,0,0,0,0,0,0,-1,503,646,0,0,0,0,0,0,0,0,0
0,0,0,0,0,0,0,0,0,0,0,0,0,0,0,0,0,0,0,-1,510,646,0,0,0,0,0,0,0,0,0
0,0,0,0,0,0,0,0,0,0,0,0,0,0,0,0,0,0,0,-1,517,646,0,0,0,0,0,0,0,0,0
0,0,0,0,0,0,0,0,0,0,0,0,0,0,0,0,0,0,0,-1,524,646,0,0,0,0,0,0,0,0,0
0,0,0,0,0,0,0,0,0,0,0,0,0,0,0,0,0,0,0,-1,531,646,0,0,0,0,0,0,0,0,0
0,0,0,0,0,0,0,0,0,0,0,0,0,0,0,0,0,0,0,-1,538,646,0,0,0,0,0,0,0,0,0
0,0,0,0,0,0,0,0,0,0,0,0,0,0,0,0,0,0,0,-1,545,646,0,0,0,0,0,0,0,0,0
0,0,0,0,0,0,0,0,0,0,0,0,0,0,0,0,0,0,0,-1,552,646,0,0,0,0,0,0,0,0,0
0,0,0,0,0,0,0,0,0,0,0,0,0,0,0,0,0,0,0,-1,559,646,0,0,0,0,0,0,0,0,0
0,0,0,0,0,0,0,0,0,0,0,0,0,0,0,0,0,0,0,-1,566,646,0,0,0,0,0,0,0,0,0
0,0,0,0,0,0,0,0,0,0,0,0,0,0,0,0,0,0,0,-1,573,646,0,0,0,0,0,0,0,0,0
0,0,0,0,0,0,0,0,0,0,0,0,0,0,0,0,0,0,0,-1,580,646,0,0,0,0,0,0,0,0,0
0,0,0,0,0,0,0,0,0,0,0,0,0,0,0,0,0,0,0,-1,587,646,0,0,0,0,0,0,0,0,0
0,0,0,0,0,0,0,0,0,0,0,0,0,0,0,0,0,0,0,-1,594,646,0,0,0,0,0,0,0,0,0
0,0,0,0,0,0,0,0,0,0,0,0,0,0,0,0,0,0,0,-1,601,646,0,0,0,0,0,0,0,0,0
0,0,0,0,0,0,0,0,0,0,0,0,0,0,0,0,0,0,0,-1,62,653,0,0,0,0,0,0,0,0,0
0,0,0,0,0,0,0,0,0,0,0,0,0,0,0,0,0,0,0,-1,69,653,0,0,0,0,0,0,0,0,0
0,0,0,0,0,0,0,0,0,0,0,0,0,0,0,0,0,0,0,-1,76,653,0,0,0,0,0,0,0,0,0
0,0,0,0,0,0,0,0,0,0,0,0,0,0,0,0,0,0,0,-1,83,653,0,0,0,0,0,0,0,0,0
0,0,0,0,0,0,0,0,0,0,0,0,0,0,0,0,0,0,0,-1,90,653,0,0,0,0,0,0,0,0,0
0,0,0,0,0,0,0,0,0,0,0,0,0,0,0,0,0,0,0,-1,97,653,0,0,0,0,0,0,0,0,0
0,0,0,0,0,0,0,0,0,0,0,0,0,0,0,0,0,0,0,-1,104,653,0,0,0,0,0,0,0,0,0
0,0,0,0,0,0,0,0,0,0,0,0,0,0,0,0,0,0,0,-1,111,653,0,0,0,0,0,0,0,0,0
0,0,0,0,0,0,0,0,0,0,0,0,0,0,0,0,0,0,0,-1,118,653,0,0,0,0,0,0,0,0,0
0,0,0,0,0,0,0,0,0,0,0,0,0,0,0,0,0,0,0,-1,125,653,0,0,0,0,0,0,0,0,0
0,0,0,0,0,0,0,0,0,0,0,0,0,0,0,0,0,0,0,-1,132,653,0,0,0,0,0,0,0,0,0
0,0,0,0,0,0,0,0,0,0,0,0,0,0,0,0,0,0,0,-1,139,653,0,0,0,0,0,0,0,0,0
0,0,0,0,0,0,0,0,0,0,0,0,0,0,0,0,0,0,0,-1,146,653,0,0,0,0,0,0,0,0,0
0,0,0,0,0,0,0,0,0,0,0,0,0,0,0,0,0,0,0,-1,153,653,0,0,0,0,0,0,0,0,0
0,0,0,0,0,0,0,0,0,0,0,0,0,0,0,0,0,0,0,-1,160,653,0,0,0,0,0,0,0,0,0
0,0,0,0,0,0,0,0,0,0,0,0,0,0,0,0,0,0,0,-1,167,653,0,0,0,0,0,0,0,0,0
0,0,0,0,0,0,0,0,0,0,0,0,0,0,0,0,0,0,0,-1,174,653,0,0,0,0,0,0,0,0,0
0,0,0,0,0,0,0,0,0,0,0,0,0,0,0,0,0,0,0,-1,181,653,0,0,0,0,0,0,0,0,0
0,0,0,0,0,0,0,0,0,0,0,0,0,0,0,0,0,0,0,-1,188,653,0,0,0,0,0,0,0,0,0
0,0,0,0,0,0,0,0,0,0,0,0,0,0,0,0,0,0,0,-1,195,653,0,0,0,0,0,0,0,0,0
0,0,0,0,0,0,0,0,0,0,0,0,0,0,0,0,0,0,0,-1,202,653,0,0,0,0,0,0,0,0,0
0,0,0,0,0,0,0,0,0,0,0,0,0,0,0,0,0,0,0,-1,209,653,0,0,0,0,0,0,0,0,0
0,0,0,0,0,0,0,0,0,0,0,0,0,0,0,0,0,0,0,-1,216,653,0,0,0,0,0,0,0,0,0
0,0,0,0,0,0,0,0,0,0,0,0,0,0,0,0,0,0,0,-1,223,653,0,0,0,0,0,0,0,0,0
0,0,0,0,0,0,0,0,0,0,0,0,0,0,0,0,0,0,0,-1,230,653,0,0,0,0,0,0,0,0,0
0,0,0,0,0,0,0,0,0,0,0,0,0,0,0,0,0,0,0,-1,237,653,0,0,0,0,0,0,0,0,0
0,0,0,0,0,0,0,0,0,0,0,0,0,0,0,0,0,0,0,-1,244,653,0,0,0,0,0,0,0,0,0
0,0,0,0,0,0,0,0,0,0,0,0,0,0,0,0,0,0,0,-1,251,653,0,0,0,0,0,0,0,0,0
0,0,0,0,0,0,0,0,0,0,0,0,0,0,0,0,0,0,0,-1,258,653,0,0,0,0,0,0,0,0,0
0,0,0,0,0,0,0,0,0,0,0,0,0,0,0,0,0,0,0,-1,265,653,0,0,0,0,0,0,0,0,0
0,0,0,0,0,0,0,0,0,0,0,0,0,0,0,0,0,0,0,-1,272,653,0,0,0,0,0,0,0,0,0
0,0,0,0,0,0,0,0,0,0,0,0,0,0,0,0,0,0,0,-1,279,653,0,0,0,0,0,0,0,0,0
0,0,0,0,0,0,0,0,0,0,0,0,0,0,0,0,0,0,0,-1,286,653,0,0,0,0,0,0,0,0,0
0,0,0,0,0,0,0,0,0,0,0,0,0,0,0,0,0,0,0,-1,293,653,0,0,0,0,0,0,0,0,0
0,0,0,0,0,0,0,0,0,0,0,0,0,0,0,0,0,0,0,-1,300,653,0,0,0,0,0,0,0,0,0
0,0,0,0,0,0,0,0,0,0,0,0,0,0,0,0,0,0,0,-1,307,653,0,0,0,0,0,0,0,0,0
0,0,0,0,0,0,0,0,0,0,0,0,0,0,0,0,0,0,0,-1,314,653,0,0,0,0,0,0,0,0,0
0,0,0,0,0,0,0,0,0,0,0,0,0,0,0,0,0,0,0,-1,321,653,0,0,0,0,0,0,0,0,0
0,0,0,0,0,0,0,0,0,0,0,0,0,0,0,0,0,0,0,-1,328,653,0,0,0,0,0,0,0,0,0
0,0,0,0,0,0,0,0,0,0,0,0,0,0,0,0,0,0,0,-1,335,653,0,0,0,0,0,0,0,0,0
0,0,0,0,0,0,0,0,0,0,0,0,0,0,0,0,0,0,0,-1,342,653,0,0,0,0,0,0,0,0,0
0,0,0,0,0,0,0,0,0,0,0,0,0,0,0,0,0,0,0,-1,349,653,0,0,0,0,0,0,0,0,0
0,0,0,0,0,0,0,0,0,0,0,0,0,0,0,0,0,0,0,-1,356,653,0,0,0,0,0,0,0,0,0
0,0,0,0,0,0,0,0,0,0,0,0,0,0,0,0,0,0,0,-1,363,653,0,0,0,0,0,0,0,0,0
0,0,0,0,0,0,0,0,0,0,0,0,0,0,0,0,0,0,0,-1,370,653,0,0,0,0,0,0,0,0,0
0,0,0,0,0,0,0,0,0,0,0,0,0,0,0,0,0,0,0,-1,377,653,0,0,0,0,0,0,0,0,0
0,0,0,0,0,0,0,0,0,0,0,0,0,0,0,0,0,0,0,-1,384,653,0,0,0,0,0,0,0,0,0
0,0,0,0,0,0,0,0,0,0,0,0,0,0,0,0,0,0,0,-1,391,653,0,0,0,0,0,0,0,0,0
0,0,0,0,0,0,0,0,0,0,0,0,0,0,0,0,0,0,0,-1,398,653,0,0,0,0,0,0,0,0,0
0,0,0,0,0,0,0,0,0,0,0,0,0,0,0,0,0,0,0,-1,405,653,0,0,0,0,0,0,0,0,0
0,0,0,0,0,0,0,0,0,0,0,0,0,0,0,0,0,0,0,-1,412,653,0,0,0,0,0,0,0,0,0
0,0,0,0,0,0,0,0,0,0,0,0,0,0,0,0,0,0,0,-1,419,653,0,0,0,0,0,0,0,0,0
0,0,0,0,0,0,0,0,0,0,0,0,0,0,0,0,0,0,0,-1,426,653,0,0,0,0,0,0,0,0,0
0,0,0,0,0,0,0,0,0,0,0,0,0,0,0,0,0,0,0,-1,433,653,0,0,0,0,0,0,0,0,0
0,0,0,0,0,0,0,0,0,0,0,0,0,0,0,0,0,0,0,-1,440,653,0,0,0,0,0,0,0,0,0
0,0,0,0,0,0,0,0,0,0,0,0,0,0,0,0,0,0,0,-1,447,653,0,0,0,0,0,0,0,0,0
0,0,0,0,0,0,0,0,0,0,0,0,0,0,0,0,0,0,0,-1,454,653,0,0,0,0,0,0,0,0,0
0,0,0,0,0,0,0,0,0,0,0,0,0,0,0,0,0,0,0,-1,461,653,0,0,0,0,0,0,0,0,0
0,0,0,0,0,0,0,0,0,0,0,0,0,0,0,0,0,0,0,-1,468,653,0,0,0,0,0,0,0,0,0
0,0,0,0,0,0,0,0,0,0,0,0,0,0,0,0,0,0,0,-1,475,653,0,0,0,0,0,0,0,0,0
0,0,0,0,0,0,0,0,0,0,0,0,0,0,0,0,0,0,0,-1,482,653,0,0,0,0,0,0,0,0,0
0,0,0,0,0,0,0,0,0,0,0,0,0,0,0,0,0,0,0,-1,489,653,0,0,0,0,0,0,0,0,0
0,0,0,0,0,0,0,0,0,0,0,0,0,0,0,0,0,0,0,-1,496,653,0,0,0,0,0,0,0,0,0
0,0,0,0,0,0,0,0,0,0,0,0,0,0,0,0,0,0,0,-1,503,653,0,0,0,0,0,0,0,0,0
0,0,0,0,0,0,0,0,0,0,0,0,0,0,0,0,0,0,0,-1,510,653,0,0,0,0,0,0,0,0,0
0,0,0,0,0,0,0,0,0,0,0,0,0,0,0,0,0,0,0,-1,517,653,0,0,0,0,0,0,0,0,0
0,0,0,0,0,0,0,0,0,0,0,0,0,0,0,0,0,0,0,-1,524,653,0,0,0,0,0,0,0,0,0
0,0,0,0,0,0,0,0,0,0,0,0,0,0,0,0,0,0,0,-1,531,653,0,0,0,0,0,0,0,0,0
0,0,0,0,0,0,0,0,0,0,0,0,0,0,0,0,0,0,0,-1,538,653,0,0,0,0,0,0,0,0,0
0,0,0,0,0,0,0,0,0,0,0,0,0,0,0,0,0,0,0,-1,545,653,0,0,0,0,0,0,0,0,0
0,0,0,0,0,0,0,0,0,0,0,0,0,0,0,0,0,0,0,-1,552,653,0,0,0,0,0,0,0,0,0
0,0,0,0,0,0,0,0,0,0,0,0,0,0,0,0,0,0,0,-1,559,653,0,0,0,0,0,0,0,0,0
0,0,0,0,0,0,0,0,0,0,0,0,0,0,0,0,0,0,0,-1,566,653,0,0,0,0,0,0,0,0,0
0,0,0,0,0,0,0,0,0,0,0,0,0,0,0,0,0,0,0,-1,573,653,0,0,0,0,0,0,0,0,0
0,0,0,0,0,0,0,0,0,0,0,0,0,0,0,0,0,0,0,-1,580,653,0,0,0,0,0,0,0,0,0
0,0,0,0,0,0,0,0,0,0,0,0,0,0,0,0,0,0,0,-1,587,653,0,0,0,0,0,0,0,0,0
0,0,0,0,0,0,0,0,0,0,0,0,0,0,0,0,0,0,0,-1,594,653,0,0,0,0,0,0,0,0,0
0,0,0,0,0,0,0,0,0,0,0,0,0,0,0,0,0,0,0,-1,601,653,0,0,0,0,0,0,0,0,0
0,0,0,0,0,0,0,0,0,0,0,0,0,0,0,0,0,0,0,-1,62,660,0,0,0,0,0,0,0,0,0
0,0,0,0,0,0,0,0,0,0,0,0,0,0,0,0,0,0,0,-1,69,660,0,0,0,0,0,0,0,0,0
0,0,0,0,0,0,0,0,0,0,0,0,0,0,0,0,0,0,0,-1,76,660,0,0,0,0,0,0,0,0,0
0,0,0,0,0,0,0,0,0,0,0,0,0,0,0,0,0,0,0,-1,83,660,0,0,0,0,0,0,0,0,0
0,0,0,0,0,0,0,0,0,0,0,0,0,0,0,0,0,0,0,-1,90,660,0,0,0,0,0,0,0,0,0
0,0,0,0,0,0,0,0,0,0,0,0,0,0,0,0,0,0,0,-1,97,660,0,0,0,0,0,0,0,0,0
0,0,0,0,0,0,0,0,0,0,0,0,0,0,0,0,0,0,0,-1,104,660,0,0,0,0,0,0,0,0,0
0,0,0,0,0,0,0,0,0,0,0,0,0,0,0,0,0,0,0,-1,111,660,0,0,0,0,0,0,0,0,0
0,0,0,0,0,0,0,0,0,0,0,0,0,0,0,0,0,0,0,-1,118,660,0,0,0,0,0,0,0,0,0
0,0,0,0,0,0,0,0,0,0,0,0,0,0,0,0,0,0,0,-1,125,660,0,0,0,0,0,0,0,0,0
0,0,0,0,0,0,0,0,0,0,0,0,0,0,0,0,0,0,0,-1,132,660,0,0,0,0,0,0,0,0,0
0,0,0,0,0,0,0,0,0,0,0,0,0,0,0,0,0,0,0,-1,139,660,0,0,0,0,0,0,0,0,0
0,0,0,0,0,0,0,0,0,0,0,0,0,0,0,0,0,0,0,-1,146,660,0,0,0,0,0,0,0,0,0
0,0,0,0,0,0,0,0,0,0,0,0,0,0,0,0,0,0,0,-1,153,660,0,0,0,0,0,0,0,0,0
0,0,0,0,0,0,0,0,0,0,0,0,0,0,0,0,0,0,0,-1,160,660,0,0,0,0,0,0,0,0,0
0,0,0,0,0,0,0,0,0,0,0,0,0,0,0,0,0,0,0,-1,167,660,0,0,0,0,0,0,0,0,0
0,0,0,0,0,0,0,0,0,0,0,0,0,0,0,0,0,0,0,-1,174,660,0,0,0,0,0,0,0,0,0
0,0,0,0,0,0,0,0,0,0,0,0,0,0,0,0,0,0,0,-1,181,660,0,0,0,0,0,0,0,0,0
0,0,0,0,0,0,0,0,0,0,0,0,0,0,0,0,0,0,0,-1,188,660,0,0,0,0,0,0,0,0,0
0,0,0,0,0,0,0,0,0,0,0,0,0,0,0,0,0,0,0,-1,195,660,0,0,0,0,0,0,0,0,0
0,0,0,0,0,0,0,0,0,0,0,0,0,0,0,0,0,0,0,-1,202,660,0,0,0,0,0,0,0,0,0
0,0,0,0,0,0,0,0,0,0,0,0,0,0,0,0,0,0,0,-1,209,660,0,0,0,0,0,0,0,0,0
0,0,0,0,0,0,0,0,0,0,0,0,0,0,0,0,0,0,0,-1,216,660,0,0,0,0,0,0,0,0,0
0,0,0,0,0,0,0,0,0,0,0,0,0,0,0,0,0,0,0,-1,223,660,0,0,0,0,0,0,0,0,0
0,0,0,0,0,0,0,0,0,0,0,0,0,0,0,0,0,0,0,-1,230,660,0,0,0,0,0,0,0,0,0
0,0,0,0,0,0,0,0,0,0,0,0,0,0,0,0,0,0,0,-1,237,660,0,0,0,0,0,0,0,0,0
0,0,0,0,0,0,0,0,0,0,0,0,0,0,0,0,0,0,0,-1,244,660,0,0,0,0,0,0,0,0,0
0,0,0,0,0,0,0,0,0,0,0,0,0,0,0,0,0,0,0,-1,251,660,0,0,0,0,0,0,0,0,0
0,0,0,0,0,0,0,0,0,0,0,0,0,0,0,0,0,0,0,-1,258,660,0,0,0,0,0,0,0,0,0
0,0,0,0,0,0,0,0,0,0,0,0,0,0,0,0,0,0,0,-1,265,660,0,0,0,0,0,0,0,0,0
0,0,0,0,0,0,0,0,0,0,0,0,0,0,0,0,0,0,0,-1,272,660,0,0,0,0,0,0,0,0,0
0,0,0,0,0,0,0,0,0,0,0,0,0,0,0,0,0,0,0,-1,279,660,0,0,0,0,0,0,0,0,0
0,0,0,0,0,0,0,0,0,0,0,0,0,0,0,0,0,0,0,-1,286,660,0,0,0,0,0,0,0,0,0
0,0,0,0,0,0,0,0,0,0,0,0,0,0,0,0,0,0,0,-1,293,660,0,0,0,0,0,0,0,0,0
0,0,0,0,0,0,0,0,0,0,0,0,0,0,0,0,0,0,0,-1,300,660,0,0,0,0,0,0,0,0,0
0,0,0,0,0,0,0,0,0,0,0,0,0,0,0,0,0,0,0,-1,307,660,0,0,0,0,0,0,0,0,0
0,0,0,0,0,0,0,0,0,0,0,0,0,0,0,0,0,0,0,-1,314,660,0,0,0,0,0,0,0,0,0
0,0,0,0,0,0,0,0,0,0,0,0,0,0,0,0,0,0,0,-1,321,660,0,0,0,0,0,0,0,0,0
0,0,0,0,0,0,0,0,0,0,0,0,0,0,0,0,0,0,0,-1,328,660,0,0,0,0,0,0,0,0,0
0,0,0,0,0,0,0,0,0,0,0,0,0,0,0,0,0,0,0,-1,335,660,0,0,0,0,0,0,0,0,0
0,0,0,0,0,0,0,0,0,0,0,0,0,0,0,0,0,0,0,-1,342,660,0,0,0,0,0,0,0,0,0
0,0,0,0,0,0,0,0,0,0,0,0,0,0,0,0,0,0,0,-1,349,660,0,0,0,0,0,0,0,0,0
0,0,0,0,0,0,0,0,0,0,0,0,0,0,0,0,0,0,0,-1,356,660,0,0,0,0,0,0,0,0,0
0,0,0,0,0,0,0,0,0,0,0,0,0,0,0,0,0,0,0,-1,363,660,0,0,0,0,0,0,0,0,0
0,0,0,0,0,0,0,0,0,0,0,0,0,0,0,0,0,0,0,-1,370,660,0,0,0,0,0,0,0,0,0
0,0,0,0,0,0,0,0,0,0,0,0,0,0,0,0,0,0,0,-1,377,660,0,0,0,0,0,0,0,0,0
0,0,0,0,0,0,0,0,0,0,0,0,0,0,0,0,0,0,0,-1,384,660,0,0,0,0,0,0,0,0,0
0,0,0,0,0,0,0,0,0,0,0,0,0,0,0,0,0,0,0,-1,391,660,0,0,0,0,0,0,0,0,0
0,0,0,0,0,0,0,0,0,0,0,0,0,0,0,0,0,0,0,-1,398,660,0,0,0,0,0,0,0,0,0
0,0,0,0,0,0,0,0,0,0,0,0,0,0,0,0,0,0,0,-1,405,660,0,0,0,0,0,0,0,0,0
0,0,0,0,0,0,0,0,0,0,0,0,0,0,0,0,0,0,0,-1,412,660,0,0,0,0,0,0,0,0,0
0,0,0,0,0,0,0,0,0,0,0,0,0,0,0,0,0,0,0,-1,419,660,0,0,0,0,0,0,0,0,0
0,0,0,0,0,0,0,0,0,0,0,0,0,0,0,0,0,0,0,-1,426,660,0,0,0,0,0,0,0,0,0
0,0,0,0,0,0,0,0,0,0,0,0,0,0,0,0,0,0,0,-1,433,660,0,0,0,0,0,0,0,0,0
0,0,0,0,0,0,0,0,0,0,0,0,0,0,0,0,0,0,0,-1,440,660,0,0,0,0,0,0,0,0,0
0,0,0,0,0,0,0,0,0,0,0,0,0,0,0,0,0,0,0,-1,447,660,0,0,0,0,0,0,0,0,0
0,0,0,0,0,0,0,0,0,0,0,0,0,0,0,0,0,0,0,-1,454,660,0,0,0,0,0,0,0,0,0
0,0,0,0,0,0,0,0,0,0,0,0,0,0,0,0,0,0,0,-1,461,660,0,0,0,0,0,0,0,0,0
0,0,0,0,0,0,0,0,0,0,0,0,0,0,0,0,0,0,0,-1,468,660,0,0,0,0,0,0,0,0,0
0,0,0,0,0,0,0,0,0,0,0,0,0,0,0,0,0,0,0,-1,475,660,0,0,0,0,0,0,0,0,0
0,0,0,0,0,0,0,0,0,0,0,0,0,0,0,0,0,0,0,-1,482,660,0,0,0,0,0,0,0,0,0
0,0,0,0,0,0,0,0,0,0,0,0,0,0,0,0,0,0,0,-1,489,660,0,0,0,0,0,0,0,0,0
0,0,0,0,0,0,0,0,0,0,0,0,0,0,0,0,0,0,0,-1,496,660,0,0,0,0,0,0,0,0,0
0,0,0,0,0,0,0,0,0,0,0,0,0,0,0,0,0,0,0,-1,503,660,0,0,0,0,0,0,0,0,0
0,0,0,0,0,0,0,0,0,0,0,0,0,0,0,0,0,0,0,-1,510,660,0,0,0,0,0,0,0,0,0
0,0,0,0,0,0,0,0,0,0,0,0,0,0,0,0,0,0,0,-1,517,660,0,0,0,0,0,0,0,0,0
0,0,0,0,0,0,0,0,0,0,0,0,0,0,0,0,0,0,0,-1,524,660,0,0,0,0,0,0,0,0,0
0,0,0,0,0,0,0,0,0,0,0,0,0,0,0,0,0,0,0,-1,531,660,0,0,0,0,0,0,0,0,0
0,0,0,0,0,0,0,0,0,0,0,0,0,0,0,0,0,0,0,-1,538,660,0,0,0,0,0,0,0,0,0
0,0,0,0,0,0,0,0,0,0,0,0,0,0,0,0,0,0,0,-1,545,660,0,0,0,0,0,0,0,0,0
0,0,0,0,0,0,0,0,0,0,0,0,0,0,0,0,0,0,0,-1,552,660,0,0,0,0,0,0,0,0,0
0,0,0,0,0,0,0,0,0,0,0,0,0,0,0,0,0,0,0,-1,559,660,0,0,0,0,0,0,0,0,0
0,0,0,0,0,0,0,0,0,0,0,0,0,0,0,0,0,0,0,-1,566,660,0,0,0,0,0,0,0,0,0
0,0,0,0,0,0,0,0,0,0,0,0,0,0,0,0,0,0,0,-1,573,660,0,0,0,0,0,0,0,0,0
0,0,0,0,0,0,0,0,0,0,0,0,0,0,0,0,0,0,0,-1,580,660,0,0,0,0,0,0,0,0,0
0,0,0,0,0,0,0,0,0,0,0,0,0,0,0,0,0,0,0,-1,587,660,0,0,0,0,0,0,0,0,0
0,0,0,0,0,0,0,0,0,0,0,0,0,0,0,0,0,0,0,-1,594,660,0,0,0,0,0,0,0,0,0
0,0,0,0,0,0,0,0,0,0,0,0,0,0,0,0,0,0,0,-1,601,660,0,0,0,0,0,0,0,0,0

