 "X",  "Y",  "Z",  "U",  "V",  "W",  "exx",  "eyy",  "exy",  "e1",  "e2",  "gamma",  "e_vonmises",  "dU_dt",  "dV_dt",  "dW_dt",  "dExx_dt",  "dEyy_dt",  "dExy_dt",  "sigma",  "x",  "y",  "u",  "v",  "q",  "r",  "q_ref",  "r_ref",  "SIGMA_X",  "SIGMA_Y",  "SIGMA_Z"
0,0,0,0,0,0,0,0,0,0,0,0,0,0,0,0,0,0,0,-1,62,289,0,0,0,0,0,0,0,0,0
0,0,0,0,0,0,0,0,0,0,0,0,0,0,0,0,0,0,0,-1,69,289,0,0,0,0,0,0,0,0,0
0,0,0,0,0,0,0,0,0,0,0,0,0,0,0,0,0,0,0,-1,76,289,0,0,0,0,0,0,0,0,0
0,0,0,0,0,0,0,0,0,0,0,0,0,0,0,0,0,0,0,-1,83,289,0,0,0,0,0,0,0,0,0
0,0,0,0,0,0,0,0,0,0,0,0,0,0,0,0,0,0,0,-1,90,289,0,0,0,0,0,0,0,0,0
0,0,0,0,0,0,0,0,0,0,0,0,0,0,0,0,0,0,0,-1,97,289,0,0,0,0,0,0,0,0,0
0,0,0,0,0,0,0,0,0,0,0,0,0,0,0,0,0,0,0,-1,104,289,0,0,0,0,0,0,0,0,0
0,0,0,0,0,0,0,0,0,0,0,0,0,0,0,0,0,0,0,-1,111,289,0,0,0,0,0,0,0,0,0
0,0,0,0,0,0,0,0,0,0,0,0,0,0,0,0,0,0,0,-1,118,289,0,0,0,0,0,0,0,0,0
0,0,0,0,0,0,0,0,0,0,0,0,0,0,0,0,0,0,0,-1,125,289,0,0,0,0,0,0,0,0,0
0,0,0,0,0,0,0,0,0,0,0,0,0,0,0,0,0,0,0,-1,132,289,0,0,0,0,0,0,0,0,0
0,0,0,0,0,0,0,0,0,0,0,0,0,0,0,0,0,0,0,-1,139,289,0,0,0,0,0,0,0,0,0
0,0,0,0,0,0,0,0,0,0,0,0,0,0,0,0,0,0,0,-1,146,289,0,0,0,0,0,0,0,0,0
0,0,0,0,0,0,0,0,0,0,0,0,0,0,0,0,0,0,0,-1,153,289,0,0,0,0,0,0,0,0,0
0,0,0,0,0,0,0,0,0,0,0,0,0,0,0,0,0,0,0,-1,160,289,0,0,0,0,0,0,0,0,0
0,0,0,0,0,0,0,0,0,0,0,0,0,0,0,0,0,0,0,-1,167,289,0,0,0,0,0,0,0,0,0
0,0,0,0,0,0,0,0,0,0,0,0,0,0,0,0,0,0,0,-1,174,289,0,0,0,0,0,0,0,0,0
0,0,0,0,0,0,0,0,0,0,0,0,0,0,0,0,0,0,0,-1,181,289,0,0,0,0,0,0,0,0,0
0,0,0,0,0,0,0,0,0,0,0,0,0,0,0,0,0,0,0,-1,188,289,0,0,0,0,0,0,0,0,0
0,0,0,0,0,0,0,0,0,0,0,0,0,0,0,0,0,0,0,-1,195,289,0,0,0,0,0,0,0,0,0
0,0,0,0,0,0,0,0,0,0,0,0,0,0,0,0,0,0,0,-1,202,289,0,0,0,0,0,0,0,0,0
0,0,0,0,0,0,0,0,0,0,0,0,0,0,0,0,0,0,0,-1,209,289,0,0,0,0,0,0,0,0,0
0,0,0,0,0,0,0,0,0,0,0,0,0,0,0,0,0,0,0,-1,216,289,0,0,0,0,0,0,0,0,0
0,0,0,0,0,0,0,0,0,0,0,0,0,0,0,0,0,0,0,-1,223,289,0,0,0,0,0,0,0,0,0
0,0,0,0,0,0,0,0,0,0,0,0,0,0,0,0,0,0,0,-1,230,289,0,0,0,0,0,0,0,0,0
0,0,0,0,0,0,0,0,0,0,0,0,0,0,0,0,0,0,0,-1,237,289,0,0,0,0,0,0,0,0,0
0,0,0,0,0,0,0,0,0,0,0,0,0,0,0,0,0,0,0,-1,244,289,0,0,0,0,0,0,0,0,0
0,0,0,0,0,0,0,0,0,0,0,0,0,0,0,0,0,0,0,-1,251,289,0,0,0,0,0,0,0,0,0
0,0,0,0,0,0,0,0,0,0,0,0,0,0,0,0,0,0,0,-1,258,289,0,0,0,0,0,0,0,0,0
0,0,0,0,0,0,0,0,0,0,0,0,0,0,0,0,0,0,0,-1,265,289,0,0,0,0,0,0,0,0,0
0,0,0,0,0,0,0,0,0,0,0,0,0,0,0,0,0,0,0,-1,272,289,0,0,0,0,0,0,0,0,0
0,0,0,0,0,0,0,0,0,0,0,0,0,0,0,0,0,0,0,-1,279,289,0,0,0,0,0,0,0,0,0
0,0,0,0,0,0,0,0,0,0,0,0,0,0,0,0,0,0,0,-1,286,289,0,0,0,0,0,0,0,0,0
0,0,0,0,0,0,0,0,0,0,0,0,0,0,0,0,0,0,0,-1,293,289,0,0,0,0,0,0,0,0,0
0,0,0,0,0,0,0,0,0,0,0,0,0,0,0,0,0,0,0,-1,300,289,0,0,0,0,0,0,0,0,0
0,0,0,0,0,0,0,0,0,0,0,0,0,0,0,0,0,0,0,-1,307,289,0,0,0,0,0,0,0,0,0
0,0,0,0,0,0,0,0,0,0,0,0,0,0,0,0,0,0,0,-1,314,289,0,0,0,0,0,0,0,0,0
0,0,0,0,0,0,0,0,0,0,0,0,0,0,0,0,0,0,0,-1,321,289,0,0,0,0,0,0,0,0,0
0,0,0,0,0,0,0,0,0,0,0,0,0,0,0,0,0,0,0,-1,328,289,0,0,0,0,0,0,0,0,0
0,0,0,0,0,0,0,0,0,0,0,0,0,0,0,0,0,0,0,-1,335,289,0,0,0,0,0,0,0,0,0
0,0,0,0,0,0,0,0,0,0,0,0,0,0,0,0,0,0,0,-1,342,289,0,0,0,0,0,0,0,0,0
0,0,0,0,0,0,0,0,0,0,0,0,0,0,0,0,0,0,0,-1,349,289,0,0,0,0,0,0,0,0,0
0,0,0,0,0,0,0,0,0,0,0,0,0,0,0,0,0,0,0,-1,356,289,0,0,0,0,0,0,0,0,0
0,0,0,0,0,0,0,0,0,0,0,0,0,0,0,0,0,0,0,-1,363,289,0,0,0,0,0,0,0,0,0
0,0,0,0,0,0,0,0,0,0,0,0,0,0,0,0,0,0,0,-1,370,289,0,0,0,0,0,0,0,0,0
0,0,0,0,0,0,0,0,0,0,0,0,0,0,0,0,0,0,0,-1,377,289,0,0,0,0,0,0,0,0,0
0,0,0,0,0,0,0,0,0,0,0,0,0,0,0,0,0,0,0,-1,384,289,0,0,0,0,0,0,0,0,0
0,0,0,0,0,0,0,0,0,0,0,0,0,0,0,0,0,0,0,-1,391,289,0,0,0,0,0,0,0,0,0
0,0,0,0,0,0,0,0,0,0,0,0,0,0,0,0,0,0,0,-1,398,289,0,0,0,0,0,0,0,0,0
0,0,0,0,0,0,0,0,0,0,0,0,0,0,0,0,0,0,0,-1,405,289,0,0,0,0,0,0,0,0,0
0,0,0,0,0,0,0,0,0,0,0,0,0,0,0,0,0,0,0,-1,412,289,0,0,0,0,0,0,0,0,0
0,0,0,0,0,0,0,0,0,0,0,0,0,0,0,0,0,0,0,-1,419,289,0,0,0,0,0,0,0,0,0
0,0,0,0,0,0,0,0,0,0,0,0,0,0,0,0,0,0,0,-1,426,289,0,0,0,0,0,0,0,0,0
0,0,0,0,0,0,0,0,0,0,0,0,0,0,0,0,0,0,0,-1,433,289,0,0,0,0,0,0,0,0,0
0,0,0,0,0,0,0,0,0,0,0,0,0,0,0,0,0,0,0,-1,440,289,0,0,0,0,0,0,0,0,0
0,0,0,0,0,0,0,0,0,0,0,0,0,0,0,0,0,0,0,-1,447,289,0,0,0,0,0,0,0,0,0
0,0,0,0,0,0,0,0,0,0,0,0,0,0,0,0,0,0,0,-1,454,289,0,0,0,0,0,0,0,0,0
0,0,0,0,0,0,0,0,0,0,0,0,0,0,0,0,0,0,0,-1,461,289,0,0,0,0,0,0,0,0,0
0,0,0,0,0,0,0,0,0,0,0,0,0,0,0,0,0,0,0,-1,468,289,0,0,0,0,0,0,0,0,0
0,0,0,0,0,0,0,0,0,0,0,0,0,0,0,0,0,0,0,-1,475,289,0,0,0,0,0,0,0,0,0
0,0,0,0,0,0,0,0,0,0,0,0,0,0,0,0,0,0,0,-1,482,289,0,0,0,0,0,0,0,0,0
0,0,0,0,0,0,0,0,0,0,0,0,0,0,0,0,0,0,0,-1,489,289,0,0,0,0,0,0,0,0,0
0,0,0,0,0,0,0,0,0,0,0,0,0,0,0,0,0,0,0,-1,496,289,0,0,0,0,0,0,0,0,0
0,0,0,0,0,0,0,0,0,0,0,0,0,0,0,0,0,0,0,-1,503,289,0,0,0,0,0,0,0,0,0
0,0,0,0,0,0,0,0,0,0,0,0,0,0,0,0,0,0,0,-1,510,289,0,0,0,0,0,0,0,0,0
0,0,0,0,0,0,0,0,0,0,0,0,0,0,0,0,0,0,0,-1,517,289,0,0,0,0,0,0,0,0,0
0,0,0,0,0,0,0,0,0,0,0,0,0,0,0,0,0,0,0,-1,524,289,0,0,0,0,0,0,0,0,0
0,0,0,0,0,0,0,0,0,0,0,0,0,0,0,0,0,0,0,-1,531,289,0,0,0,0,0,0,0,0,0
0,0,0,0,0,0,0,0,0,0,0,0,0,0,0,0,0,0,0,-1,538,289,0,0,0,0,0,0,0,0,0
0,0,0,0,0,0,0,0,0,0,0,0,0,0,0,0,0,0,0,-1,545,289,0,0,0,0,0,0,0,0,0
0,0,0,0,0,0,0,0,0,0,0,0,0,0,0,0,0,0,0,-1,552,289,0,0,0,0,0,0,0,0,0
0,0,0,0,0,0,0,0,0,0,0,0,0,0,0,0,0,0,0,-1,559,289,0,0,0,0,0,0,0,0,0
0,0,0,0,0,0,0,0,0,0,0,0,0,0,0,0,0,0,0,-1,566,289,0,0,0,0,0,0,0,0,0
0,0,0,0,0,0,0,0,0,0,0,0,0,0,0,0,0,0,0,-1,573,289,0,0,0,0,0,0,0,0,0
0,0,0,0,0,0,0,0,0,0,0,0,0,0,0,0,0,0,0,-1,580,289,0,0,0,0,0,0,0,0,0
0,0,0,0,0,0,0,0,0,0,0,0,0,0,0,0,0,0,0,-1,587,289,0,0,0,0,0,0,0,0,0
0,0,0,0,0,0,0,0,0,0,0,0,0,0,0,0,0,0,0,-1,594,289,0,0,0,0,0,0,0,0,0
0,0,0,0,0,0,0,0,0,0,0,0,0,0,0,0,0,0,0,-1,601,289,0,0,0,0,0,0,0,0,0
0,0,0,0,0,0,0,0,0,0,0,0,0,0,0,0,0,0,0,-1,62,296,0,0,0,0,0,0,0,0,0
0,0,0,0,0,0,0,0,0,0,0,0,0,0,0,0,0,0,0,-1,69,296,0,0,0,0,0,0,0,0,0
0,0,0,0,0,0,0,0,0,0,0,0,0,0,0,0,0,0,0,-1,76,296,0,0,0,0,0,0,0,0,0
0,0,0,0,0,0,0,0,0,0,0,0,0,0,0,0,0,0,0,-1,83,296,0,0,0,0,0,0,0,0,0
0,0,0,0,0,0,0,0,0,0,0,0,0,0,0,0,0,0,0,-1,90,296,0,0,0,0,0,0,0,0,0
0,0,0,0,0,0,0,0,0,0,0,0,0,0,0,0,0,0,0,-1,97,296,0,0,0,0,0,0,0,0,0
0,0,0,0,0,0,0,0,0,0,0,0,0,0,0,0,0,0,0,-1,104,296,0,0,0,0,0,0,0,0,0
0,0,0,0,0,0,0,0,0,0,0,0,0,0,0,0,0,0,0,-1,111,296,0,0,0,0,0,0,0,0,0
0,0,0,0,0,0,0,0,0,0,0,0,0,0,0,0,0,0,0,-1,118,296,0,0,0,0,0,0,0,0,0
0,0,0,0,0,0,0,0,0,0,0,0,0,0,0,0,0,0,0,-1,125,296,0,0,0,0,0,0,0,0,0
0,0,0,0,0,0,0,0,0,0,0,0,0,0,0,0,0,0,0,-1,132,296,0,0,0,0,0,0,0,0,0
0,0,0,0,0,0,0,0,0,0,0,0,0,0,0,0,0,0,0,-1,139,296,0,0,0,0,0,0,0,0,0
0,0,0,0,0,0,0,0,0,0,0,0,0,0,0,0,0,0,0,-1,146,296,0,0,0,0,0,0,0,0,0
0,0,0,0,0,0,0,0,0,0,0,0,0,0,0,0,0,0,0,-1,153,296,0,0,0,0,0,0,0,0,0
0,0,0,0,0,0,0,0,0,0,0,0,0,0,0,0,0,0,0,-1,160,296,0,0,0,0,0,0,0,0,0
0,0,0,0,0,0,0,0,0,0,0,0,0,0,0,0,0,0,0,-1,167,296,0,0,0,0,0,0,0,0,0
0,0,0,0,0,0,0,0,0,0,0,0,0,0,0,0,0,0,0,-1,174,296,0,0,0,0,0,0,0,0,0
0,0,0,0,0,0,0,0,0,0,0,0,0,0,0,0,0,0,0,-1,181,296,0,0,0,0,0,0,0,0,0
0,0,0,0,0,0,0,0,0,0,0,0,0,0,0,0,0,0,0,-1,188,296,0,0,0,0,0,0,0,0,0
0,0,0,0,0,0,0,0,0,0,0,0,0,0,0,0,0,0,0,-1,195,296,0,0,0,0,0,0,0,0,0
0,0,0,0,0,0,0,0,0,0,0,0,0,0,0,0,0,0,0,-1,202,296,0,0,0,0,0,0,0,0,0
0,0,0,0,0,0,0,0,0,0,0,0,0,0,0,0,0,0,0,-1,209,296,0,0,0,0,0,0,0,0,0
0,0,0,0,0,0,0,0,0,0,0,0,0,0,0,0,0,0,0,-1,216,296,0,0,0,0,0,0,0,0,0
0,0,0,0,0,0,0,0,0,0,0,0,0,0,0,0,0,0,0,-1,223,296,0,0,0,0,0,0,0,0,0
0,0,0,0,0,0,0,0,0,0,0,0,0,0,0,0,0,0,0,-1,230,296,0,0,0,0,0,0,0,0,0
0,0,0,0,0,0,0,0,0,0,0,0,0,0,0,0,0,0,0,-1,237,296,0,0,0,0,0,0,0,0,0
0,0,0,0,0,0,0,0,0,0,0,0,0,0,0,0,0,0,0,-1,244,296,0,0,0,0,0,0,0,0,0
0,0,0,0,0,0,0,0,0,0,0,0,0,0,0,0,0,0,0,-1,251,296,0,0,0,0,0,0,0,0,0
0,0,0,0,0,0,0,0,0,0,0,0,0,0,0,0,0,0,0,-1,258,296,0,0,0,0,0,0,0,0,0
0,0,0,0,0,0,0,0,0,0,0,0,0,0,0,0,0,0,0,-1,265,296,0,0,0,0,0,0,0,0,0
0,0,0,0,0,0,0,0,0,0,0,0,0,0,0,0,0,0,0,-1,272,296,0,0,0,0,0,0,0,0,0
0,0,0,0,0,0,0,0,0,0,0,0,0,0,0,0,0,0,0,-1,279,296,0,0,0,0,0,0,0,0,0
0,0,0,0,0,0,0,0,0,0,0,0,0,0,0,0,0,0,0,-1,286,296,0,0,0,0,0,0,0,0,0
0,0,0,0,0,0,0,0,0,0,0,0,0,0,0,0,0,0,0,-1,293,296,0,0,0,0,0,0,0,0,0
0,0,0,0,0,0,0,0,0,0,0,0,0,0,0,0,0,0,0,-1,300,296,0,0,0,0,0,0,0,0,0
0,0,0,0,0,0,0,0,0,0,0,0,0,0,0,0,0,0,0,-1,307,296,0,0,0,0,0,0,0,0,0
0,0,0,0,0,0,0,0,0,0,0,0,0,0,0,0,0,0,0,-1,314,296,0,0,0,0,0,0,0,0,0
0,0,0,0,0,0,0,0,0,0,0,0,0,0,0,0,0,0,0,-1,321,296,0,0,0,0,0,0,0,0,0
0,0,0,0,0,0,0,0,0,0,0,0,0,0,0,0,0,0,0,-1,328,296,0,0,0,0,0,0,0,0,0
0,0,0,0,0,0,0,0,0,0,0,0,0,0,0,0,0,0,0,-1,335,296,0,0,0,0,0,0,0,0,0
0,0,0,0,0,0,0,0,0,0,0,0,0,0,0,0,0,0,0,-1,342,296,0,0,0,0,0,0,0,0,0
0,0,0,0,0,0,0,0,0,0,0,0,0,0,0,0,0,0,0,-1,349,296,0,0,0,0,0,0,0,0,0
0,0,0,0,0,0,0,0,0,0,0,0,0,0,0,0,0,0,0,-1,356,296,0,0,0,0,0,0,0,0,0
0,0,0,0,0,0,0,0,0,0,0,0,0,0,0,0,0,0,0,-1,363,296,0,0,0,0,0,0,0,0,0
0,0,0,0,0,0,0,0,0,0,0,0,0,0,0,0,0,0,0,-1,370,296,0,0,0,0,0,0,0,0,0
0,0,0,0,0,0,0,0,0,0,0,0,0,0,0,0,0,0,0,-1,377,296,0,0,0,0,0,0,0,0,0
0,0,0,0,0,0,0,0,0,0,0,0,0,0,0,0,0,0,0,-1,384,296,0,0,0,0,0,0,0,0,0
0,0,0,0,0,0,0,0,0,0,0,0,0,0,0,0,0,0,0,-1,391,296,0,0,0,0,0,0,0,0,0
0,0,0,0,0,0,0,0,0,0,0,0,0,0,0,0,0,0,0,-1,398,296,0,0,0,0,0,0,0,0,0
0,0,0,0,0,0,0,0,0,0,0,0,0,0,0,0,0,0,0,-1,405,296,0,0,0,0,0,0,0,0,0
0,0,0,0,0,0,0,0,0,0,0,0,0,0,0,0,0,0,0,-1,412,296,0,0,0,0,0,0,0,0,0
0,0,0,0,0,0,0,0,0,0,0,0,0,0,0,0,0,0,0,-1,419,296,0,0,0,0,0,0,0,0,0
0,0,0,0,0,0,0,0,0,0,0,0,0,0,0,0,0,0,0,-1,426,296,0,0,0,0,0,0,0,0,0
0,0,0,0,0,0,0,0,0,0,0,0,0,0,0,0,0,0,0,-1,433,296,0,0,0,0,0,0,0,0,0
0,0,0,0,0,0,0,0,0,0,0,0,0,0,0,0,0,0,0,-1,440,296,0,0,0,0,0,0,0,0,0
0,0,0,0,0,0,0,0,0,0,0,0,0,0,0,0,0,0,0,-1,447,296,0,0,0,0,0,0,0,0,0
0,0,0,0,0,0,0,0,0,0,0,0,0,0,0,0,0,0,0,-1,454,296,0,0,0,0,0,0,0,0,0
0,0,0,0,0,0,0,0,0,0,0,0,0,0,0,0,0,0,0,-1,461,296,0,0,0,0,0,0,0,0,0
0,0,0,0,0,0,0,0,0,0,0,0,0,0,0,0,0,0,0,-1,468,296,0,0,0,0,0,0,0,0,0
0,0,0,0,0,0,0,0,0,0,0,0,0,0,0,0,0,0,0,-1,475,296,0,0,0,0,0,0,0,0,0
0,0,0,0,0,0,0,0,0,0,0,0,0,0,0,0,0,0,0,-1,482,296,0,0,0,0,0,0,0,0,0
0,0,0,0,0,0,0,0,0,0,0,0,0,0,0,0,0,0,0,-1,489,296,0,0,0,0,0,0,0,0,0
0,0,0,0,0,0,0,0,0,0,0,0,0,0,0,0,0,0,0,-1,496,296,0,0,0,0,0,0,0,0,0
0,0,0,0,0,0,0,0,0,0,0,0,0,0,0,0,0,0,0,-1,503,296,0,0,0,0,0,0,0,0,0
0,0,0,0,0,0,0,0,0,0,0,0,0,0,0,0,0,0,0,-1,510,296,0,0,0,0,0,0,0,0,0
0,0,0,0,0,0,0,0,0,0,0,0,0,0,0,0,0,0,0,-1,517,296,0,0,0,0,0,0,0,0,0
0,0,0,0,0,0,0,0,0,0,0,0,0,0,0,0,0,0,0,-1,524,296,0,0,0,0,0,0,0,0,0
0,0,0,0,0,0,0,0,0,0,0,0,0,0,0,0,0,0,0,-1,531,296,0,0,0,0,0,0,0,0,0
0,0,0,0,0,0,0,0,0,0,0,0,0,0,0,0,0,0,0,-1,538,296,0,0,0,0,0,0,0,0,0
0,0,0,0,0,0,0,0,0,0,0,0,0,0,0,0,0,0,0,-1,545,296,0,0,0,0,0,0,0,0,0
0,0,0,0,0,0,0,0,0,0,0,0,0,0,0,0,0,0,0,-1,552,296,0,0,0,0,0,0,0,0,0
0,0,0,0,0,0,0,0,0,0,0,0,0,0,0,0,0,0,0,-1,559,296,0,0,0,0,0,0,0,0,0
0,0,0,0,0,0,0,0,0,0,0,0,0,0,0,0,0,0,0,-1,566,296,0,0,0,0,0,0,0,0,0
0,0,0,0,0,0,0,0,0,0,0,0,0,0,0,0,0,0,0,-1,573,296,0,0,0,0,0,0,0,0,0
0,0,0,0,0,0,0,0,0,0,0,0,0,0,0,0,0,0,0,-1,580,296,0,0,0,0,0,0,0,0,0
0,0,0,0,0,0,0,0,0,0,0,0,0,0,0,0,0,0,0,-1,587,296,0,0,0,0,0,0,0,0,0
0,0,0,0,0,0,0,0,0,0,0,0,0,0,0,0,0,0,0,-1,594,296,0,0,0,0,0,0,0,0,0
0,0,0,0,0,0,0,0,0,0,0,0,0,0,0,0,0,0,0,-1,601,296,0,0,0,0,0,0,0,0,0
0,0,0,0,0,0,0,0,0,0,0,0,0,0,0,0,0,0,0,-1,62,303,0,0,0,0,0,0,0,0,0
0,0,0,0,0,0,0,0,0,0,0,0,0,0,0,0,0,0,0,-1,69,303,0,0,0,0,0,0,0,0,0
0,0,0,0,0,0,0,0,0,0,0,0,0,0,0,0,0,0,0,-1,76,303,0,0,0,0,0,0,0,0,0
0,0,0,0,0,0,0,0,0,0,0,0,0,0,0,0,0,0,0,-1,83,303,0,0,0,0,0,0,0,0,0
0,0,0,0,0,0,0,0,0,0,0,0,0,0,0,0,0,0,0,-1,90,303,0,0,0,0,0,0,0,0,0
0,0,0,0,0,0,0,0,0,0,0,0,0,0,0,0,0,0,0,-1,97,303,0,0,0,0,0,0,0,0,0
0,0,0,0,0,0,0,0,0,0,0,0,0,0,0,0,0,0,0,-1,104,303,0,0,0,0,0,0,0,0,0
0,0,0,0,0,0,0,0,0,0,0,0,0,0,0,0,0,0,0,-1,111,303,0,0,0,0,0,0,0,0,0
0,0,0,0,0,0,0,0,0,0,0,0,0,0,0,0,0,0,0,-1,118,303,0,0,0,0,0,0,0,0,0
0,0,0,0,0,0,0,0,0,0,0,0,0,0,0,0,0,0,0,-1,125,303,0,0,0,0,0,0,0,0,0
0,0,0,0,0,0,0,0,0,0,0,0,0,0,0,0,0,0,0,-1,132,303,0,0,0,0,0,0,0,0,0
0,0,0,0,0,0,0,0,0,0,0,0,0,0,0,0,0,0,0,-1,139,303,0,0,0,0,0,0,0,0,0
0,0,0,0,0,0,0,0,0,0,0,0,0,0,0,0,0,0,0,-1,146,303,0,0,0,0,0,0,0,0,0
0,0,0,0,0,0,0,0,0,0,0,0,0,0,0,0,0,0,0,-1,153,303,0,0,0,0,0,0,0,0,0
0,0,0,0,0,0,0,0,0,0,0,0,0,0,0,0,0,0,0,-1,160,303,0,0,0,0,0,0,0,0,0
0,0,0,0,0,0,0,0,0,0,0,0,0,0,0,0,0,0,0,-1,167,303,0,0,0,0,0,0,0,0,0
0,0,0,0,0,0,0,0,0,0,0,0,0,0,0,0,0,0,0,-1,174,303,0,0,0,0,0,0,0,0,0
0,0,0,0,0,0,0,0,0,0,0,0,0,0,0,0,0,0,0,-1,181,303,0,0,0,0,0,0,0,0,0
0,0,0,0,0,0,0,0,0,0,0,0,0,0,0,0,0,0,0,-1,188,303,0,0,0,0,0,0,0,0,0
0,0,0,0,0,0,0,0,0,0,0,0,0,0,0,0,0,0,0,-1,195,303,0,0,0,0,0,0,0,0,0
0,0,0,0,0,0,0,0,0,0,0,0,0,0,0,0,0,0,0,-1,202,303,0,0,0,0,0,0,0,0,0
0,0,0,0,0,0,0,0,0,0,0,0,0,0,0,0,0,0,0,-1,209,303,0,0,0,0,0,0,0,0,0
0,0,0,0,0,0,0,0,0,0,0,0,0,0,0,0,0,0,0,-1,216,303,0,0,0,0,0,0,0,0,0
0,0,0,0,0,0,0,0,0,0,0,0,0,0,0,0,0,0,0,-1,223,303,0,0,0,0,0,0,0,0,0
0,0,0,0,0,0,0,0,0,0,0,0,0,0,0,0,0,0,0,-1,230,303,0,0,0,0,0,0,0,0,0
0,0,0,0,0,0,0,0,0,0,0,0,0,0,0,0,0,0,0,-1,237,303,0,0,0,0,0,0,0,0,0
0,0,0,0,0,0,0,0,0,0,0,0,0,0,0,0,0,0,0,-1,244,303,0,0,0,0,0,0,0,0,0
0,0,0,0,0,0,0,0,0,0,0,0,0,0,0,0,0,0,0,-1,251,303,0,0,0,0,0,0,0,0,0
0,0,0,0,0,0,0,0,0,0,0,0,0,0,0,0,0,0,0,-1,258,303,0,0,0,0,0,0,0,0,0
0,0,0,0,0,0,0,0,0,0,0,0,0,0,0,0,0,0,0,-1,265,303,0,0,0,0,0,0,0,0,0
0,0,0,0,0,0,0,0,0,0,0,0,0,0,0,0,0,0,0,-1,272,303,0,0,0,0,0,0,0,0,0
0,0,0,0,0,0,0,0,0,0,0,0,0,0,0,0,0,0,0,-1,279,303,0,0,0,0,0,0,0,0,0
0,0,0,0,0,0,0,0,0,0,0,0,0,0,0,0,0,0,0,-1,286,303,0,0,0,0,0,0,0,0,0
0,0,0,0,0,0,0,0,0,0,0,0,0,0,0,0,0,0,0,-1,293,303,0,0,0,0,0,0,0,0,0
0,0,0,0,0,0,0,0,0,0,0,0,0,0,0,0,0,0,0,-1,300,303,0,0,0,0,0,0,0,0,0
0,0,0,0,0,0,0,0,0,0,0,0,0,0,0,0,0,0,0,-1,307,303,0,0,0,0,0,0,0,0,0
0,0,0,0,0,0,0,0,0,0,0,0,0,0,0,0,0,0,0,-1,314,303,0,0,0,0,0,0,0,0,0
0,0,0,0,0,0,0,0,0,0,0,0,0,0,0,0,0,0,0,-1,321,303,0,0,0,0,0,0,0,0,0
0,0,0,0,0,0,0,0,0,0,0,0,0,0,0,0,0,0,0,-1,328,303,0,0,0,0,0,0,0,0,0
0,0,0,0,0,0,0,0,0,0,0,0,0,0,0,0,0,0,0,-1,335,303,0,0,0,0,0,0,0,0,0
0,0,0,0,0,0,0,0,0,0,0,0,0,0,0,0,0,0,0,-1,342,303,0,0,0,0,0,0,0,0,0
0,0,0,0,0,0,0,0,0,0,0,0,0,0,0,0,0,0,0,-1,349,303,0,0,0,0,0,0,0,0,0
0,0,0,0,0,0,0,0,0,0,0,0,0,0,0,0,0,0,0,-1,356,303,0,0,0,0,0,0,0,0,0
0,0,0,0,0,0,0,0,0,0,0,0,0,0,0,0,0,0,0,-1,363,303,0,0,0,0,0,0,0,0,0
0,0,0,0,0,0,0,0,0,0,0,0,0,0,0,0,0,0,0,-1,370,303,0,0,0,0,0,0,0,0,0
0,0,0,0,0,0,0,0,0,0,0,0,0,0,0,0,0,0,0,-1,377,303,0,0,0,0,0,0,0,0,0
0,0,0,0,0,0,0,0,0,0,0,0,0,0,0,0,0,0,0,-1,384,303,0,0,0,0,0,0,0,0,0
0,0,0,0,0,0,0,0,0,0,0,0,0,0,0,0,0,0,0,-1,391,303,0,0,0,0,0,0,0,0,0
0,0,0,0,0,0,0,0,0,0,0,0,0,0,0,0,0,0,0,-1,398,303,0,0,0,0,0,0,0,0,0
0,0,0,0,0,0,0,0,0,0,0,0,0,0,0,0,0,0,0,-1,405,303,0,0,0,0,0,0,0,0,0
0,0,0,0,0,0,0,0,0,0,0,0,0,0,0,0,0,0,0,-1,412,303,0,0,0,0,0,0,0,0,0
0,0,0,0,0,0,0,0,0,0,0,0,0,0,0,0,0,0,0,-1,419,303,0,0,0,0,0,0,0,0,0
0,0,0,0,0,0,0,0,0,0,0,0,0,0,0,0,0,0,0,-1,426,303,0,0,0,0,0,0,0,0,0
0,0,0,0,0,0,0,0,0,0,0,0,0,0,0,0,0,0,0,-1,433,303,0,0,0,0,0,0,0,0,0
0,0,0,0,0,0,0,0,0,0,0,0,0,0,0,0,0,0,0,-1,440,303,0,0,0,0,0,0,0,0,0
0,0,0,0,0,0,0,0,0,0,0,0,0,0,0,0,0,0,0,-1,447,303,0,0,0,0,0,0,0,0,0
0,0,0,0,0,0,0,0,0,0,0,0,0,0,0,0,0,0,0,-1,454,303,0,0,0,0,0,0,0,0,0
0,0,0,0,0,0,0,0,0,0,0,0,0,0,0,0,0,0,0,-1,461,303,0,0,0,0,0,0,0,0,0
0,0,0,0,0,0,0,0,0,0,0,0,0,0,0,0,0,0,0,-1,468,303,0,0,0,0,0,0,0,0,0
0,0,0,0,0,0,0,0,0,0,0,0,0,0,0,0,0,0,0,-1,475,303,0,0,0,0,0,0,0,0,0
0,0,0,0,0,0,0,0,0,0,0,0,0,0,0,0,0,0,0,-1,482,303,0,0,0,0,0,0,0,0,0
0,0,0,0,0,0,0,0,0,0,0,0,0,0,0,0,0,0,0,-1,489,303,0,0,0,0,0,0,0,0,0
0,0,0,0,0,0,0,0,0,0,0,0,0,0,0,0,0,0,0,-1,496,303,0,0,0,0,0,0,0,0,0
0,0,0,0,0,0,0,0,0,0,0,0,0,0,0,0,0,0,0,-1,503,303,0,0,0,0,0,0,0,0,0
0,0,0,0,0,0,0,0,0,0,0,0,0,0,0,0,0,0,0,-1,510,303,0,0,0,0,0,0,0,0,0
0,0,0,0,0,0,0,0,0,0,0,0,0,0,0,0,0,0,0,-1,517,303,0,0,0,0,0,0,0,0,0
0,0,0,0,0,0,0,0,0,0,0,0,0,0,0,0,0,0,0,-1,524,303,0,0,0,0,0,0,0,0,0
0,0,0,0,0,0,0,0,0,0,0,0,0,0,0,0,0,0,0,-1,531,303,0,0,0,0,0,0,0,0,0
0,0,0,0,0,0,0,0,0,0,0,0,0,0,0,0,0,0,0,-1,538,303,0,0,0,0,0,0,0,0,0
0,0,0,0,0,0,0,0,0,0,0,0,0,0,0,0,0,0,0,-1,545,303,0,0,0,0,0,0,0,0,0
0,0,0,0,0,0,0,0,0,0,0,0,0,0,0,0,0,0,0,-1,552,303,0,0,0,0,0,0,0,0,0
0,0,0,0,0,0,0,0,0,0,0,0,0,0,0,0,0,0,0,-1,559,303,0,0,0,0,0,0,0,0,0
0,0,0,0,0,0,0,0,0,0,0,0,0,0,0,0,0,0,0,-1,566,303,0,0,0,0,0,0,0,0,0
0,0,0,0,0,0,0,0,0,0,0,0,0,0,0,0,0,0,0,-1,573,303,0,0,0,0,0,0,0,0,0
0,0,0,0,0,0,0,0,0,0,0,0,0,0,0,0,0,0,0,-1,580,303,0,0,0,0,0,0,0,0,0
0,0,0,0,0,0,0,0,0,0,0,0,0,0,0,0,0,0,0,-1,587,303,0,0,0,0,0,0,0,0,0
0,0,0,0,0,0,0,0,0,0,0,0,0,0,0,0,0,0,0,-1,594,303,0,0,0,0,0,0,0,0,0
0,0,0,0,0,0,0,0,0,0,0,0,0,0,0,0,0,0,0,-1,601,303,0,0,0,0,0,0,0,0,0
0,0,0,0,0,0,0,0,0,0,0,0,0,0,0,0,0,0,0,-1,62,310,0,0,0,0,0,0,0,0,0
0,0,0,0,0,0,0,0,0,0,0,0,0,0,0,0,0,0,0,-1,69,310,0,0,0,0,0,0,0,0,0
0,0,0,0,0,0,0,0,0,0,0,0,0,0,0,0,0,0,0,-1,76,310,0,0,0,0,0,0,0,0,0
-18.237,16.3129,-297.156,0.000718814,0.00270787,0.00166703,5.54769e-05,4.03215e-05,5.65671e-05,0.000104972,-9.1732e-06,0.718815,0.000109846,-0.408338,1.52723,-3.13979,0.0506765,-0.0219892,-0.0922737,0.00241175,83,310,0.000439066,-0.0847619,83.7995,70.7697,83.7654,70.8364,6.10704e-05,6.22879e-05,0.000213813
-17.9691,16.3009,-297.206,0.000720815,0.002738,0.00140817,2.78629e-05,5.61382e-05,7.2789e-05,0.00011615,-3.21487e-05,0.881318,0.000135124,-0.434239,1.5055,-3.13863,0.0359344,-0.0403521,-0.0539932,0.00245134,90,310,0.00265044,-0.0846013,84.0628,71.5005,84.0303,71.5687,6.25994e-05,6.33104e-05,0.000219259
-17.6984,16.2888,-297.248,0.000744675,0.00278389,0.00125372,1.71359e-05,6.63761e-05,7.87102e-05,0.000124227,-4.07148e-05,0.936974,0.000148822,-0.439136,1.49195,-3.11247,0.0272863,-0.0478313,-0.0233424,0.00245942,97,310,0.00447692,-0.0862922,84.4553,72.2348,84.423,72.3037,6.3698e-05,6.22971e-05,0.000223995
-17.4253,16.2764,-297.282,0.000731875,0.00284753,0.00140777,1.09826e-05,7.30401e-05,7.71868e-05,0.000125201,-4.11787e-05,0.976511,0.000150089,-0.433649,1.48346,-3.11917,0.0225301,-0.0457013,-0.00312387,0.00242078,104,310,0.00284707,-0.0883857,84.9612,72.9718,84.9282,73.0423,6.29107e-05,6.03898e-05,0.000221221
-17.1508,16.264,-297.313,0.000691704,0.00289134,0.00159435,6.92791e-06,7.65723e-05,6.98055e-05,0.000119759,-3.62588e-05,1.01676,0.000141419,-0.402778,1.48602,-3.1708,0.0205481,-0.0356978,0.00811515,0.00236551,111,310,0.000307477,-0.0899561,85.5325,73.7152,85.4993,73.7866,6.16852e-05,5.90016e-05,0.000217366
-16.8748,16.2512,-297.339,0.000663393,0.00288259,0.00190756,4.87422e-06,7.77972e-05,5.83966e-05,0.000110181,-2.75091e-05,1.06447,0.000126204,-0.355077,1.53506,-3.2611,0.0193266,-0.0200568,0.0124921,0.00227935,118,310,-0.00289715,-0.0897401,86.167,74.4719,86.1325,74.5433,5.95157e-05,5.84413e-05,0.000209165
-16.598,16.2383,-297.361,0.000676517,0.00287447,0.00209788,5.50563e-06,7.62658e-05,4.53268e-05,9.83859e-05,-1.66144e-05,1.11678,0.000107659,-0.322498,1.59094,-3.46489,0.0199668,-7.20102e-05,0.0107232,0.00224452,125,310,-0.00409612,-0.0905987,86.843,75.2285,86.8068,75.2988,5.74307e-05,5.77605e-05,0.000201583
-16.3205,16.2256,-297.382,0.000732266,0.00286873,0.00216914,5.21168e-06,7.41762e-05,3.13605e-05,8.63041e-05,-6.91621e-06,1.20179,8.99618e-05,-0.305626,1.64262,-3.5663,0.0231,0.0228978,0.00336376,0.0022268,132,310,-0.00325583,-0.0907413,87.5438,75.9812,87.5055,76.051,5.7174e-05,5.74782e-05,0.000200328
-16.0415,16.2126,-297.398,0.000779901,0.00287518,0.00227897,-2.77445e-06,7.34026e-05,1.84362e-05,7.76299e-05,-7.00178e-06,1.3454,8.13571e-05,-0.337587,1.68324,-3.59175,0.0257213,0.0467617,-0.0052662,0.00218119,139,310,-0.00295849,-0.0920573,88.3185,76.7373,88.2781,76.8063,5.77375e-05,5.62939e-05,0.00020166
-15.7614,16.1998,-297.411,0.000807739,0.00289083,0.00235498,-1.04163e-05,7.39804e-05,5.77509e-06,7.43737e-05,-1.08096e-05,1.50279,8.03259e-05,-0.353585,1.66907,-3.43135,0.0244865,0.0699495,-0.0151197,0.00219434,146,310,-0.00288134,-0.0936541,89.1404,77.4874,89.0987,77.5558,5.82771e-05,5.42867e-05,0.000203527
-15.4805,16.1869,-297.421,0.000769655,0.0028709,0.00247289,-1.37971e-05,7.38912e-05,-3.73236e-06,7.40498e-05,-1.39556e-05,-1.52833,8.1924e-05,-0.359737,1.63402,-3.2502,0.0206728,0.0914376,-0.0264082,0.00215098,153,310,-0.00471272,-0.0939809,89.9959,78.2405,89.9544,78.3077,5.68182e-05,5.3474e-05,0.000198203
-15.1996,16.1738,-297.43,0.000729617,0.00284041,0.00257045,-1.55374e-05,7.07237e-05,-8.01323e-06,7.14618e-05,-1.62754e-05,-1.47895,8.08378e-05,-0.367342,1.59487,-3.1305,0.0169654,0.111084,-0.0380191,0.00211596,160,310,-0.00641982,-0.094336,90.8511,78.9991,90.8102,79.0645,5.49459e-05,5.31619e-05,0.000191592
-14.9187,16.1606,-297.44,0.000708965,0.00282053,0.00264302,-2.24823e-05,6.59901e-05,-6.47613e-06,6.64616e-05,-2.29539e-05,-1.49811,8.04337e-05,-0.379115,1.56455,-3.14902,0.0133022,0.127248,-0.0504633,0.00208598,167,310,-0.00742725,-0.0937054,91.6986,79.7616,91.6577,79.8264,5.37044e-05,5.26771e-05,0.000186886
-14.6361,16.1472,-297.444,0.000723786,0.00281859,0.00269695,-3.65711e-05,6.11733e-05,2.63379e-07,6.1174e-05,-3.65719e-05,1.5681,8.55395e-05,-0.382302,1.55527,-3.24703,0.00905463,0.137571,-0.0607589,0.00208197,174,310,-0.00742209,-0.0932402,92.6294,80.5348,92.5877,80.5999,5.37346e-05,5.18298e-05,0.000186411
-14.3505,16.1332,-297.438,0.000738824,0.002839,0.00269888,-5.60538e-05,5.61246e-05,1.03956e-05,5.70798e-05,-5.7009e-05,1.47917,9.88038e-05,-0.346679,1.5406,-3.16411,0.00342849,0.138126,-0.0659047,0.00208732,181,310,-0.00700279,-0.0926655,93.7084,81.3252,93.666,81.3919,5.42196e-05,5.17129e-05,0.000187658
-14.0624,16.119,-297.424,0.000717024,0.00286541,0.0026932,-7.18383e-05,5.07568e-05,2.24369e-05,5.47341e-05,-7.58156e-05,1.39535,0.00011355,-0.305127,1.5104,-2.94803,-0.00253821,0.129468,-0.0649014,0.00209136,188,310,-0.00743795,-0.092254,94.9093,82.1265,94.8675,82.195,5.44374e-05,5.20426e-05,0.000188251
-13.7735,16.1049,-297.407,0.000686538,0.00286127,0.00267673,-7.60864e-05,4.40573e-05,3.26468e-05,5.23554e-05,-8.43844e-05,1.32189,0.000119498,-0.306035,1.4882,-2.82044,-0.00899308,0.111882,-0.0562502,0.00210413,195,310,-0.00797405,-0.0913082,96.1474,82.918,96.1065,82.9871,5.38918e-05,5.26825e-05,0.00018701
-13.487,16.0913,-297.398,0.000676023,0.0028508,0.00271448,-7.14264e-05,3.46102e-05,3.93886e-05,4.76404e-05,-8.44566e-05,1.25132,0.000115871,-0.357011,1.51557,-2.86509,-0.0160546,0.0881125,-0.043536,0.00214031,202,310,-0.00845752,-0.0908801,97.2663,83.6909,97.2253,83.7597,5.39412e-05,5.37806e-05,0.000187633
-13.2048,16.0779,-297.401,0.000682252,0.00288454,0.00279489,-6.52738e-05,2.58116e-05,4.31333e-05,4.29955e-05,-8.24576e-05,1.19168,0.000110423,-0.391299,1.54168,-2.97319,-0.0222199,0.0632955,-0.0290757,0.00214255,209,310,-0.00891566,-0.0917033,98.1674,84.4582,98.1255,84.5281,5.44689e-05,5.40961e-05,0.000189344
-12.9263,16.0644,-297.416,0.000651547,0.00292645,0.00291634,-6.33377e-05,1.91927e-05,4.41739e-05,3.83771e-05,-8.25221e-05,1.16108,0.000107003,-0.393524,1.5534,-2.95254,-0.0276565,0.039232,-0.0149726,0.00214548,216,310,-0.0106278,-0.093251,98.8742,85.234,98.8322,85.3048,5.58051e-05,5.48788e-05,0.000193324
-12.6496,16.0515,-297.436,0.00060048,0.0029649,0.00295655,-6.47492e-05,1.27664e-05,4.41458e-05,3.2754e-05,-8.47368e-05,1.14565,0.000105017,-0.361053,1.51486,-2.78591,-0.0320887,0.0169333,-0.00361671,0.00222079,223,310,-0.012228,-0.0960419,99.486,85.9799,99.4452,86.0502,5.93806e-05,5.74566e-05,0.000204779
-12.3665,16.0373,-297.435,0.000539692,0.00295323,0.00281283,-6.6168e-05,9.90527e-06,4.2983e-05,2.92648e-05,-8.55276e-05,1.14761,0.000103317,-0.354434,1.48542,-2.6697,-0.0359078,-0.00175165,0.00572369,0.00249483,230,310,-0.0125439,-0.0965059,100.42,86.7863,100.382,86.8555,6.39046e-05,6.51859e-05,0.00021888
-12.0814,16.0233,-297.428,0.000497857,0.00293119,0.00277294,-6.4569e-05,1.01552e-05,4.12915e-05,2.8479e-05,-8.28927e-05,1.15314,0.000100215,-0.374601,1.48374,-2.5009,-0.0375546,-0.0170432,0.0130167,0.00260531,237,310,-0.0131689,-0.0954629,101.455,87.5747,101.418,87.6437,6.43411e-05,6.78057e-05,0.00022072
-11.7962,16.0094,-297.421,0.000499889,0.00290394,0.00285256,-6.08858e-05,1.42018e-05,3.88254e-05,3.06667e-05,-7.73507e-05,1.16971,9.64141e-05,-0.374501,1.50822,-2.52231,-0.0335779,-0.0272523,0.0162423,0.00267314,244,310,-0.0136514,-0.0948158,102.492,88.3547,102.454,88.4228,6.44517e-05,6.97388e-05,0.000221251
-11.5107,15.9955,-297.412,0.000572066,0.00284075,0.00305885,-5.81996e-05,1.991e-05,3.6041e-05,3.39987e-05,-7.22883e-05,1.19815,9.40171e-05,-0.40556,1.54454,-2.58005,-0.024132,-0.0323006,0.0150886,0.00255702,251,310,-0.0133343,-0.0929587,103.552,89.1399,103.512,89.2065,6.202e-05,6.62642e-05,0.000214232
-11.2258,15.982,-297.404,0.000604873,0.00276707,0.00306348,-5.69148e-05,2.72486e-05,3.36525e-05,3.90498e-05,-6.8716e-05,1.23352,9.44993e-05,-0.398577,1.57982,-2.71354,-0.0124713,-0.0354754,0.0142103,0.00233341,258,310,-0.0124033,-0.0907998,104.571,89.9013,104.529,89.9659,6.08638e-05,6.03079e-05,0.000210732
-10.9399,15.9683,-297.393,0.000594597,0.0027044,0.00297475,-5.69167e-05,3.71721e-05,3.40592e-05,4.8207e-05,-6.79516e-05,1.25748,0.00010108,-0.413157,1.5823,-2.85206,-0.00188105,-0.0400543,0.0163864,0.00229609,265,310,-0.0118471,-0.0897257,105.644,90.6747,105.604,90.7369,6.15001e-05,5.72227e-05,0.000212873
-10.6521,15.9545,-297.376,0.000527371,0.00265194,0.00274925,-5.66703e-05,4.76692e-05,3.80394e-05,6.00647e-05,-6.90659e-05,1.25579,0.000111921,-0.43245,1.56643,-3.02537,0.00805015,-0.045976,0.0220506,0.00230031,272,310,-0.01166,-0.0889199,106.811,91.4459,106.773,91.506,6.15654e-05,5.60015e-05,0.000213558
-10.3616,15.9402,-297.349,0.000452367,0.0026938,0.00252706,-5.68102e-05,5.87683e-05,4.38627e-05,7.35292e-05,-7.15712e-05,1.24617,0.000125664,-0.436872,1.54541,-3.0924,0.0212758,-0.0515908,0.0291034,0.00232212,279,310,-0.0117936,-0.0899784,108.113,92.2381,108.079,92.2993,6.21126e-05,5.53485e-05,0.000215352
-10.0697,15.9257,-297.317,0.000389216,0.00278675,0.00241368,-5.6353e-05,7.09404e-05,4.80762e-05,8.70572e-05,-7.24698e-05,1.24733,0.000138347,-0.419441,1.5268,-3.12336,0.0378275,-0.0529212,0.0356551,0.00231489,286,310,-0.0125348,-0.0922289,109.496,93.0303,109.465,93.0943,6.18807e-05,5.55316e-05,0.000214315
-9.7777,15.9111,-297.284,0.000390225,0.00286569,0.00223679,-5.089e-05,8.36159e-05,4.71228e-05,9.84818e-05,-6.5756e-05,1.26521,0.000143172,-0.405217,1.50833,-3.03428,0.0525819,-0.0509195,0.0423289,0.00226781,293,310,-0.0111754,-0.0936657,110.881,93.8307,110.851,93.8975,6.04091e-05,5.56694e-05,0.000209467
-9.48636,15.8966,-297.253,0.000417618,0.00286068,0.00206899,-4.34659e-05,9.61603e-05,4.2685e-05,0.000108176,-5.54812e-05,1.29641,0.000144159,-0.368947,1.47476,-2.90116,0.0614928,-0.0499444,0.049058,0.00221848,300,310,-0.00913992,-0.0928099,112.236,94.6293,112.206,94.6964,5.86187e-05,5.57467e-05,0.00020361
-9.19715,15.8823,-297.228,0.000489311,0.00283092,0.00203114,-3.65944e-05,0.000110176,3.90859e-05,0.000119935,-4.63542e-05,1.3261,0.000148636,-0.345955,1.44164,-2.70932,0.0628185,-0.0526238,0.0553461,0.00224378,307,310,-0.00696389,-0.090895,113.482,95.4185,113.45,95.4858,5.83796e-05,5.77257e-05,0.000202775
-8.91202,15.8684,-297.217,0.000536018,0.00283226,0.00219826,-2.67574e-05,0.000125773,3.35151e-05,0.000132812,-3.37967e-05,1.36377,0.000152545,-0.301223,1.46627,-2.57879,0.0563348,-0.0601208,0.058595,0.00236711,314,310,-0.00704466,-0.0914212,114.515,96.1918,114.481,96.2588,6.27837e-05,6.07043e-05,0.000217234
-8.62924,15.8551,-297.212,0.000516089,0.00284365,0.00215991,-1.27737e-05,0.00014147,2.39352e-05,0.000145099,-1.64025e-05,1.42033,0.000153957,-0.286346,1.51161,-2.68033,0.0432741,-0.0680272,0.0581574,0.0025479,321,310,-0.00723337,-0.0925618,115.421,96.9395,115.388,97.006,6.80287e-05,6.2667e-05,0.000234502
-8.34556,15.8414,-297.204,0.00047901,0.00285683,0.00202714,-1.49427e-07,0.000156236,1.12243e-05,0.000157038,-9.50924e-07,1.49951,0.000157515,-0.272586,1.57225,-2.84807,0.0269325,-0.0744076,0.0540506,0.00258754,328,310,-0.00713732,-0.093765,116.372,97.7061,116.341,97.7721,6.90472e-05,6.20366e-05,0.000237819
-8.06159,15.8277,-297.195,0.000398416,0.00287091,0.00190572,5.38415e-06,0.00016498,-1.51602e-06,0.000164995,5.36975e-06,-1.5613,0.000162376,-0.23964,1.63021,-2.98165,0.0124989,-0.0763312,0.0450429,0.00260566,335,310,-0.00820706,-0.0945927,117.337,98.4679,117.309,98.5339,6.94522e-05,6.0722e-05,0.000239266
-7.77575,15.8137,-297.179,0.0003618,0.0028474,0.00183902,4.74208e-06,0.000165706,-8.18503e-06,0.000166121,4.32694e-06,-1.52012,0.000164,-0.218668,1.65799,-3.0017,0.00245354,-0.0715042,0.0320921,0.00245602,342,310,-0.00853428,-0.093438,118.402,99.2444,118.376,99.3101,6.42932e-05,5.68474e-05,0.000222552
-7.48673,15.7992,-297.151,0.000400566,0.00278473,0.00216528,1.55283e-06,0.000158396,-6.78716e-06,0.000158689,1.25968e-06,-1.52763,0.000158063,-0.226072,1.62282,-2.96641,-0.00311022,-0.0593231,0.0187813,0.00229257,349,310,-0.00992074,-0.0921232,119.642,100.037,119.612,100.101,5.89393e-05,5.50018e-05,0.00020454
-7.19563,15.7843,-297.117,0.000427081,0.00277857,0.00229811,-5.98924e-07,0.000147165,-2.9838e-07,0.000147165,-5.99532e-07,-1.56878,0.000147466,-0.276033,1.5598,-2.96633,-0.00720058,-0.0388774,0.00703335,0.00228633,356,310,-0.0102134,-0.0923517,120.991,100.853,120.959,100.916,5.76022e-05,5.65041e-05,0.000199799
-6.90414,15.7693,-297.08,0.00040122,0.00284542,0.00215082,3.66867e-07,0.000130539,6.73797e-06,0.000130887,1.90266e-08,1.51922,0.000130878,-0.350398,1.51755,-2.85418,-0.0110797,-0.0110766,-0.00330713,0.00233858,363,310,-0.00974138,-0.0924466,122.36,101.665,122.33,101.731,5.77642e-05,5.90652e-05,0.000200214
-6.61615,15.7546,-297.055,0.000414903,0.00288944,0.00212688,5.27736e-06,0.000106306,1.29452e-05,0.000107939,3.64501e-06,1.44536,0.000106163,-0.41485,1.51458,-2.78152,-0.010847,0.0225736,-0.0116484,0.00231807,370,310,-0.00919965,-0.0925779,123.545,102.464,123.515,102.533,5.75063e-05,5.99352e-05,0.000199132
-6.33468,15.7407,-297.051,0.000454051,0.00288953,0.00228868,1.09059e-05,7.65923e-05,1.97799e-05,8.20886e-05,5.40955e-06,1.29976,7.95219e-05,-0.457984,1.50557,-2.76679,-0.00503691,0.0552459,-0.0157557,0.00227811,377,310,-0.00938188,-0.0926001,124.383,103.24,124.35,103.309,5.74916e-05,5.92096e-05,0.000198975
-6.05785,15.728,-297.062,0.000449832,0.00284877,0.00244384,1.46367e-05,4.51479e-05,2.7554e-05,6.13876e-05,-1.603e-06,1.03822,6.22046e-05,-0.462767,1.51703,-2.84867,0.00278559,0.0811219,-0.0146488,0.00220249,384,310,-0.010583,-0.0931251,124.97,103.957,124.936,104.023,5.71432e-05,5.67055e-05,0.000197601
-5.78187,15.7153,-297.076,0.00042903,0.0027972,0.00255177,1.55541e-05,1.47849e-05,3.53287e-05,5.05003e-05,-2.01613e-05,0.779955,6.30468e-05,-0.398381,1.5007,-2.97352,0.0102792,0.0995156,-0.00873196,0.00219346,391,310,-0.0118254,-0.0931728,125.509,104.677,125.475,104.741,5.71946e-05,5.5004e-05,0.000197602
-5.50219,15.702,-297.077,0.000395267,0.00277508,0.00236492,1.09828e-05,-1.11214e-05,4.24216e-05,4.37684e-05,-4.3907e-05,0.657966,7.59292e-05,-0.309467,1.47551,-3.12805,0.015126,0.111496,-0.00172487,0.0021884,398,310,-0.0112334,-0.0935806,126.243,105.42,126.212,105.482,5.75643e-05,5.50299e-05,0.000198726
-5.21731,15.688,-297.06,0.00040336,0.00279064,0.00210737,4.20516e-06,-3.34934e-05,4.45432e-05,3.37231e-05,-6.30114e-05,0.585239,8.50449e-05,-0.223065,1.48612,-3.29417,0.0179099,0.122224,0.00429231,0.00218024,405,310,-0.00909015,-0.0935784,127.26,106.192,127.23,106.254,5.71937e-05,5.50512e-05,0.000197515
-4.92818,15.6729,-297.027,0.000447011,0.00279091,0.00191155,-4.68797e-07,-5.10846e-05,3.91382e-05,2.08311e-05,-7.23845e-05,0.498397,8.47426e-05,-0.216839,1.49308,-3.43282,0.0183845,0.130165,0.00914928,0.00217663,412,310,-0.00652185,-0.0939018,128.51,107.008,128.481,107.07,5.66608e-05,5.45767e-05,0.000195732
-4.63645,15.6582,-296.986,0.000497827,0.00279728,0.00190908,-7.13241e-06,-6.23235e-05,3.02666e-05,6.23035e-06,-7.56862e-05,0.415764,7.89859e-05,-0.252649,1.5061,-3.53719,0.0138265,0.131151,0.0120832,0.00214571,419,310,-0.0051926,-0.0938863,129.907,107.805,129.876,107.867,5.58395e-05,5.33558e-05,0.000193034
-4.34476,15.6433,-296.943,0.000502322,0.00276217,0.00193734,-1.98365e-05,-6.66114e-05,2.25994e-05,-1.07015e-05,-7.57464e-05,0.384132,7.10031e-05,-0.279959,1.51803,-3.46062,0.00772888,0.124352,0.0131769,0.00213787,426,310,-0.00519763,-0.0926797,131.305,108.606,131.273,108.668,5.63378e-05,5.22027e-05,0.000194781
-4.05407,15.6286,-296.904,0.000470764,0.00278485,0.00192825,-3.37958e-05,-6.33197e-05,1.50086e-05,-2.75061e-05,-6.96094e-05,0.396841,6.07237e-05,-0.27712,1.51815,-3.2769,0.00180237,0.111647,0.0131938,0.0022302,433,310,-0.00588169,-0.0923593,132.649,109.4,132.619,109.464,5.8999e-05,5.406e-05,0.000203977
-3.76368,15.6138,-296.865,0.000433367,0.0028101,0.00191025,-4.0009e-05,-5.52686e-05,6.77858e-06,-3.74328e-05,-5.78448e-05,0.363195,5.08128e-05,-0.280448,1.53504,-3.14859,-0.0041814,0.0914365,0.0127922,0.00232734,440,310,-0.00663575,-0.0914769,133.98,110.195,133.951,110.261,6.17065e-05,5.58915e-05,0.00021336
-3.47291,15.5989,-296.823,0.000427605,0.00284587,0.00196854,-3.91104e-05,-4.85455e-05,-2.57182e-06,-3.84549e-05,-4.9201e-05,-0.24956,4.48051e-05,-0.311372,1.56462,-3.05122,-0.00950438,0.0661595,0.0135318,0.00239405,447,310,-0.00716806,-0.0910488,135.337,110.997,135.307,111.065,6.35768e-05,5.67918e-05,0.000219796
-3.18092,15.5839,-296.777,0.000418361,0.00283019,0.00202379,-3.76854e-05,-4.59355e-05,-9.14215e-06,-3.17808e-05,-5.18402e-05,-0.573468,4.52758e-05,-0.364572,1.60935,-2.95279,-0.0109527,0.0405496,0.014536,0.00241543,454,310,-0.00772029,-0.0898505,136.765,111.8,136.735,111.868,6.4364e-05,5.62114e-05,0.000222365
-2.88767,15.5688,-296.726,0.000390476,0.00283006,0.00210798,-4.00082e-05,-4.95143e-05,-8.33096e-06,-3.51698e-05,-5.43527e-05,-0.526165,4.77447e-05,-0.372577,1.63461,-2.83296,-0.00617439,0.0168655,0.0148224,0.00241478,461,310,-0.00898449,-0.0898206,138.267,112.607,138.237,112.675,6.40085e-05,5.56687e-05,0.000220924
-2.59353,15.5539,-296.671,0.000347855,0.00283278,0.00204095,-4.48916e-05,-5.70272e-05,2.19685e-06,-4.45061e-05,-5.74126e-05,0.173686,5.21708e-05,-0.393261,1.5912,-2.76133,-7.20341e-05,0.00246985,0.0148185,0.00239817,468,310,-0.00953013,-0.0898491,139.823,113.402,139.795,113.471,6.32209e-05,5.69074e-05,0.000218186
-2.29879,15.5387,-296.613,0.000338822,0.00283389,0.00200781,-4.61782e-05,-6.60471e-05,1.89812e-05,-3.46888e-05,-7.75364e-05,0.544309,6.72723e-05,-0.413412,1.51507,-2.82868,0.00397934,-0.00133794,0.015498,0.00237572,475,310,-0.00951291,-0.0912938,141.418,114.209,141.39,114.276,6.26073e-05,5.77446e-05,0.000216139
-2.00435,15.5234,-296.555,0.000325939,0.00281403,0.00188848,-4.14483e-05,-7.80837e-05,3.59009e-05,-1.9462e-05,-0.00010007,0.549499,9.18979e-05,-0.396328,1.48484,-2.93042,0.003189,0.00483563,0.0152184,0.00237506,482,310,-0.00893595,-0.0915185,143.001,115.027,142.974,115.093,6.26295e-05,5.7261e-05,0.000216104
-1.71109,15.5078,-296.501,0.00034481,0.00277528,0.00192607,-3.14958e-05,-9.30324e-05,4.95953e-05,-3.89984e-06,-0.000120628,0.50776,0.000118726,-0.328817,1.47593,-3.02896,0.00118835,0.0174652,0.0117287,0.00239888,489,310,-0.0086559,-0.0908822,144.525,115.856,144.497,115.92,6.37866e-05,5.61787e-05,0.000219934
-1.41877,15.4926,-296.449,0.00041107,0.00275841,0.00227518,-1.9209e-05,-0.000110299,6.09095e-05,1.13006e-05,-0.000140809,0.464369,0.000146786,-0.262341,1.49719,-2.98395,0.00369946,0.0324989,0.00326836,0.00246014,496,310,-0.00940607,-0.0899966,146.004,116.667,145.972,116.732,6.56921e-05,5.499e-05,0.000226189
-1.12649,15.4777,-296.396,0.000442682,0.00274325,0.00254233,-7.22776e-06,-0.000128653,7.06491e-05,2.52118e-05,-0.000161092,0.430449,0.000175065,-0.241594,1.5175,-3.01111,0.00762578,0.0490533,-0.00870229,0.00253032,503,310,-0.0104416,-0.0894697,147.487,117.462,147.451,117.526,6.7302e-05,5.44222e-05,0.000231744
-0.833473,15.4626,-296.34,0.000413058,0.00272102,0.00246957,4.44366e-06,-0.000143679,8.01653e-05,3.95224e-05,-0.000178758,0.412478,0.000201448,-0.253269,1.50556,-2.98992,0.00529292,0.0666519,-0.0228319,0.00254352,510,310,-0.0105958,-0.0889439,149.011,118.265,148.977,118.328,6.75448e-05,5.58967e-05,0.00023258
-0.538996,15.4473,-296.278,0.000358719,0.00275482,0.00227566,1.65835e-05,-0.000154016,8.54439e-05,5.20178e-05,-0.00018945,0.393121,0.000220118,-0.3368,1.46463,-3.10085,-0.00497903,0.0857128,-0.0388778,0.00255403,517,310,-0.0106027,-0.0906835,150.623,119.076,150.592,119.139,6.76377e-05,5.79383e-05,0.000232958
-0.242794,15.4317,-296.209,0.000303008,0.00283938,0.0021255,2.98139e-05,-0.000161236,8.52274e-05,6.23074e-05,-0.000193729,0.364245,0.000231266,-0.414432,1.47423,-3.24175,-0.0192776,0.109668,-0.0561784,0.002545,524,310,-0.0109925,-0.0926883,152.342,119.892,152.313,119.958,6.74044e-05,5.90882e-05,0.000232364
0.0537248,15.416,-296.138,0.00024818,0.00289936,0.00209878,4.8791e-05,-0.00016568,8.23777e-05,7.67795e-05,-0.000193669,0.327522,0.000241397,-0.437673,1.48911,-3.27215,-0.0301835,0.133171,-0.0735424,0.00254446,531,310,-0.012217,-0.0943593,154.086,120.721,154.059,120.788,6.72948e-05,6.02683e-05,0.000231675
0.35097,15.4001,-296.064,0.000204889,0.0029072,0.0020903,7.03297e-05,-0.000167497,7.87441e-05,9.40383e-05,-0.000191206,0.292451,0.000251761,-0.428867,1.45744,-3.3366,-0.0466056,0.155075,-0.0887235,0.00252748,538,310,-0.0132565,-0.0960329,155.88,121.555,155.854,121.621,6.70215e-05,6.0076e-05,0.000230433
0.649595,15.3843,-295.983,0.000266497,0.00281707,0.00207674,9.01647e-05,-0.000167158,7.68745e-05,0.000111381,-0.000188375,0.269287,0.000262436,-0.363595,1.42811,-3.29355,-0.0694942,0.175032,-0.0991915,0.0025071,545,310,-0.0115113,-0.0957241,157.765,122.385,157.738,122.447,6.66499e-05,5.93226e-05,0.000228432
0.949668,15.3684,-295.896,0.000374756,0.00273241,0.00212671,0.000109671,-0.000165471,7.77517e-05,0.000130122,-0.000185923,0.25721,0.000275121,-0.279736,1.38639,-3.30211,-0.101101,0.190986,-0.10424,0.00248542,552,310,-0.00900179,-0.0943176,159.746,123.218,159.716,123.277,6.60623e-05,5.83425e-05,0.000225792
1.25106,15.3521,-295.804,0.000485552,0.00269974,0.00213574,0.000127676,-0.00016796,8.50469e-05,0.000150396,-0.00019068,0.261048,0.000296066,-0.281034,1.39365,-3.29459,-0.14553,0.199315,-0.102946,0.00244632,559,310,-0.00613175,-0.0917473,161.813,124.061,161.779,124.121,6.48361e-05,5.69438e-05,0.000221171
1.55301,15.3358,-295.708,0.000552742,0.00274702,0.00195472,0.000136073,-0.000178634,0.00010546,0.000168145,-0.000210705,0.295226,0.000328783,-0.360279,1.48571,-3.2738,-0.20575,0.198952,-0.0956602,0.00238458,566,310,-0.00311901,-0.0907956,163.92,124.905,163.886,124.968,6.34282e-05,5.60748e-05,0.000216332
1.85257,15.3198,-295.62,0.000580142,0.00278202,0.0018104,0.000130643,-0.00019756,0.000142321,0.000183762,-0.000250679,0.357219,0.000377722,-0.475241,1.56825,-3.21026,-0.28298,0.188857,-0.0841332,0.00236176,573,310,-0.00137119,-0.0899225,165.897,125.736,165.863,125.802,6.27191e-05,5.673e-05,0.000214315
0,0,0,0,0,0,0,0,0,0,0,0,0,0,0,0,0,0,0,-1,580,310,0,0,0,0,0,0,0,0,0
0,0,0,0,0,0,0,0,0,0,0,0,0,0,0,0,0,0,0,-1,587,310,0,0,0,0,0,0,0,0,0
0,0,0,0,0,0,0,0,0,0,0,0,0,0,0,0,0,0,0,-1,594,310,0,0,0,0,0,0,0,0,0
0,0,0,0,0,0,0,0,0,0,0,0,0,0,0,0,0,0,0,-1,601,310,0,0,0,0,0,0,0,0,0
0,0,0,0,0,0,0,0,0,0,0,0,0,0,0,0,0,0,0,-1,62,317,0,0,0,0,0,0,0,0,0
0,0,0,0,0,0,0,0,0,0,0,0,0,0,0,0,0,0,0,-1,69,317,0,0,0,0,0,0,0,0,0
0,0,0,0,0,0,0,0,0,0,0,0,0,0,0,0,0,0,0,-1,76,317,0,0,0,0,0,0,0,0,0
-18.257,16.0425,-297.178,0.000700312,0.00272078,0.00162739,2.27984e-05,1.33488e-05,5.0858e-05,6.91506e-05,-3.30034e-05,0.73908,9.02952e-05,-0.409527,1.51568,-3.14688,0.0696901,-0.0120272,-0.0697037,0.00243626,83,317,0.000327715,-0.0840912,82.756,71.6475,82.7225,71.7154,6.33954e-05,6.26462e-05,0.00022204
-17.9881,16.0305,-297.225,0.000723329,0.00274616,0.00142709,8.14932e-06,3.05679e-05,6.64625e-05,8.67597e-05,-4.80426e-05,0.86894,0.000118336,-0.419179,1.48537,-3.15245,0.0501099,-0.0279785,-0.0363964,0.00251831,90,317,0.00257751,-0.0837703,83.0643,72.3725,83.0314,72.4418,6.4481e-05,6.45256e-05,0.000226732
-17.7169,16.0183,-297.266,0.000744217,0.00276557,0.00128333,6.87475e-06,4.36569e-05,7.23189e-05,9.98866e-05,-4.9355e-05,0.909911,0.000131693,-0.426615,1.4837,-3.2125,0.0378799,-0.0344387,-0.0111385,0.00256365,97,317,0.00426449,-0.0851627,83.486,73.105,83.4535,73.1739,6.55497e-05,6.44013e-05,0.000231922
-17.4434,16.006,-297.299,0.000737455,0.00280558,0.00146999,7.37795e-06,5.34064e-05,7.12157e-05,0.000105234,-4.44499e-05,0.941683,0.000133145,-0.413062,1.49348,-3.20782,0.0306011,-0.0327872,0.00408603,0.00253837,104,317,0.00253396,-0.0870282,84.008,73.8393,83.9744,73.9088,6.49493e-05,6.32263e-05,0.000229969
-17.1687,15.9936,-297.329,0.000691498,0.00283859,0.0016654,7.52494e-06,5.99037e-05,6.47187e-05,0.000103531,-3.61025e-05,0.977659,0.000125538,-0.390643,1.51006,-3.271,0.0268081,-0.025047,0.0111914,0.00249268,111,317,-0.000215084,-0.0886889,84.5904,74.5749,84.5568,74.6447,6.46869e-05,6.20171e-05,0.00022866
-16.8925,15.981,-297.354,0.000649269,0.00285405,0.00193622,8.23138e-06,6.34544e-05,5.49161e-05,9.73097e-05,-2.56239e-05,1.01834,0.000112335,-0.370532,1.56396,-3.29661,0.0251048,-0.0133241,0.0126568,0.00239805,118,317,-0.00344383,-0.0891866,85.2346,75.3217,85.2003,75.392,6.33588e-05,6.11915e-05,0.000222676
-16.6154,15.9683,-297.376,0.000657173,0.00286941,0.00209302,1.0341e-05,6.40466e-05,4.3831e-05,8.85964e-05,-1.42087e-05,1.06023,9.64886e-05,-0.374404,1.60457,-3.398,0.0263285,0.00112692,0.00925863,0.00237954,125,317,-0.00452944,-0.0908779,85.9228,76.0697,85.8872,76.1394,6.24273e-05,6.05745e-05,0.000218019
-16.3375,15.9555,-297.396,0.000746932,0.00287053,0.00222235,1.02937e-05,6.34151e-05,3.24425e-05,7.87827e-05,-5.07401e-06,1.12842,8.14384e-05,-0.376297,1.64364,-3.41621,0.0298847,0.0172848,0.00155634,0.00239968,132,317,-0.00332365,-0.0908271,86.6459,76.8152,86.6068,76.885,6.3375e-05,6.04136e-05,0.000220759
-16.0575,15.9427,-297.409,0.000794333,0.00287845,0.00238118,2.80042e-06,6.32626e-05,2.25177e-05,7.07272e-05,-4.6642e-06,1.2507,7.31709e-05,-0.381815,1.67147,-3.57858,0.0316725,0.0331002,-0.00687887,0.00244746,139,317,-0.00342833,-0.0921374,87.4679,77.5652,87.4264,77.6343,6.56151e-05,6.09174e-05,0.000226853
-15.7766,15.9297,-297.419,0.000811924,0.00287795,0.00240027,-5.34846e-06,6.29827e-05,1.28086e-05,6.53048e-05,-7.67052e-06,1.39146,6.94584e-05,-0.38141,1.65163,-3.62372,0.0298648,0.0484359,-0.0156112,0.00241399,146,317,-0.00311513,-0.0930026,88.3313,78.3206,88.2892,78.3888,6.47548e-05,5.92828e-05,0.000224375
-15.4947,15.9166,-297.426,0.000755108,0.00285604,0.00237896,-1.07433e-05,6.10408e-05,5.94151e-06,6.15293e-05,-1.12317e-05,1.48877,6.7846e-05,-0.366905,1.61419,-3.5337,0.0255799,0.0623908,-0.0247602,0.00231733,153,317,-0.00426693,-0.0926536,89.233,79.0773,89.1927,79.1447,6.23162e-05,5.77315e-05,0.000215675
-15.2124,15.9034,-297.431,0.000735111,0.00282153,0.00245883,-1.53525e-05,5.62995e-05,3.69182e-06,5.64892e-05,-1.55422e-05,1.51945,6.56548e-05,-0.348461,1.5771,-3.37637,0.0212485,0.0744772,-0.0335145,0.0021857,160,317,-0.00532712,-0.0925528,90.1587,79.8423,90.1183,79.908,5.80795e-05,5.58999e-05,0.000201554
-14.93,15.89,-297.436,0.000735975,0.00279076,0.00254792,-2.4918e-05,5.03945e-05,5.98669e-06,5.08674e-05,-2.5391e-05,1.49196,6.7259e-05,-0.333253,1.52889,-3.27784,0.0168779,0.0836932,-0.0424573,0.00209397,167,317,-0.00592901,-0.0917161,91.0812,80.6136,91.0402,80.6786,5.46537e-05,5.37036e-05,0.000189903
-14.6468,15.8764,-297.438,0.00075533,0.00279418,0.00269902,-4.06446e-05,4.51145e-05,1.21057e-05,4.67906e-05,-4.23207e-05,1.43322,7.7205e-05,-0.324155,1.49982,-3.26237,0.0114952,0.0881106,-0.0492884,0.00206134,174,317,-0.00660496,-0.091697,92.0438,81.3898,92.0011,81.4549,5.35754e-05,5.19559e-05,0.000186099
-14.3618,15.8626,-297.434,0.000781402,0.00281799,0.00280564,-6.03252e-05,4.03496e-05,2.0292e-05,4.42857e-05,-6.42613e-05,1.3792,9.45336e-05,-0.284168,1.47563,-3.05684,0.00412608,0.0855204,-0.0515484,0.00206773,181,317,-0.00675406,-0.0912457,93.0928,82.1731,93.0485,82.2399,5.40137e-05,5.1191e-05,0.000187337
-14.0749,15.8487,-297.424,0.00074173,0.00283809,0.00282929,-7.55677e-05,3.61662e-05,2.93886e-05,4.34245e-05,-8.2826e-05,1.32866,0.000111097,-0.258258,1.46254,-2.81815,-0.00405444,0.076745,-0.0487287,0.00207493,188,317,-0.0078613,-0.0909625,94.2346,82.9595,94.191,83.0276,5.41725e-05,5.10728e-05,0.000187876
-13.7873,15.8348,-297.412,0.000699834,0.00283035,0.00281438,-7.94987e-05,3.16503e-05,3.65432e-05,4.25884e-05,-9.04368e-05,1.27996,0.000117661,-0.275767,1.45921,-2.69486,-0.0122419,0.0623806,-0.0401886,0.00210956,195,317,-0.00868308,-0.0898604,95.407,83.7412,95.3647,83.8099,5.39232e-05,5.22026e-05,0.000187507
-13.501,15.8213,-297.403,0.000657691,0.0028166,0.00274337,-7.5489e-05,2.58869e-05,4.01935e-05,3.98889e-05,-8.94909e-05,1.23558,0.000114758,-0.325714,1.49555,-2.75164,-0.0199331,0.044664,-0.0291773,0.00215818,202,317,-0.00907567,-0.0892212,96.5135,84.5077,96.4729,84.5762,5.35089e-05,5.39795e-05,0.000186316
-13.2178,15.8079,-297.403,0.000656637,0.00288078,0.00278166,-6.99361e-05,2.11811e-05,4.08606e-05,3.68203e-05,-8.55754e-05,1.20525,0.000108765,-0.368345,1.51089,-2.92711,-0.0255841,0.0272222,-0.017948,0.0021479,209,317,-0.00940304,-0.0903478,97.4642,85.2714,97.4231,85.3422,5.36609e-05,5.43415e-05,0.000186515
-12.9376,15.7943,-297.412,0.000598149,0.00293723,0.00278336,-6.75969e-05,1.78684e-05,3.92444e-05,3.31547e-05,-8.28833e-05,1.19936,0.000103522,-0.36775,1.5079,-2.97847,-0.0293746,0.0117203,-0.0079922,0.00214564,216,317,-0.0108798,-0.0925183,98.2553,86.0444,98.2158,86.1162,5.51341e-05,5.52768e-05,0.000190614
-12.6588,15.7813,-297.426,0.000528863,0.00299768,0.00278813,-6.78288e-05,1.42676e-05,3.65882e-05,2.82071e-05,-8.17684e-05,1.20679,9.89351e-05,-0.3624,1.48636,-2.91752,-0.0326198,-0.00116928,-0.000813193,0.00223794,223,317,-0.0126727,-0.0956221,98.9751,86.7928,98.9375,86.865,5.93638e-05,5.76578e-05,0.00020363
-12.3747,15.7676,-297.423,0.000471577,0.00298908,0.0026368,-6.69624e-05,1.2512e-05,3.31916e-05,2.45505e-05,-7.90009e-05,1.22285,9.37197e-05,-0.363568,1.51508,-2.83811,-0.0358388,-0.0105645,0.00495225,0.00249831,230,317,-0.0128502,-0.096198,99.957,87.5693,99.9221,87.6404,6.23703e-05,6.49976e-05,0.000212834
-12.0891,15.7539,-297.414,0.000449142,0.00294874,0.00262955,-6.25253e-05,1.25846e-05,2.95443e-05,2.28129e-05,-7.27537e-05,1.23751,8.64479e-05,-0.382851,1.53162,-2.64519,-0.0366656,-0.0171371,0.00944903,0.00258754,237,317,-0.0132439,-0.0950597,101.018,88.3434,100.984,88.4134,6.22359e-05,6.72102e-05,0.000212727
-11.8033,15.74,-297.404,0.000474227,0.00290593,0.00273417,-5.61335e-05,1.53317e-05,2.58128e-05,2.36799e-05,-6.44817e-05,1.258,7.90288e-05,-0.381798,1.56543,-2.59076,-0.0320414,-0.0202238,0.0108526,0.00264602,244,317,-0.0133467,-0.0944013,102.095,89.1258,102.059,89.1942,6.19876e-05,6.86999e-05,0.000212408
-11.5167,15.7259,-297.392,0.00058905,0.00285529,0.00303443,-5.09018e-05,1.93903e-05,2.244e-05,2.59432e-05,-5.74546e-05,1.28668,7.39232e-05,-0.416271,1.6033,-2.61155,-0.0232181,-0.019943,0.0088442,0.00258291,251,317,-0.0127127,-0.0924278,103.21,89.918,103.169,89.9857,5.95389e-05,6.68176e-05,0.000205277
-11.23,15.712,-297.379,0.000605357,0.00275899,0.00296675,-4.72145e-05,2.4818e-05,1.95649e-05,2.9789e-05,-5.21855e-05,1.32198,7.18698e-05,-0.426091,1.59842,-2.71993,-0.0136272,-0.0189162,0.00759158,0.00238124,258,317,-0.0116142,-0.0901268,104.322,90.6997,104.281,90.7644,5.92407e-05,6.15969e-05,0.000204609
-10.9429,15.6979,-297.364,0.000589559,0.00268203,0.00284687,-4.52762e-05,3.23952e-05,1.87519e-05,3.66854e-05,-4.95664e-05,1.34588,7.49735e-05,-0.431437,1.58793,-2.83873,-0.00531404,-0.0192747,0.00924509,0.00226453,265,317,-0.0109471,-0.0890142,105.456,91.4889,105.416,91.5505,6.01738e-05,5.80424e-05,0.000208212
-10.6547,15.6841,-297.345,0.000509802,0.00265233,0.00258153,-4.40971e-05,4.1264e-05,2.08836e-05,4.60993e-05,-4.89324e-05,1.34327,8.23121e-05,-0.430928,1.57488,-3.02379,0.00239983,-0.0209732,0.0138199,0.00229969,272,317,-0.0107755,-0.0881815,106.644,92.2601,106.608,92.3207,6.16679e-05,5.64661e-05,0.000213643
-10.3649,15.6699,-297.32,0.000459291,0.00270777,0.00249157,-4.40664e-05,5.14683e-05,2.46267e-05,5.74429e-05,-5.0041e-05,1.33279,9.31573e-05,-0.435497,1.54706,-3.10034,0.0130842,-0.022607,0.019471,0.00235098,279,317,-0.0113494,-0.0899749,107.912,93.0434,107.879,93.1052,6.31032e-05,5.66934e-05,0.000218415
-10.0741,15.6556,-297.292,0.000401886,0.002794,0.00247238,-4.42238e-05,6.30293e-05,2.73506e-05,6.96012e-05,-5.07958e-05,1.33498,0.00010469,-0.438903,1.52921,-3.14736,0.0265497,-0.0217462,0.0249956,0.00235784,286,317,-0.0126688,-0.092183,109.236,93.8323,109.204,93.8967,6.32354e-05,5.71261e-05,0.000218527
-9.78321,15.6412,-297.263,0.000394753,0.00285371,0.00237226,-4.0402e-05,7.47287e-05,2.59758e-05,8.0318e-05,-4.59913e-05,1.35885,0.000110725,-0.431708,1.51345,-3.03987,0.0388115,-0.0192613,0.0315248,0.00231196,293,317,-0.0120806,-0.0932399,110.568,94.626,110.537,94.6925,6.17103e-05,5.70716e-05,0.00021329
-9.49234,15.6268,-297.233,0.000396079,0.00285421,0.00218946,-3.51342e-05,8.55858e-05,2.1788e-05,8.93978e-05,-3.89462e-05,1.39759,0.000113976,-0.400293,1.48356,-2.89799,0.0475007,-0.018313,0.0387616,0.00223422,300,317,-0.0105805,-0.0925006,111.899,95.4193,111.869,95.4864,5.92238e-05,5.5766e-05,0.000205022
-9.20269,15.6124,-297.207,0.000433475,0.00280989,0.00209991,-3.03338e-05,9.67208e-05,1.84913e-05,9.93573e-05,-3.29703e-05,1.42917,0.000119309,-0.377867,1.47131,-2.71605,0.0511398,-0.0204307,0.0456244,0.00219702,307,317,-0.00883902,-0.0900198,113.166,96.2121,113.136,96.279,5.83162e-05,5.6238e-05,0.000201802
-8.91624,15.5983,-297.191,0.000485246,0.00280024,0.00224984,-2.27519e-05,0.000108648,1.41465e-05,0.000110154,-2.42576e-05,1.46476,0.000124074,-0.338238,1.51761,-2.66358,0.0486024,-0.0265315,0.0496559,0.00229056,314,317,-0.00865213,-0.0903429,114.27,96.9949,114.237,97.0611,6.1614e-05,5.82356e-05,0.00021251
-8.63171,15.5846,-297.18,0.000475412,0.00281657,0.00216414,-1.22006e-05,0.00012043,7.0348e-06,0.000120802,-1.25727e-05,1.51795,0.000127554,-0.328086,1.56976,-2.79759,0.0405526,-0.0338184,0.0496859,0.00244704,321,317,-0.00823523,-0.0916225,115.268,97.761,115.236,97.8269,6.585e-05,6.00411e-05,0.000226698
-8.34731,15.5709,-297.17,0.000449647,0.00282643,0.00196528,-3.58361e-06,0.000130892,-1.92564e-06,0.00013092,-3.61118e-06,-1.55648,0.000132762,-0.317585,1.62817,-2.98696,0.0300546,-0.040893,0.0455349,0.00250379,328,317,-0.00735691,-0.0928942,116.259,98.5232,116.229,98.5883,6.72152e-05,5.97544e-05,0.000231429
-8.06236,15.5571,-297.157,0.000402909,0.00283698,0.00182923,-1.23727e-06,0.000136122,-1.01208e-05,0.000136864,-1.97897e-06,-1.49764,0.000137864,-0.270225,1.65585,-3.06974,0.0207279,-0.0454882,0.036188,0.00251831,335,317,-0.00746484,-0.0933759,117.278,99.2912,117.25,99.3564,6.74671e-05,5.91858e-05,0.000232514
-7.77562,15.5431,-297.138,0.000394349,0.00278522,0.00176654,-3.0378e-06,0.00013446,-1.28105e-05,0.000135643,-4.22115e-06,-1.47868,0.000137803,-0.237245,1.62894,-3.00581,0.0137999,-0.0459282,0.0229381,0.00241058,342,317,-0.00710769,-0.0920598,118.393,100.067,118.366,100.13,6.39811e-05,5.71346e-05,0.000221307
-7.4868,15.529,-297.111,0.000458646,0.00269917,0.0020663,-5.11785e-06,0.000126617,-8.90398e-06,0.000127217,-5.71695e-06,-1.50361,0.000130169,-0.223225,1.58693,-2.96078,0.00944824,-0.0418867,0.00936102,0.00232736,349,317,-0.00763515,-0.0901918,119.625,100.846,119.594,100.906,6.06579e-05,5.70085e-05,0.000210168
-7.19514,15.5142,-297.075,0.000483073,0.00270797,0.00229676,-5.67923e-06,0.000116179,-1.24483e-06,0.000116191,-5.69194e-06,-1.56058,0.000119139,-0.266027,1.56082,-3.06221,0.00609454,-0.0324812,-0.0027301,0.00231129,356,317,-0.00872385,-0.0905374,121.007,101.648,120.974,101.709,5.92509e-05,5.80775e-05,0.000205221
-6.90108,15.4992,-297.03,0.000444487,0.00281152,0.00226863,-4.43879e-06,0.000102525,7.04438e-06,0.000102987,-4.90072e-06,1.50532,0.000105522,-0.321771,1.53765,-3.04647,0.00285808,-0.0176359,-0.0138469,0.00231694,363,317,-0.00949802,-0.0914086,122.516,102.457,122.484,102.523,5.89236e-05,5.93178e-05,0.000203857
-6.6092,15.4847,-296.991,0.000423887,0.00285827,0.00222306,-3.56966e-07,8.36958e-05,1.4843e-05,8.62399e-05,-2.9011e-06,1.40104,8.77264e-05,-0.408267,1.5195,-2.97522,0.00159409,0.00235497,-0.0231988,0.00228966,370,317,-0.00964518,-0.0913709,123.912,103.243,123.881,103.312,5.81876e-05,5.9361e-05,0.000201214
-6.32245,15.47,-296.969,0.000407399,0.00285854,0.00227484,5.00462e-06,6.10078e-05,2.26331e-05,6.90111e-05,-2.99861e-06,1.23091,7.05582e-05,-0.48171,1.50553,-2.90271,0.00314864,0.0234012,-0.0282579,0.00224589,377,317,-0.0103939,-0.0913301,125.034,104.053,125.002,104.121,5.8238e-05,5.82767e-05,0.00020133
-6.04315,15.4567,-296.972,0.000387759,0.00282137,0.00234201,9.3685e-06,3.76736e-05,3.06187e-05,5.72524e-05,-1.02103e-05,1.00188,6.29813e-05,-0.481067,1.50384,-2.82652,0.00533057,0.0412489,-0.0279888,0.00218155,384,317,-0.011317,-0.0913588,125.756,104.796,125.725,104.862,5.78063e-05,5.56978e-05,0.000199878
-5.76603,15.4437,-296.982,0.000353068,0.00277636,0.00235095,1.15081e-05,1.58016e-05,3.81204e-05,5.18357e-05,-2.4526e-05,0.813526,6.75261e-05,-0.407685,1.48907,-2.82989,0.00736803,0.0554053,-0.0230868,0.00218842,391,317,-0.0121836,-0.0916055,126.358,105.531,126.328,105.594,5.8179e-05,5.42936e-05,0.000201078
-5.48557,15.4307,-296.98,0.000330344,0.00277626,0.00217224,9.18731e-06,-2.38333e-06,4.4745e-05,4.85195e-05,-4.17155e-05,0.721107,7.82198e-05,-0.307635,1.45996,-2.85652,0.00790726,0.066458,-0.016834,0.00219418,398,317,-0.0114096,-0.0927873,127.14,106.257,127.112,106.32,5.8305e-05,5.41499e-05,0.000201403
-5.19986,15.417,-296.959,0.000359517,0.00279534,0.00197948,5.5954e-06,-1.78477e-05,4.68353e-05,4.21536e-05,-5.4406e-05,0.662781,8.38472e-05,-0.208737,1.4591,-2.96202,0.00661138,0.0778263,-0.0109964,0.00218008,405,317,-0.00924361,-0.0936496,128.208,107.008,128.181,107.07,5.77327e-05,5.4094e-05,0.000199418
-4.90973,15.4019,-296.923,0.000434703,0.00282584,0.00189186,4.46444e-06,-3.0513e-05,4.20754e-05,3.2541e-05,-5.85896e-05,0.588435,7.99889e-05,-0.21063,1.46985,-3.12,0.00356327,0.0878247,-0.00534216,0.00215503,412,317,-0.00672737,-0.0951488,129.519,107.827,129.49,107.889,5.64127e-05,5.36642e-05,0.000194936
-4.61716,15.387,-296.879,0.000509955,0.00284916,0.00192363,1.16216e-06,-3.95077e-05,3.36094e-05,2.01096e-05,-5.84551e-05,0.513341,7.06887e-05,-0.245296,1.48557,-3.2733,-0.00178552,0.0932729,-0.000841421,0.00211394,419,317,-0.0050704,-0.0961313,130.968,108.628,130.936,108.691,5.51707e-05,5.2518e-05,0.000190716
-4.32478,15.3719,-296.834,0.000523773,0.00282471,0.00201034,-7.88924e-06,-4.39491e-05,2.50777e-05,4.96722e-06,-5.68055e-05,0.473728,5.9445e-05,-0.29096,1.51656,-3.38222,-0.00621618,0.093069,0.00238279,0.00209663,426,317,-0.00528737,-0.0954505,132.408,109.444,132.376,109.507,5.50695e-05,5.21899e-05,0.000190381
-4.03392,15.357,-296.793,0.000499462,0.00284752,0.00203325,-1.85773e-05,-4.23407e-05,1.54892e-05,-1.09375e-05,-4.99806e-05,0.458221,4.55085e-05,-0.323307,1.54094,-3.3856,-0.00897439,0.0881406,0.0048345,0.00217751,433,317,-0.00600623,-0.0944714,133.767,110.246,133.735,110.31,5.72315e-05,5.4769e-05,0.000197872
-3.74342,15.3423,-296.753,0.000448518,0.00286033,0.00206033,-2.38939e-05,-3.67385e-05,4.76844e-06,-2.23172e-05,-3.83152e-05,0.319336,3.3332e-05,-0.333938,1.56661,-3.27254,-0.0116093,0.0772013,0.00645571,0.0022748,440,317,-0.00740132,-0.0927921,135.11,111.038,135.078,111.105,5.99879e-05,5.60156e-05,0.000207502
-3.45186,15.3274,-296.709,0.00042818,0.00285855,0.00219763,-2.48175e-05,-3.19266e-05,-7.11128e-06,-2.04219e-05,-3.63222e-05,-0.553635,3.15371e-05,-0.340947,1.59898,-3.06111,-0.0141319,0.0619378,0.00800494,0.00236796,447,317,-0.00882513,-0.0912282,136.515,111.84,136.483,111.908,6.23212e-05,5.63308e-05,0.000215674
-3.15911,15.3127,-296.66,0.000399173,0.00284062,0.00219649,-2.71182e-05,-3.05174e-05,-1.65355e-05,-1.21952e-05,-4.54404e-05,-0.734184,4.07357e-05,-0.389593,1.60832,-2.86571,-0.0138066,0.0460114,0.00854068,0.00237617,454,317,-0.00944552,-0.0894194,137.991,112.632,137.959,112.701,6.28789e-05,5.43506e-05,0.000217573
-2.86558,15.2977,-296.607,0.000361591,0.00283142,0.00221768,-3.28606e-05,-3.42389e-05,-1.94539e-05,-1.40837e-05,-5.30158e-05,-0.767694,4.75644e-05,-0.415134,1.59094,-2.7719,-0.00843758,0.0304927,0.00782358,0.00234558,461,317,-0.0104993,-0.0897092,139.514,113.433,139.483,113.501,6.25339e-05,5.31838e-05,0.000216156
-2.57205,15.2828,-296.554,0.000321487,0.00281171,0.00207903,-3.93472e-05,-4.08335e-05,-1.5095e-05,-2.49771e-05,-5.52037e-05,-0.760803,4.78798e-05,-0.440821,1.54485,-2.77172,-0.00152583,0.0202614,0.00697467,0.0023113,468,317,-0.0104634,-0.0901515,141.04,114.23,141.012,114.297,6.15107e-05,5.44265e-05,0.000212498
-2.27916,15.2679,-296.502,0.000307582,0.00279699,0.00199491,-4.18114e-05,-4.75072e-05,-6.28799e-06,-3.77565e-05,-5.15621e-05,-0.572764,4.6232e-05,-0.468887,1.48098,-2.87229,0.00415811,0.0163266,0.00717294,0.00228602,475,317,-0.0102053,-0.0920715,142.536,115.032,142.509,115.096,6.05658e-05,5.58077e-05,0.000209139
-1.98729,15.2528,-296.453,0.000293906,0.00276872,0.00188671,-3.93901e-05,-5.52049e-05,3.10993e-06,-3.88005e-05,-5.57945e-05,0.187356,4.95343e-05,-0.423493,1.45496,-2.99614,0.00648186,0.0186516,0.00655096,0.00232785,482,317,-0.00972291,-0.0922452,143.98,115.843,143.954,115.906,6.16748e-05,5.6269e-05,0.000212709
-1.69568,15.2378,-296.404,0.000301577,0.00272376,0.00190865,-3.2732e-05,-6.44351e-05,1.10289e-05,-2.92727e-05,-6.78944e-05,0.303938,5.89838e-05,-0.351316,1.46214,-3.15388,0.00757897,0.0259457,0.0027583,0.00239383,489,317,-0.00959757,-0.0910859,145.415,116.647,145.389,116.709,6.38113e-05,5.57389e-05,0.000219819
-1.40407,15.223,-296.355,0.000346793,0.00272847,0.00214559,-2.31744e-05,-7.4707e-05,1.82013e-05,-1.73941e-05,-8.04873e-05,0.307504,7.33536e-05,-0.31177,1.50708,-3.20503,0.0110709,0.0352505,-0.0047799,0.00248725,496,317,-0.0100743,-0.0895752,146.859,117.439,146.829,117.502,6.63156e-05,5.50246e-05,0.000228239
-1.11174,15.2082,-296.302,0.000368073,0.00271045,0.00228443,-1.25332e-05,-8.50847e-05,2.52203e-05,-4.62759e-06,-9.29903e-05,0.303762,9.07651e-05,-0.303879,1.53613,-3.18417,0.0142715,0.0454971,-0.0142594,0.00254171,503,317,-0.0104398,-0.0882351,148.347,118.227,148.316,118.291,6.74421e-05,5.40734e-05,0.000232121
-0.818113,15.1931,-296.243,0.000361764,0.00271571,0.0022727,-7.33975e-07,-9.267e-05,3.33729e-05,1.0103e-05,-0.000103507,0.313982,0.00010891,-0.302319,1.51238,-3.08173,0.012121,0.0561284,-0.0240549,0.00254068,510,317,-0.0104714,-0.0882551,149.912,119.033,149.881,119.097,6.7278e-05,5.46434e-05,0.000231448
-0.522792,15.1777,-296.178,0.000307414,0.00275195,0.00209073,1.25662e-05,-9.68167e-05,3.95028e-05,2.53405e-05,-0.000109591,0.312763,0.000124215,-0.349456,1.42892,-3.0452,0.00413275,0.067746,-0.0351789,0.00252589,517,317,-0.01059,-0.0908737,151.577,119.848,151.549,119.912,6.67592e-05,5.63655e-05,0.000229644
-0.225156,15.1623,-296.104,0.000271771,0.00283361,0.00192269,2.72722e-05,-9.94232e-05,4.25519e-05,4.02369e-05,-0.000112388,0.295746,0.000137012,-0.391449,1.39174,-3.15778,-0.00739669,0.0827742,-0.0476061,0.00250677,524,317,-0.0103733,-0.0938523,153.384,120.658,153.358,120.723,6.64079e-05,5.75425e-05,0.000228693
0.0728392,15.1467,-296.027,0.000249028,0.00290682,0.00186858,4.69936e-05,-0.000100225,4.39738e-05,5.91282e-05,-0.000112359,0.269251,0.000150879,-0.37203,1.41336,-3.14409,-0.0170371,0.0977616,-0.059555,0.00250011,531,317,-0.0106272,-0.0964572,155.219,121.478,155.194,121.544,6.62291e-05,5.92708e-05,0.000227867
0.371187,15.1311,-295.948,0.000244591,0.00289495,0.00183913,6.8533e-05,-0.000100312,4.61037e-05,8.03015e-05,-0.000112081,0.249924,0.000167364,-0.361499,1.41184,-3.26478,-0.0314608,0.11212,-0.0693623,0.00249125,538,317,-0.010518,-0.0976207,157.084,122.305,157.06,122.369,6.6035e-05,5.98597e-05,0.000226944
0.670126,15.1152,-295.866,0.000336551,0.00280628,0.00193097,8.84441e-05,-9.97343e-05,5.08003e-05,0.000101282,-0.000112572,0.247534,0.00018529,-0.290111,1.41537,-3.21405,-0.0509615,0.125709,-0.0744952,0.00251037,545,317,-0.00873594,-0.0968889,158.995,123.139,158.968,123.2,6.66801e-05,6.04347e-05,0.000228513
0.969713,15.0994,-295.781,0.000422221,0.00274017,0.00201222,0.000107653,-9.89178e-05,5.90478e-05,0.00012334,-0.000114605,0.259674,0.000206113,-0.216858,1.39595,-3.21701,-0.0780866,0.136956,-0.0742086,0.00250714,552,317,-0.00702147,-0.0952665,160.953,123.974,160.923,124.032,6.66722e-05,5.98954e-05,0.000227994
1.26987,15.0833,-295.692,0.000502492,0.00273285,0.00200162,0.000124243,-0.0001025,7.41593e-05,0.000146343,-0.000124601,0.289636,0.000234896,-0.23802,1.42062,-3.17962,-0.117146,0.143127,-0.0680777,0.00246384,559,317,-0.00481046,-0.0930571,162.953,124.811,162.92,124.871,6.55036e-05,5.84073e-05,0.000223514
1.56975,15.0675,-295.604,0.000569999,0.00279081,0.00186369,0.000130983,-0.000113645,0.000102007,0.000167937,-0.000150599,0.34756,0.000275996,-0.337126,1.50521,-3.22368,-0.170517,0.143397,-0.0572334,0.0024095,566,317,-0.00209307,-0.0919738,164.946,125.634,164.912,125.698,6.40232e-05,5.7163e-05,0.000218265
1.86707,15.0518,-295.523,0.000611354,0.00282446,0.00176969,0.000126367,-0.000132647,0.000145986,0.000192011,-0.000198291,0.422573,0.000338026,-0.469312,1.54592,-3.15769,-0.236922,0.137151,-0.0436969,0.00239273,573,317,-0.000350636,-0.0914975,166.798,126.456,166.764,126.522,6.34871e-05,5.7995e-05,0.000216608
0,0,0,0,0,0,0,0,0,0,0,0,0,0,0,0,0,0,0,-1,580,317,0,0,0,0,0,0,0,0,0
0,0,0,0,0,0,0,0,0,0,0,0,0,0,0,0,0,0,0,-1,587,317,0,0,0,0,0,0,0,0,0
0,0,0,0,0,0,0,0,0,0,0,0,0,0,0,0,0,0,0,-1,594,317,0,0,0,0,0,0,0,0,0
0,0,0,0,0,0,0,0,0,0,0,0,0,0,0,0,0,0,0,-1,601,317,0,0,0,0,0,0,0,0,0
0,0,0,0,0,0,0,0,0,0,0,0,0,0,0,0,0,0,0,-1,62,324,0,0,0,0,0,0,0,0,0
0,0,0,0,0,0,0,0,0,0,0,0,0,0,0,0,0,0,0,-1,69,324,0,0,0,0,0,0,0,0,0
0,0,0,0,0,0,0,0,0,0,0,0,0,0,0,0,0,0,0,-1,76,324,0,0,0,0,0,0,0,0,0
-18.2784,15.7722,-297.204,0.000635221,0.00273329,0.00147272,-1.29511e-05,-7.65972e-06,4.44094e-05,3.41827e-05,-5.47936e-05,0.815151,7.77418e-05,-0.380793,1.53892,-3.02749,0.0849586,-0.00272477,-0.0556398,0.00251855,83,324,-2.38658e-05,-0.0854408,81.6393,72.5156,81.6088,72.5828,6.634e-05,6.37209e-05,0.000232864
-18.0088,15.7603,-297.25,0.000667898,0.00275912,0.00133218,-1.43354e-05,8.41165e-06,5.92495e-05,5.73694e-05,-6.32931e-05,0.880225,0.000104539,-0.372733,1.50239,-3.145,0.0615067,-0.0153192,-0.025588,0.00256618,90,324,0.00198307,-0.0843968,81.9849,73.2353,81.9542,73.3046,6.69558e-05,6.52852e-05,0.000236415
-17.737,15.7481,-297.288,0.000697607,0.0027557,0.00129193,-5.73243e-06,2.20314e-05,6.51942e-05,7.48053e-05,-5.85063e-05,0.890297,0.000115738,-0.373962,1.48948,-3.27659,0.0465102,-0.0199985,-0.00394442,0.0026029,97,324,0.00307711,-0.0844302,82.4332,73.9638,82.402,74.0328,6.75291e-05,6.51893e-05,0.000240158
-17.4631,15.7358,-297.321,0.00067992,0.00275293,0.00146147,2.11818e-06,3.28882e-05,6.48492e-05,8.41524e-05,-4.9146e-05,0.901866,0.000116759,-0.365336,1.50527,-3.24476,0.0374732,-0.0183655,0.00795098,0.00257919,104,324,0.00126999,-0.0850786,82.9761,74.6929,82.9442,74.7613,6.7211e-05,6.40361e-05,0.000238732
-17.1878,15.7235,-297.349,0.00064421,0.00276339,0.0016981,7.05583e-06,4.06811e-05,5.95095e-05,8.57074e-05,-3.79704e-05,0.92307,0.000109735,-0.38283,1.52542,-3.25904,0.032655,-0.0124518,0.0123972,0.0025473,111,324,-0.00154221,-0.0862861,83.5825,75.4228,83.5501,75.4908,6.7087e-05,6.33572e-05,0.000236976
-16.9112,15.7109,-297.373,0.000611102,0.00278374,0.00193135,1.05842e-05,4.55584e-05,5.12812e-05,8.22521e-05,-2.61095e-05,0.949717,9.79524e-05,-0.402453,1.58784,-3.12327,0.0308121,-0.00402466,0.0120297,0.0024738,118,324,-0.00425819,-0.087466,84.2494,76.1666,84.2163,76.2346,6.60138e-05,6.26337e-05,0.000231045
-16.6337,15.6981,-297.394,0.000635581,0.00284916,0.00204811,1.37901e-05,4.7823e-05,4.20006e-05,7.61234e-05,-1.45102e-05,0.977867,8.43201e-05,-0.413984,1.61565,-3.01063,0.0324732,0.00599508,0.00781987,0.00243008,125,324,-0.00466033,-0.0901699,84.9585,76.9129,84.9239,76.982,6.48571e-05,6.20518e-05,0.000224762
-16.3554,15.6854,-297.413,0.000748927,0.00288712,0.0021691,1.3611e-05,4.87746e-05,3.28755e-05,6.84744e-05,-6.0888e-06,1.03095,7.1713e-05,-0.41673,1.63994,-2.92528,0.0362057,0.0169256,0.000358006,0.00245529,132,324,-0.00284711,-0.0909545,85.7018,77.6566,85.663,77.727,6.61843e-05,6.19803e-05,0.000228271
-16.0748,15.6724,-297.424,0.000786699,0.00292485,0.00226239,6.71984e-06,4.98418e-05,2.54853e-05,6.16631e-05,-5.10144e-06,1.13649,6.43656e-05,-0.400547,1.63737,-3.20929,0.0373843,0.0270761,-0.00731492,0.00252611,139,324,-0.00266956,-0.092075,86.5533,78.4093,86.5126,78.4807,6.85344e-05,6.38535e-05,0.000234531
-15.7936,15.6593,-297.433,0.000814517,0.00290269,0.0022419,-1.65479e-06,5.00472e-05,1.81579e-05,5.57871e-05,-7.39469e-06,1.26463,5.98282e-05,-0.398285,1.58007,-3.47484,0.0352444,0.0367985,-0.0147696,0.00254099,146,324,-0.00175421,-0.0920213,87.4265,79.1674,87.3853,79.2376,6.84324e-05,6.49465e-05,0.000234352
-15.5116,15.6461,-297.44,0.000748751,0.00287053,0.0021049,-8.73222e-06,4.82934e-05,1.31676e-05,5.1187e-05,-1.16259e-05,1.35448,5.78824e-05,-0.390548,1.52158,-3.67844,0.0306514,0.0454283,-0.0220565,0.00249541,153,324,-0.00217085,-0.0908056,88.3328,79.9268,88.2944,79.9963,6.6834e-05,6.46067e-05,0.000228952
-15.2287,15.6328,-297.443,0.000725043,0.00280949,0.00218666,-1.59562e-05,4.4194e-05,1.205e-05,4.65182e-05,-1.82804e-05,1.38026,5.78661e-05,-0.354518,1.49262,-3.60218,0.0256552,0.0525898,-0.0285907,0.00235079,160,324,-0.00331035,-0.0899086,89.2868,80.6936,89.2486,80.7608,6.14877e-05,6.09449e-05,0.000212098
-14.9451,15.6193,-297.445,0.000737855,0.00275351,0.00233762,-2.78423e-05,3.92525e-05,1.44267e-05,4.2223e-05,-3.08128e-05,1.36773,6.35076e-05,-0.327037,1.47163,-3.43014,0.0203057,0.0576506,-0.0348387,0.00218757,167,324,-0.00409991,-0.0887814,90.2688,81.4681,90.2292,81.5334,5.58979e-05,5.67083e-05,0.000193967
-14.6611,15.6058,-297.444,0.000768024,0.002757,0.00258895,-4.4773e-05,3.50301e-05,1.95616e-05,3.95671e-05,-4.931e-05,1.34289,7.71239e-05,-0.286667,1.4564,-3.21177,0.0136206,0.0589783,-0.0390594,0.00208981,174,324,-0.00532545,-0.0891678,91.274,82.2401,91.2318,82.3054,5.39916e-05,5.36284e-05,0.000187668
-14.3764,15.5922,-297.441,0.000801088,0.00277654,0.00281881,-6.41574e-05,3.13118e-05,2.59235e-05,3.78968e-05,-7.07424e-05,1.32204,9.55069e-05,-0.246225,1.44214,-2.91016,0.00472855,0.0553895,-0.0393039,0.00208264,181,324,-0.00628884,-0.0888224,92.3094,83.0112,92.2644,83.0779,5.44221e-05,5.22203e-05,0.000189017
-14.0907,15.5787,-297.435,0.000761223,0.00280664,0.00295081,-7.85366e-05,2.81618e-05,3.25745e-05,3.73205e-05,-8.76953e-05,1.29671,0.000111158,-0.23828,1.42928,-2.71522,-0.00501862,0.0477432,-0.0354316,0.00209211,188,324,-0.00828133,-0.0890795,93.3923,83.7815,93.3473,83.8496,5.46978e-05,5.14242e-05,0.000190021
-13.8044,15.5651,-297.427,0.000697182,0.00280571,0.00296794,-8.20904e-05,2.49411e-05,3.73489e-05,3.66854e-05,-9.38347e-05,1.26614,0.00011659,-0.266,1.4318,-2.63727,-0.0143904,0.0366993,-0.0272946,0.00213255,195,324,-0.0099227,-0.0887238,94.4964,84.5508,94.4531,84.6191,5.46779e-05,5.20803e-05,0.000190311
-13.5186,15.5517,-297.419,0.000624475,0.00280431,0.00281624,-7.86127e-05,2.10499e-05,3.8733e-05,3.43328e-05,-9.18956e-05,1.24043,0.000113042,-0.307307,1.46147,-2.73201,-0.0225962,0.0239711,-0.0178094,0.00219294,202,324,-0.010445,-0.0885703,95.5761,85.3114,95.5358,85.3798,5.38954e-05,5.46411e-05,0.000187743
-13.2346,15.5383,-297.417,0.000596209,0.00288574,0.0027606,-7.35832e-05,1.79012e-05,3.72209e-05,3.11314e-05,-8.68134e-05,1.22927,0.00010587,-0.34679,1.46959,-2.93128,-0.028006,0.012009,-0.00918263,0.00218874,209,324,-0.0107233,-0.0902797,96.5658,86.0695,96.5266,86.1405,5.35747e-05,5.54398e-05,0.000186149
-12.9525,15.5248,-297.42,0.000533864,0.00294097,0.00268596,-7.06772e-05,1.51903e-05,3.3814e-05,2.69072e-05,-8.23941e-05,1.23723,9.86396e-05,-0.358961,1.47035,-3.03261,-0.0306598,0.0021876,-0.00249428,0.00218924,216,324,-0.0116964,-0.0925766,97.4552,86.8364,97.4182,86.9082,5.41603e-05,5.65319e-05,0.00018726
-12.6713,15.5115,-297.427,0.000464976,0.00298149,0.00263481,-6.93346e-05,1.15939e-05,2.93437e-05,2.11137e-05,-7.88544e-05,1.25708,9.12618e-05,-0.382628,1.45124,-3.07047,-0.03289,-0.00512236,0.0015238,0.00219517,223,324,-0.013008,-0.0946895,98.295,87.5943,98.2603,87.6663,5.65722e-05,5.72448e-05,0.000194516
-12.3869,15.4981,-297.422,0.000401633,0.00300017,0.00246847,-6.61017e-05,8.55815e-06,2.43308e-05,1.57873e-05,-7.33308e-05,1.28198,8.23671e-05,-0.390478,1.48629,-2.99955,-0.0353274,-0.00968819,0.0044846,0.00235624,230,324,-0.0132337,-0.0952235,99.2959,88.3531,99.2641,88.4255,5.97484e-05,6.10829e-05,0.000204206
-12.1007,15.4845,-297.412,0.000419181,0.00295611,0.002576,-5.93476e-05,6.71172e-06,1.91445e-05,1.18589e-05,-6.44947e-05,1.30815,7.11691e-05,-0.422668,1.52131,-2.81597,-0.0352777,-0.01218,0.00667505,0.0025051,237,324,-0.0135361,-0.0939411,100.389,89.1201,100.356,89.1914,6.01888e-05,6.47641e-05,0.000205939
-11.8138,15.4708,-297.399,0.000469965,0.00287586,0.00272499,-5.10946e-05,7.05443e-06,1.42773e-05,1.03708e-05,-5.44109e-05,1.34256,6.02693e-05,-0.415517,1.5843,-2.65244,-0.0302229,-0.0123445,0.00648333,0.00256857,244,324,-0.0133308,-0.0932261,101.52,89.8948,101.485,89.9626,5.92827e-05,6.6598e-05,0.000203763
-11.526,15.4567,-297.382,0.00058594,0.00280673,0.00293234,-4.40143e-05,8.90501e-06,1.0251e-05,1.08213e-05,-4.59307e-05,1.38599,5.21896e-05,-0.433514,1.618,-2.64109,-0.021955,-0.0103272,0.00367117,0.00247184,251,324,-0.0119416,-0.0914894,102.695,90.6847,102.654,90.7505,5.76111e-05,6.40706e-05,0.000198853
-11.238,15.4424,-297.365,0.000589072,0.00272156,0.00273188,-3.83091e-05,1.23499e-05,6.91219e-06,1.32761e-05,-3.92353e-05,1.43759,4.72923e-05,-0.436995,1.59853,-2.75384,-0.0138976,-0.00794998,0.00191594,0.00234703,258,324,-0.0101612,-0.0898518,103.875,91.4827,103.837,91.5454,5.82625e-05,6.09318e-05,0.000201241
-10.9494,15.4281,-297.345,0.000567501,0.00265653,0.00255934,-3.45228e-05,1.79976e-05,5.25436e-06,1.85181e-05,-3.50433e-05,1.47206,4.71157e-05,-0.426964,1.5859,-2.8732,-0.00716179,-0.0065547,0.0029418,0.00227977,265,324,-0.00923902,-0.0887226,105.085,92.2799,105.048,92.3402,5.9992e-05,5.86395e-05,0.000207657
-10.6608,15.4141,-297.325,0.000478866,0.00265886,0.00225624,-3.22563e-05,2.56472e-05,6.09274e-06,2.62813e-05,-3.28905e-05,1.46709,5.13507e-05,-0.396943,1.57172,-3.02172,-0.00102072,-0.00613352,0.006496,0.00232636,272,324,-0.00901235,-0.0876802,106.293,93.0599,106.261,93.1211,6.23582e-05,5.72615e-05,0.00021604
-10.372,15.3999,-297.304,0.000447465,0.0027131,0.00226701,-3.18707e-05,3.53533e-05,8.50591e-06,3.64129e-05,-3.29303e-05,1.44687,6.00782e-05,-0.413888,1.53975,-3.04629,0.00740844,-0.00563987,0.0111502,0.00239382,279,324,-0.00989508,-0.0894718,107.513,93.8445,107.482,93.9069,6.43256e-05,5.82823e-05,0.000222498
-10.0826,15.3858,-297.28,0.00042256,0.00277471,0.00238031,-3.26289e-05,4.68441e-05,1.05335e-05,4.82165e-05,-3.40014e-05,1.44123,7.15567e-05,-0.432318,1.53973,-3.06263,0.0177226,-0.00386213,0.0161828,0.00240603,286,324,-0.0114165,-0.0915492,108.769,94.6277,108.737,94.6915,6.44743e-05,5.90269e-05,0.000222579
-9.79241,15.3714,-297.253,0.000421578,0.00282022,0.00237602,-3.05425e-05,5.85691e-05,9.47698e-06,5.95658e-05,-3.15392e-05,1.46601,8.01341e-05,-0.434311,1.53281,-2.9029,0.0271981,-0.00161686,0.0229169,0.00233934,293,324,-0.011407,-0.0926624,110.062,95.4194,110.031,95.4845,6.2246e-05,5.81981e-05,0.000214836
-9.50173,15.3572,-297.224,0.000415977,0.00282406,0.00225273,-2.75004e-05,6.91926e-05,6.22589e-06,6.95919e-05,-2.78996e-05,1.50676,8.69655e-05,-0.414715,1.50287,-2.74765,0.0351595,-0.00107008,0.0308559,0.00225318,300,324,-0.010556,-0.0927611,111.383,96.2044,111.352,96.2695,5.94049e-05,5.59995e-05,0.000205168
-9.21133,15.3429,-297.195,0.000429116,0.00279438,0.00220006,-2.50048e-05,7.93309e-05,3.82599e-06,7.9471e-05,-2.51449e-05,1.53419,9.45843e-05,-0.412392,1.49362,-2.64622,0.0404878,-0.00306491,0.0386322,0.00218463,307,324,-0.00972343,-0.0910414,112.691,96.9951,112.66,97.0603,5.81056e-05,5.5201e-05,0.000200536
-8.92343,15.3287,-297.174,0.000438002,0.00278753,0.00231214,-2.00762e-05,8.9539e-05,9.59393e-07,8.95474e-05,-2.00845e-05,1.56204,0.000101097,-0.396718,1.56485,-2.72127,0.0412415,-0.00831349,0.043997,0.00224232,314,324,-0.0103097,-0.0912018,113.869,97.7781,113.837,97.8428,6.03876e-05,5.66649e-05,0.000207899
-8.63727,15.3149,-297.159,0.000434843,0.00280008,0.00226909,-1.3144e-05,9.91481e-05,-3.87386e-06,9.92816e-05,-1.32775e-05,-1.53635,0.000106543,-0.37039,1.62611,-2.82357,0.0374289,-0.0151943,0.0454014,0.00235945,321,324,-0.0100391,-0.0920971,114.955,98.5456,114.923,98.6101,6.35117e-05,5.83599e-05,0.000218429
-8.35176,15.3012,-297.144,0.000425289,0.00280328,0.00204533,-8.55148e-06,0.000106906,-9.80257e-06,0.000107732,-9.37783e-06,-1.4867,0.000112714,-0.35786,1.66102,-3.03243,0.0319056,-0.0226838,0.0424192,0.00241725,328,324,-0.00854936,-0.0927781,116.005,99.3068,115.976,99.3708,6.51059e-05,5.85354e-05,0.000224098
-8.0657,15.2873,-297.128,0.000411373,0.00278617,0.00180281,-9.11699e-06,0.000109842,-1.47402e-05,0.000111641,-1.09162e-05,-1.44933,0.00011748,-0.288796,1.64761,-3.0419,0.0270093,-0.0288846,0.0341163,0.00240764,335,324,-0.00699317,-0.0921307,117.084,100.079,117.056,100.142,6.47002e-05,5.79659e-05,0.000223172
-7.77816,15.2733,-297.106,0.000445111,0.00271797,0.00175456,-1.18547e-05,0.00010657,-1.50519e-05,0.000108453,-1.37379e-05,-1.44633,0.000115934,-0.26653,1.59224,-2.98084,0.0230097,-0.0326436,0.0218573,0.00236837,342,324,-0.00568648,-0.0909154,118.244,100.854,118.216,100.915,6.32033e-05,5.73258e-05,0.000218449
-7.48926,15.2592,-297.079,0.000521069,0.00265539,0.00196066,-1.31911e-05,9.84438e-05,-1.01507e-05,9.93593e-05,-1.41066e-05,-1.48085,0.000107112,-0.258373,1.57984,-3.07085,0.0201066,-0.0337205,0.00902367,0.00234664,349,324,-0.00523613,-0.0892946,119.481,101.634,119.449,101.694,6.19579e-05,5.79731e-05,0.000214275
-7.19733,15.2443,-297.042,0.000530595,0.00265102,0.00216468,-1.27e-05,8.86535e-05,-2.51517e-06,8.87159e-05,-1.27624e-05,-1.546,9.57372e-05,-0.271383,1.56916,-3.20959,0.0177196,-0.0311651,-0.00276568,0.00231505,356,324,-0.00649132,-0.0895856,120.877,102.445,120.844,102.504,6.11236e-05,5.85102e-05,0.000211232
-6.90168,15.2293,-296.992,0.000456351,0.00272125,0.00215692,-1.14119e-05,7.72185e-05,5.78769e-06,7.75948e-05,-1.17883e-05,1.50586,8.41108e-05,-0.284853,1.56448,-3.2631,0.0153331,-0.0243875,-0.0142512,0.00227531,363,324,-0.00829715,-0.0906201,122.472,103.258,122.441,103.319,5.99637e-05,5.83718e-05,0.000206997
-6.60536,15.2141,-296.938,0.00041137,0.00278205,0.00211556,-8.00717e-06,6.2605e-05,1.37966e-05,6.5205e-05,-1.06071e-05,1.38453,7.11044e-05,-0.355935,1.54479,-3.22108,0.0131571,-0.012956,-0.0245041,0.00223775,370,324,-0.00909654,-0.0906974,124.107,104.075,124.077,104.139,5.83024e-05,5.79277e-05,0.000201391
-6.31468,15.1998,-296.903,0.000378761,0.00280157,0.00219009,-2.7336e-06,4.57135e-05,2.13421e-05,5.37741e-05,-1.07942e-05,1.20967,5.9905e-05,-0.43271,1.52449,-3.07459,0.0114841,0.000798114,-0.0307255,0.0022406,377,324,-0.0104313,-0.0907243,125.444,104.853,125.414,104.919,5.89016e-05,5.78715e-05,0.000203498
-6.03017,15.1862,-296.888,0.000352786,0.00279267,0.00223967,2.43735e-06,2.90978e-05,2.86432e-05,4.73608e-05,-1.58256e-05,1.00319,5.69474e-05,-0.447562,1.50731,-2.85082,0.00923661,0.0137903,-0.0318347,0.00220212,384,324,-0.0113936,-0.0905608,126.451,105.606,126.421,105.671,5.83953e-05,5.61458e-05,0.00020204
-5.75083,15.1729,-296.89,0.000326215,0.00276344,0.0022362,6.17669e-06,1.42234e-05,3.53534e-05,4.57817e-05,-2.53816e-05,0.842057,6.24676e-05,-0.381702,1.47478,-2.70578,0.00683149,0.0256436,-0.0285727,0.00220138,391,324,-0.0119738,-0.0907319,127.177,106.351,127.148,106.414,5.84531e-05,5.42433e-05,0.000202269
-5.46997,15.1598,-296.886,0.000330775,0.00276941,0.00209948,6.37832e-06,2.47981e-06,4.13515e-05,4.58264e-05,-3.69683e-05,0.761846,7.1839e-05,-0.2904,1.44258,-2.64284,0.00352176,0.0364429,-0.0238404,0.0021944,398,324,-0.0108426,-0.0923147,127.985,107.078,127.957,107.141,5.83289e-05,5.34471e-05,0.000201807
-5.1844,15.1463,-296.866,0.000387389,0.00279319,0.00199384,5.77517e-06,-7.19143e-06,4.36696e-05,4.34401e-05,-4.48564e-05,0.711705,7.64703e-05,-0.205026,1.42865,-2.69466,-0.00166749,0.0481401,-0.0190246,0.00219069,405,324,-0.00864882,-0.093726,129.052,107.822,129.023,107.885,5.82024e-05,5.32454e-05,0.000201237
-4.89474,15.1313,-296.831,0.000454852,0.00281567,0.00192737,7.64043e-06,-1.5394e-05,4.02115e-05,3.79515e-05,-4.57051e-05,0.645924,7.25524e-05,-0.225774,1.45301,-2.87393,-0.00817013,0.0589693,-0.0137203,0.0021993,412,324,-0.00648852,-0.0957478,130.341,108.638,130.311,108.7,5.80451e-05,5.32046e-05,0.000200707
-4.6029,15.1164,-296.789,0.000514787,0.00283517,0.00191952,7.3225e-06,-2.1861e-05,3.32399e-05,2.90324e-05,-4.35709e-05,0.578571,6.32951e-05,-0.263776,1.50186,-3.06698,-0.0146279,0.0665228,-0.00896295,0.00218354,419,324,-0.00492218,-0.0967764,131.753,109.446,131.721,109.507,5.77497e-05,5.29476e-05,0.000199662
-4.31107,15.1013,-296.745,0.00052022,0.00283773,0.00194021,1.86114e-06,-2.57237e-05,2.53184e-05,1.69001e-05,-4.07627e-05,0.535993,5.1343e-05,-0.316852,1.56159,-3.23008,-0.0180454,0.0697597,-0.00496528,0.00217205,426,324,-0.00487287,-0.0958235,133.166,110.257,133.134,110.319,5.76294e-05,5.30629e-05,0.000199218
-4.02009,15.0868,-296.704,0.000511545,0.00285147,0.00194318,-5.22939e-06,-2.51976e-05,1.56298e-05,3.33299e-06,-3.37599e-05,0.501172,3.55438e-05,-0.361984,1.60639,-3.32336,-0.0185187,0.0692002,-0.00148529,0.00221886,433,324,-0.0050421,-0.0944427,134.537,111.04,134.505,111.105,5.8768e-05,5.49863e-05,0.000203151
-3.72829,15.0723,-296.66,0.000462227,0.00286627,0.00198051,-8.89359e-06,-2.16929e-05,4.565e-06,-7.43228e-06,-2.31542e-05,0.309805,2.0476e-05,-0.375152,1.61819,-3.21696,-0.0186436,0.0638509,0.00114108,0.00230318,440,324,-0.00647489,-0.0927733,135.956,111.823,135.924,111.89,6.08815e-05,5.58244e-05,0.000210542
-3.43513,15.0574,-296.61,0.000410768,0.00285733,0.00206379,-1.05533e-05,-1.87121e-05,-7.60978e-06,-5.99845e-06,-2.3267e-05,-0.539353,2.09229e-05,-0.380018,1.62738,-3.01597,-0.0188503,0.0548298,0.0031539,0.00236364,447,324,-0.00828899,-0.0913217,137.454,112.624,137.423,112.692,6.20873e-05,5.5685e-05,0.000214849
-3.14126,15.0428,-296.557,0.000383117,0.00283712,0.0020229,-1.52139e-05,-1.86999e-05,-1.7743e-05,8.71491e-07,-3.47853e-05,-0.736437,3.52291e-05,-0.436384,1.60225,-2.81621,-0.0169501,0.0448459,0.00361267,0.00235997,454,324,-0.00860944,-0.0903368,138.996,113.408,138.966,113.475,6.18568e-05,5.29249e-05,0.000214132
-2.84709,15.0277,-296.501,0.000348027,0.00282256,0.00200155,-2.30665e-05,-2.2769e-05,-2.25429e-05,-3.74335e-07,-4.54612e-05,-0.788698,4.52751e-05,-0.477923,1.56465,-2.74353,-0.0112191,0.0342998,0.00270563,0.00230608,461,324,-0.00931364,-0.0914357,140.558,114.22,140.53,114.287,6.1037e-05,5.20992e-05,0.000211041
-2.55427,15.0125,-296.45,0.000345721,0.00280233,0.00192802,-3.00916e-05,-2.87289e-05,-2.22152e-05,-7.18459e-06,-5.1636e-05,-0.800728,4.84449e-05,-0.4925,1.53329,-2.77103,-0.0038067,0.0263864,0.00189667,0.00228714,468,324,-0.00880061,-0.0918937,142.051,115.036,142.023,115.101,6.06568e-05,5.34194e-05,0.000209532
-2.26325,14.9978,-296.405,0.000349849,0.00278968,0.00188982,-3.30498e-05,-3.39701e-05,-1.88991e-05,-1.46052e-05,-5.24147e-05,-0.773227,4.68517e-05,-0.472787,1.48841,-2.77741,0.00326367,0.0220151,0.002312,0.00228707,475,324,-0.00840468,-0.0931203,143.448,115.833,143.421,115.896,6.07489e-05,5.46198e-05,0.000209732
-1.97346,14.983,-296.363,0.000324456,0.00277506,0.00177207,-3.27271e-05,-3.9127e-05,-1.47774e-05,-2.08072e-05,-5.10469e-05,-0.678773,4.44588e-05,-0.402974,1.49092,-2.89146,0.00830291,0.0215838,0.00187952,0.00236022,482,324,-0.00815461,-0.0932305,144.779,116.632,144.753,116.694,6.28101e-05,5.58939e-05,0.000216626
-1.68305,14.9683,-296.318,0.000314164,0.0027323,0.00175224,-2.94079e-05,-4.49627e-05,-1.12381e-05,-2.35185e-05,-5.08522e-05,-0.482709,4.40806e-05,-0.3263,1.52398,-3.10615,0.011966,0.0248763,-0.00144362,0.00244353,489,324,-0.00818276,-0.0919564,146.15,117.421,146.125,117.482,6.52391e-05,5.61516e-05,0.000224767
-1.39193,14.9538,-296.27,0.000332727,0.00272878,0.00190926,-2.30534e-05,-5.09154e-05,-7.55381e-06,-2.11372e-05,-5.28315e-05,-0.24843,4.60569e-05,-0.2953,1.56408,-3.18293,0.0160103,0.02971,-0.00733719,0.00253309,496,324,-0.00876579,-0.0906683,147.569,118.198,147.542,118.26,6.75565e-05,5.57844e-05,0.000232566
-1.09946,14.9392,-296.216,0.000353147,0.00270137,0.00200887,-1.47516e-05,-5.65116e-05,-2.89661e-06,-1.45516e-05,-5.67116e-05,-0.0689233,5.10167e-05,-0.320379,1.57707,-3.19253,0.0182264,0.0350202,-0.0139272,0.00256893,503,324,-0.00886902,-0.089118,149.07,118.98,149.041,119.042,6.82129e-05,5.41959e-05,0.000234785
-0.805242,14.9242,-296.155,0.000348574,0.00272727,0.00202283,-4.29358e-06,-5.99629e-05,4.05627e-06,-3.99958e-06,-6.02569e-05,0.0723543,5.836e-05,-0.350591,1.52529,-3.13247,0.0160263,0.0403779,-0.0198282,0.00255612,510,324,-0.00905366,-0.0890955,150.673,119.782,150.645,119.845,6.76522e-05,5.40716e-05,0.00023264
-0.509198,14.9088,-296.087,0.00029048,0.00277315,0.00189728,8.48327e-06,-6.11951e-05,1.0894e-05,1.01468e-05,-6.28586e-05,0.151531,6.8498e-05,-0.383338,1.42192,-3.02316,0.00999064,0.0464169,-0.0267032,0.00251549,517,324,-0.00966872,-0.091443,152.384,120.599,152.358,120.663,6.63593e-05,5.44462e-05,0.00022801
-0.211077,14.8934,-296.011,0.000257983,0.00286473,0.00175492,2.30339e-05,-6.18534e-05,1.66239e-05,2.61733e-05,-6.49928e-05,0.186652,8.1303e-05,-0.370865,1.34783,-3.05711,0.00107784,0.0547605,-0.0349394,0.00247551,524,324,-0.00956404,-0.0944993,154.223,121.411,154.199,121.476,6.55697e-05,5.52966e-05,0.000225421
0.0875041,14.8779,-295.932,0.000251927,0.00291804,0.00169834,4.16997e-05,-6.13965e-05,2.16563e-05,4.60641e-05,-6.57609e-05,0.198864,9.73427e-05,-0.320646,1.33178,-3.09129,-0.00730604,0.0632682,-0.0425011,0.00244997,531,324,-0.00936218,-0.0967037,156.098,122.231,156.074,122.297,6.52357e-05,5.66275e-05,0.000224085
0.386498,14.8623,-295.85,0.000310045,0.00288369,0.00175287,6.1677e-05,-6.13687e-05,2.85381e-05,6.79736e-05,-6.76654e-05,0.217161,0.000117467,-0.299118,1.36666,-3.22048,-0.0195287,0.0717153,-0.0480426,0.00246763,538,324,-0.00823449,-0.0971675,158.007,123.053,157.982,123.118,6.54502e-05,5.80362e-05,0.000224856
0.685858,14.8466,-295.767,0.00039016,0.00281741,0.00182342,8.05128e-05,-6.15568e-05,3.85135e-05,9.02817e-05,-7.13256e-05,0.248409,0.000140277,-0.219963,1.39528,-3.10266,-0.0354588,0.0802153,-0.0491493,0.0025051,545,324,-0.00661191,-0.0963729,159.947,123.886,159.919,123.948,6.66134e-05,5.9471e-05,0.000228541
0.985321,14.8307,-295.681,0.00044974,0.00276787,0.00190141,9.88954e-05,-6.22296e-05,5.26677e-05,0.000114584,-7.79178e-05,0.289503,0.000167716,-0.138602,1.39457,-2.99046,-0.0579553,0.0877964,-0.0450204,0.00249563,552,324,-0.00554804,-0.0948927,161.902,124.725,161.872,124.785,6.65461e-05,5.96137e-05,0.000227916
1.28466,14.8146,-295.595,0.000487414,0.00276832,0.00184842,0.00011407,-6.71225e-05,7.39384e-05,0.000140412,-9.34646e-05,0.34225,0.000203899,-0.166013,1.43742,-2.92286,-0.0911351,0.0924729,-0.0355888,0.00245,559,324,-0.00414592,-0.093453,163.857,125.568,163.826,125.63,6.57055e-05,5.86296e-05,0.000224275
1.58273,14.7989,-295.513,0.000535426,0.00282314,0.00181087,0.000119049,-7.87293e-05,0.000107345,0.000166112,-0.000125792,0.413188,0.0002536,-0.270995,1.4978,-3.00416,-0.13636,0.0933497,-0.0225266,0.00242339,566,324,-0.00263378,-0.0927708,165.749,126.395,165.717,126.46,6.49388e-05,5.78578e-05,0.000221075
1.87723,14.7834,-295.443,0.000580137,0.00286037,0.00176021,0.000114821,-9.73721e-05,0.000156102,0.000197468,-0.00018002,0.486926,0.00032703,-0.39661,1.50887,-2.97232,-0.190212,0.0898587,-0.00788432,0.00245174,573,324,-0.001127,-0.0929761,167.441,127.212,167.407,127.279,6.57614e-05,5.92637e-05,0.000223635
0,0,0,0,0,0,0,0,0,0,0,0,0,0,0,0,0,0,0,-1,580,324,0,0,0,0,0,0,0,0,0
0,0,0,0,0,0,0,0,0,0,0,0,0,0,0,0,0,0,0,-1,587,324,0,0,0,0,0,0,0,0,0
0,0,0,0,0,0,0,0,0,0,0,0,0,0,0,0,0,0,0,-1,594,324,0,0,0,0,0,0,0,0,0
0,0,0,0,0,0,0,0,0,0,0,0,0,0,0,0,0,0,0,-1,601,324,0,0,0,0,0,0,0,0,0
0,0,0,0,0,0,0,0,0,0,0,0,0,0,0,0,0,0,0,-1,62,331,0,0,0,0,0,0,0,0,0
0,0,0,0,0,0,0,0,0,0,0,0,0,0,0,0,0,0,0,-1,69,331,0,0,0,0,0,0,0,0,0
0,0,0,0,0,0,0,0,0,0,0,0,0,0,0,0,0,0,0,-1,76,331,0,0,0,0,0,0,0,0,0
-18.302,15.5023,-297.237,0.000589413,0.00275844,0.00117534,-4.95049e-05,-2.53773e-05,3.80875e-05,2.51132e-06,-7.73935e-05,0.938769,7.86792e-05,-0.400513,1.55196,-2.99595,0.0958692,0.00749986,-0.048987,0.00256196,83,331,0.00126204,-0.0872047,80.4165,73.3694,80.3893,73.4361,6.7719e-05,6.45219e-05,0.000238132
-18.0315,15.4903,-297.28,0.000641558,0.00277531,0.00118056,-3.80363e-05,-1.15013e-05,5.15429e-05,2.84543e-05,-7.7992e-05,0.911367,9.54547e-05,-0.37353,1.54882,-3.1568,0.0696192,-0.0016861,-0.0204846,0.00258519,90,331,0.00256359,-0.0852607,80.8065,74.0847,80.7777,74.154,6.82564e-05,6.5245e-05,0.000241348
-17.7588,15.4781,-297.316,0.000654891,0.00275332,0.00124517,-1.9753e-05,1.46757e-06,5.72866e-05,4.91182e-05,-6.74036e-05,0.876967,0.000101324,-0.359984,1.53814,-3.3669,0.0527089,-0.00444625,-0.00088631,0.00262122,97,331,0.00242677,-0.0841253,81.2986,74.8112,81.2689,74.8804,6.90044e-05,6.5157e-05,0.000245174
-17.4842,15.4658,-297.347,0.000644919,0.00272513,0.00148809,-4.46605e-06,1.23973e-05,5.76588e-05,6.22376e-05,-5.43064e-05,0.858001,0.000101008,-0.359204,1.55203,-3.45077,0.0426578,-0.00270098,0.00904167,0.00261167,104,331,0.000232574,-0.0842207,81.8767,75.5392,81.8457,75.6069,6.90423e-05,6.42451e-05,0.000244446
-17.2081,15.4535,-297.372,0.000585703,0.00272018,0.00166827,5.46443e-06,2.0644e-05,5.35425e-05,6.7132e-05,-4.10236e-05,0.855805,9.45708e-05,-0.372931,1.56542,-3.41319,0.0374748,0.00166876,0.0119067,0.0025902,111,331,-0.00268675,-0.0854514,82.521,76.2673,82.4905,76.3337,6.88558e-05,6.35952e-05,0.000242069
-16.9307,15.4408,-297.394,0.000589308,0.00275529,0.00192102,1.18199e-05,2.62323e-05,4.68076e-05,6.63852e-05,-2.8333e-05,0.861775,8.42059e-05,-0.398378,1.60775,-3.09658,0.0357664,0.00730436,0.0104447,0.00252924,118,331,-0.00467509,-0.0869244,83.2266,77.0079,83.1943,77.0749,6.77619e-05,6.27305e-05,0.000235911
-16.6524,15.428,-297.413,0.000623245,0.00285321,0.0020349,1.5978e-05,2.97085e-05,3.91682e-05,6.26085e-05,-1.6922e-05,0.872155,7.25648e-05,-0.422405,1.6217,-2.78723,0.0377512,0.0136604,0.00587331,0.00245615,125,331,-0.00484744,-0.0900075,83.9723,77.7508,83.9381,77.8201,6.61565e-05,6.23728e-05,0.00022809
-16.3733,15.4152,-297.429,0.000739875,0.00291479,0.00211832,1.56169e-05,3.20636e-05,3.19968e-05,5.68769e-05,-9.19632e-06,0.911179,6.19888e-05,-0.416709,1.6224,-2.63279,0.0414837,0.0204066,-0.00116156,0.00248918,132,331,-0.00267211,-0.0912473,84.7528,78.4957,84.7145,78.5672,6.73042e-05,6.37766e-05,0.000231192
-16.0923,15.4021,-297.44,0.000791299,0.00291935,0.00223062,9.4929e-06,3.44248e-05,2.67067e-05,5.14317e-05,-7.51401e-06,1.00375,5.5571e-05,-0.380755,1.6133,-2.95192,0.0422113,0.0264297,-0.00794241,0.00256636,139,331,-0.00228255,-0.0917719,85.624,79.2504,85.5835,79.3217,6.95563e-05,6.63869e-05,0.00023738
-15.8109,15.389,-297.448,0.000812414,0.00287903,0.0021812,1.26525e-06,3.57386e-05,2.13672e-05,4.59548e-05,-8.95092e-06,1.1248,5.10225e-05,-0.362913,1.55435,-3.2288,0.0399367,0.0320068,-0.0142618,0.00259935,146,331,-0.00127619,-0.0911521,86.5094,80.0082,86.4687,80.0779,6.97113e-05,6.75773e-05,0.000238101
-15.5289,15.3758,-297.455,0.000755256,0.00285777,0.00198655,-6.97602e-06,3.51542e-05,1.78757e-05,4.17166e-05,-1.35384e-05,1.21896,4.98833e-05,-0.325033,1.49636,-3.5303,0.0351746,0.036814,-0.0201103,0.00264112,153,331,-0.00101487,-0.0895762,87.4157,80.7668,87.3779,80.8366,6.95103e-05,6.88799e-05,0.000237381
-15.2463,15.3625,-297.459,0.000695331,0.00280001,0.00193911,-1.63626e-05,3.27439e-05,1.75234e-05,3.83557e-05,-2.19745e-05,1.26087,5.28856e-05,-0.312358,1.44042,-3.6387,0.0295119,0.0407034,-0.0250082,0.00252272,160,331,-0.00199199,-0.0878717,88.3516,81.5354,88.3159,81.6037,6.41487e-05,6.53098e-05,0.000220946
-14.9625,15.3489,-297.46,0.000699079,0.0027531,0.00211093,-3.0143e-05,2.97192e-05,1.98197e-05,3.56864e-05,-3.61103e-05,1.27835,6.21781e-05,-0.314822,1.43164,-3.46198,0.0230978,0.0433009,-0.0292126,0.00230494,167,331,-0.00318018,-0.0866643,89.344,82.3103,89.3069,82.3773,5.74209e-05,5.95815e-05,0.00019957
-14.6781,15.3355,-297.458,0.000765648,0.00275953,0.00244394,-4.79486e-05,2.72301e-05,2.40649e-05,3.42734e-05,-5.4992e-05,1.28607,7.79971e-05,-0.273466,1.44301,-3.18745,0.0150906,0.0432208,-0.0314182,0.00215941,174,331,-0.00418026,-0.0875345,90.3703,83.0748,90.329,83.1414,5.55058e-05,5.58204e-05,0.00019321
-14.3936,15.3221,-297.456,0.000814787,0.00276042,0.00275358,-6.69656e-05,2.49447e-05,2.89686e-05,3.33131e-05,-7.53341e-05,1.28957,9.64085e-05,-0.232543,1.44635,-2.85412,0.00488049,0.0398193,-0.0301126,0.00212099,181,331,-0.00538466,-0.0874797,91.3946,83.8375,91.3497,83.9044,5.58699e-05,5.36719e-05,0.000194459
-14.1088,15.3087,-297.453,0.000782816,0.00278447,0.00291181,-8.06472e-05,2.29623e-05,3.37288e-05,3.29748e-05,-9.06596e-05,1.28223,0.000110887,-0.22216,1.43078,-2.70667,-0.00596257,0.0338576,-0.0254189,0.00213702,188,331,-0.00739138,-0.0878233,92.4316,84.599,92.3863,84.6669,5.62176e-05,5.23035e-05,0.000195563
-13.8237,15.2954,-297.448,0.000715117,0.00279971,0.00295248,-8.40675e-05,2.09569e-05,3.67289e-05,3.25271e-05,-9.56376e-05,1.26562,0.000115392,-0.270114,1.4217,-2.67475,-0.0161211,0.025885,-0.017509,0.00217053,195,331,-0.00933235,-0.0880453,93.4793,85.3583,93.4356,85.4268,5.59118e-05,5.25762e-05,0.000194774
-13.5385,15.2821,-297.443,0.000641462,0.00282137,0.00285579,-8.10813e-05,1.85599e-05,3.65325e-05,3.05188e-05,-9.30402e-05,1.25444,0.000111478,-0.31697,1.4395,-2.77373,-0.0246708,0.0171472,-0.00904215,0.00222795,202,331,-0.0103436,-0.0886474,94.5262,86.1129,94.4852,86.182,5.50379e-05,5.51628e-05,0.000191698
-13.2537,15.2688,-297.438,0.00058637,0.00289219,0.00276041,-7.64162e-05,1.63156e-05,3.35407e-05,2.71754e-05,-8.7276e-05,1.25767,0.000103573,-0.347628,1.44607,-2.93882,-0.0299017,0.00921908,-0.00220233,0.00223172,209,331,-0.0109707,-0.0906595,95.5509,86.8644,95.512,86.9353,5.4094e-05,5.65882e-05,0.000187981
-12.9702,15.2554,-297.437,0.000528579,0.00293096,0.00270829,-7.27966e-05,1.35604e-05,2.8855e-05,2.23145e-05,-8.15507e-05,1.27624,9.47006e-05,-0.343592,1.47167,-3.05824,-0.0316454,0.00309495,0.0022225,0.00222484,216,331,-0.0119917,-0.0925908,96.5123,87.6233,96.4754,87.6944,5.39537e-05,5.74511e-05,0.00018666
-12.687,15.242,-297.437,0.000446306,0.00294419,0.0026451,-6.98149e-05,9.34305e-06,2.30477e-05,1.55646e-05,-7.60365e-05,1.30714,8.48957e-05,-0.361164,1.46558,-3.15718,-0.032777,-0.00113555,0.00410394,0.00219842,223,331,-0.0135116,-0.0941593,97.4552,88.386,97.421,88.4564,5.45398e-05,5.7281e-05,0.00018798
-12.4023,15.2285,-297.432,0.000393093,0.00296069,0.00253863,-6.45112e-05,4.71679e-06,1.67185e-05,8.54285e-06,-6.83373e-05,1.34582,7.29846e-05,-0.36838,1.49948,-3.14853,-0.0341216,-0.00352267,0.00504383,0.00219633,230,331,-0.0139653,-0.0951055,98.4701,89.1483,98.4382,89.2187,5.55619e-05,5.70228e-05,0.000191297
-12.1159,15.2147,-297.421,0.000390894,0.00292838,0.00263952,-5.59561e-05,8.73144e-07,1.01313e-05,2.62529e-06,-5.77083e-05,1.39955,5.90647e-05,-0.393086,1.55146,-2.99872,-0.0330268,-0.00454994,0.00545665,0.00224074,237,331,-0.0147142,-0.0940496,99.5712,89.9259,99.5386,89.9955,5.57789e-05,5.79939e-05,0.000192311
-11.8279,15.2008,-297.404,0.000456305,0.00286148,0.00284896,-4.64118e-05,-1.13885e-06,4.0305e-06,-7.82826e-07,-4.67678e-05,1.48269,4.63814e-05,-0.402355,1.60759,-2.8458,-0.0276257,-0.00409921,0.00392054,0.00232501,244,331,-0.0146102,-0.0927014,100.759,90.7013,100.723,90.7688,5.55179e-05,6.03279e-05,0.000191668
-11.5387,15.1868,-297.384,0.000558997,0.00278514,0.00291742,-3.80513e-05,-1.5371e-06,-9.5956e-07,-1.5119e-06,-3.80765e-05,-1.54454,3.73435e-05,-0.413736,1.62513,-2.80908,-0.0199655,-0.00221392,0.000306449,0.00234184,251,331,-0.0124671,-0.0911622,102.007,91.4863,101.967,91.5512,5.60141e-05,6.08031e-05,0.000193535
-11.249,15.1726,-297.361,0.00057809,0.00270275,0.00262938,-3.0899e-05,-9.79269e-08,-5.0472e-06,7.0804e-07,-3.1705e-05,-1.41245,3.20648e-05,-0.405603,1.60096,-2.83142,-0.0131761,7.24867e-06,-0.00217466,0.00234493,258,331,-0.00961356,-0.0895511,103.27,92.2795,103.232,92.3413,5.86744e-05,6.07511e-05,0.000202656
-10.9592,15.1583,-297.338,0.000536996,0.00262162,0.00237987,-2.5646e-05,3.63387e-06,-7.59589e-06,5.48712e-06,-2.74992e-05,-1.33149,3.06139e-05,-0.383495,1.56856,-2.84059,-0.00765401,0.00183319,-0.00203062,0.00235469,265,331,-0.00856258,-0.0880217,104.542,93.0752,104.507,93.134,6.19019e-05,6.0365e-05,0.000214073
-10.6706,15.1444,-297.317,0.000446969,0.00263859,0.00203881,-2.23546e-05,9.83082e-06,-7.88333e-06,1.1658e-05,-2.41818e-05,-1.34304,3.16635e-05,-0.350338,1.53987,-2.89134,-0.00285815,0.00317744,0.000436728,0.00240244,272,331,-0.00808826,-0.0869751,105.751,93.8521,105.722,93.9126,6.44703e-05,5.90842e-05,0.000223116
-10.3827,15.1305,-297.299,0.000413539,0.00271763,0.00200021,-2.15096e-05,1.85766e-05,-6.46564e-06,1.95937e-05,-2.25266e-05,-1.41477,3.65067e-05,-0.388628,1.51079,-2.88717,0.00334398,0.00466447,0.00420464,0.00242108,279,331,-0.00866492,-0.0890826,106.925,94.6203,106.896,94.683,6.49939e-05,5.95722e-05,0.000224728
-10.0941,15.1169,-297.277,0.000412202,0.00278637,0.00218322,-2.27597e-05,2.94986e-05,-4.78997e-06,2.9934e-05,-2.31951e-05,-1.48014,4.61344e-05,-0.407552,1.52827,-2.848,0.0103791,0.00666668,0.00888141,0.00239987,286,331,-0.0101462,-0.0911223,108.142,95.3781,108.112,95.4427,6.45894e-05,5.9861e-05,0.00022284
-9.80419,15.1026,-297.252,0.000421651,0.00280293,0.00225387,-2.23243e-05,4.10164e-05,-5.22617e-06,4.14447e-05,-2.27526e-05,-1.48902,5.63766e-05,-0.429643,1.52694,-2.7456,0.016726,0.00841343,0.0157493,0.00233109,293,331,-0.0104315,-0.0917845,109.421,96.1677,109.391,96.2325,6.25872e-05,5.88454e-05,0.000215624
-9.5131,15.0884,-297.221,0.000446904,0.00279088,0.00225453,-2.13399e-05,5.15921e-05,-7.26535e-06,5.23088e-05,-2.20566e-05,-1.47247,6.61548e-05,-0.426375,1.51017,-2.62142,0.0234003,0.00859691,0.0241832,0.00223587,300,331,-0.00975388,-0.0917138,110.765,96.9533,110.733,97.0176,5.93456e-05,5.61485e-05,0.000204602
-9.22161,15.0739,-297.189,0.000443586,0.00275501,0.00221836,-2.10637e-05,6.1437e-05,-8.45488e-06,6.22946e-05,-2.19213e-05,-1.46971,7.56752e-05,-0.440823,1.50699,-2.64723,0.0296912,0.00677627,0.0327504,0.00217425,307,331,-0.0094586,-0.0902326,112.13,97.7489,112.098,97.8126,5.81927e-05,5.4194e-05,0.000200523
-8.93234,15.0596,-297.164,0.000450291,0.00274062,0.00237499,-1.87424e-05,7.10723e-05,-9.67423e-06,7.21025e-05,-1.97727e-05,-1.4647,8.37579e-05,-0.445204,1.56732,-2.82873,0.0329985,0.00233933,0.0394641,0.0022028,314,331,-0.0104218,-0.08986,113.38,98.5397,113.347,98.6031,5.93242e-05,5.35259e-05,0.000204229
-8.6447,15.0457,-297.143,0.000437063,0.00273767,0.00234975,-1.506e-05,7.98648e-05,-1.2239e-05,8.14174e-05,-1.66126e-05,-1.44461,9.08698e-05,-0.43052,1.62715,-2.92738,0.0326717,-0.00388514,0.0424828,0.00225643,321,331,-0.0105196,-0.0904151,114.544,99.3123,114.512,99.375,6.0584e-05,5.43039e-05,0.000208544
-8.35771,15.0318,-297.124,0.000427062,0.00273771,0.00215913,-1.37705e-05,8.64063e-05,-1.548e-05,8.87438e-05,-1.61081e-05,-1.42093,9.77979e-05,-0.412703,1.64171,-3.01873,0.0313527,-0.0111524,0.0411149,0.00227542,328,331,-0.00928735,-0.0910277,115.673,100.082,115.642,100.144,6.10599e-05,5.4939e-05,0.000210561
-8.07001,15.0177,-297.102,0.000437917,0.00270523,0.00186889,-1.63793e-05,8.83756e-05,-1.78532e-05,9.13347e-05,-1.93384e-05,-1.40654,0.000102383,-0.359011,1.59352,-3.00269,0.0304939,-0.017879,0.0344914,0.00230116,335,331,-0.00674428,-0.0904012,116.839,100.863,116.811,100.924,6.17225e-05,5.61685e-05,0.000213059
-7.78178,15.0037,-297.078,0.000476236,0.0026647,0.00179356,-1.96486e-05,8.46054e-05,-1.66209e-05,8.71911e-05,-2.22343e-05,-1.41646,0.000100176,-0.338299,1.55524,-3.02072,0.0295408,-0.0232589,0.0238631,0.00233389,342,331,-0.00514642,-0.0898152,118.037,101.637,118.009,101.696,6.23207e-05,5.73095e-05,0.000215069
-7.49234,14.9895,-297.049,0.000532508,0.00261944,0.00185015,-2.05433e-05,7.689e-05,-1.14785e-05,7.8224e-05,-2.18773e-05,-1.4551,9.11534e-05,-0.311322,1.57238,-3.16805,0.0285546,-0.0270337,0.0123331,0.00234964,349,331,-0.00407939,-0.0886255,119.302,102.422,119.271,102.479,6.24956e-05,5.84711e-05,0.000215604
-7.20037,14.9745,-297.012,0.000517915,0.00259871,0.00193497,-1.94836e-05,6.80096e-05,-4.47069e-06,6.82375e-05,-1.97114e-05,-1.51988,7.99372e-05,-0.29656,1.57302,-3.31128,0.0276107,-0.0282269,0.00124692,0.00233762,356,331,-0.00503229,-0.0888174,120.7,103.238,120.669,103.294,6.24682e-05,5.87692e-05,0.000215366
-6.90393,14.9594,-296.959,0.000447401,0.0026494,0.00192773,-1.83289e-05,5.83499e-05,3.09396e-06,5.84745e-05,-1.84535e-05,1.53053,6.95619e-05,-0.275353,1.5813,-3.36521,0.0263658,-0.0260418,-0.0101851,0.00231041,363,331,-0.00673848,-0.0896229,122.339,104.056,122.309,104.115,6.17945e-05,5.7888e-05,0.000212893
-6.60623,14.9439,-296.901,0.000415144,0.00270349,0.00198366,-1.55732e-05,4.6832e-05,1.03851e-05,4.85148e-05,-1.7256e-05,1.41015,5.90646e-05,-0.295295,1.57106,-3.31002,0.0237593,-0.0197469,-0.0209331,0.00224924,370,331,-0.00795929,-0.0901424,124.049,104.892,124.021,104.953,5.96325e-05,5.70941e-05,0.000205847
-6.31087,14.9291,-296.849,0.000371422,0.00274428,0.00208184,-1.05575e-05,3.41323e-05,1.68729e-05,3.97872e-05,-1.62124e-05,1.24741,4.9909e-05,-0.356176,1.54796,-3.16797,0.0198855,-0.0105727,-0.0280736,0.00228488,377,331,-0.00977825,-0.0908718,125.64,105.693,125.611,105.756,6.01966e-05,5.84388e-05,0.000207991
-6.02166,14.9157,-296.819,0.000375946,0.00276503,0.00221687,-4.90788e-06,2.22695e-05,2.29024e-05,3.53111e-05,-1.79495e-05,1.05315,4.69348e-05,-0.366285,1.52802,-2.90082,0.0145066,-0.000621858,-0.0305348,0.00226195,384,331,-0.0106358,-0.0908819,126.906,106.426,126.876,106.49,5.88508e-05,5.72431e-05,0.000203802
-5.73907,14.9025,-296.809,0.000359061,0.00274581,0.00223232,1.87734e-07,1.22145e-05,2.84651e-05,3.52944e-05,-2.28922e-05,0.889495,5.07712e-05,-0.324072,1.48015,-2.70002,0.00880243,0.00976664,-0.0289667,0.00224698,391,331,-0.011127,-0.0913695,127.812,107.159,127.782,107.221,5.80358e-05,5.49958e-05,0.000201134
-5.45742,14.8893,-296.803,0.000381983,0.00277642,0.00216741,2.55144e-06,4.8539e-06,3.36988e-05,3.74211e-05,-3.00158e-05,0.802473,5.85193e-05,-0.268364,1.43252,-2.59975,0.00236767,0.0202837,-0.0258621,0.00224108,398,331,-0.0100775,-0.0928801,128.668,107.89,128.638,107.952,5.82359e-05,5.38638e-05,0.000201765
-5.17235,14.8758,-296.784,0.000435564,0.00276762,0.00208197,4.23319e-06,-8.21376e-07,3.63067e-05,3.81004e-05,-3.46886e-05,0.75065,6.30602e-05,-0.225432,1.40876,-2.69263,-0.00627744,0.0316712,-0.0222579,0.00227852,405,331,-0.00808618,-0.0941519,129.71,108.638,129.68,108.698,5.92467e-05,5.44122e-05,0.000205102
-4.88388,14.8612,-296.753,0.000498346,0.00276583,0.00201217,8.23977e-06,-5.72337e-06,3.44011e-05,3.63606e-05,-3.38442e-05,0.685285,6.08121e-05,-0.249635,1.43997,-2.84828,-0.0159835,0.0422138,-0.0177425,0.00235649,412,331,-0.00599408,-0.0957953,130.938,109.435,130.906,109.494,6.10963e-05,5.5077e-05,0.000211489
-4.59392,14.8467,-296.717,0.000503236,0.00281867,0.00181744,1.02697e-05,-1.00376e-05,2.94968e-05,3.13115e-05,-3.10794e-05,0.619636,5.40322e-05,-0.272314,1.52639,-2.94979,-0.0237755,0.0501503,-0.0133806,0.00237327,419,331,-0.00444431,-0.0966382,132.248,110.225,132.218,110.286,6.24037e-05,5.48835e-05,0.00021585
-4.30345,14.8321,-296.678,0.000476326,0.00285378,0.0017367,7.94499e-06,-1.30371e-05,2.31589e-05,2.28783e-05,-2.79704e-05,0.572724,4.41098e-05,-0.310435,1.61169,-2.99313,-0.0267611,0.054607,-0.00940096,0.00232824,426,331,-0.0044836,-0.0957703,133.589,111.013,133.56,111.077,6.19513e-05,5.47129e-05,0.000214094
-4.01264,14.8179,-296.638,0.000469159,0.00283973,0.00174616,4.25912e-06,-1.30477e-05,1.47656e-05,1.27201e-05,-2.15087e-05,0.520347,2.9967e-05,-0.348153,1.65737,-3.08574,-0.0258386,0.0559269,-0.00574035,0.00227529,433,331,-0.00465217,-0.0943344,134.954,111.782,134.925,111.847,6.06405e-05,5.5488e-05,0.000209435
-3.72006,14.8035,-296.59,0.000438551,0.00284603,0.00181715,2.59706e-06,-1.10139e-05,4.98421e-06,4.22704e-06,-1.26439e-05,0.316065,1.52046e-05,-0.374708,1.65009,-3.03662,-0.024446,0.0533399,-0.00273068,0.00229864,440,331,-0.00586991,-0.0930058,136.42,112.563,136.391,112.628,6.12528e-05,5.61231e-05,0.000211543
-3.42499,14.7882,-296.533,0.000406809,0.0028441,0.00186237,1.16518e-06,-9.43269e-06,-5.74988e-06,3.68545e-06,-1.1953e-05,-0.413095,1.41601e-05,-0.377347,1.63429,-2.87183,-0.0231513,0.0475634,-0.000498362,0.0023324,447,331,-0.00692738,-0.0918568,138.027,113.383,137.998,113.449,6.18768e-05,5.60627e-05,0.000213869
-3.12955,14.7735,-296.474,0.000411119,0.00286511,0.00177999,-4.435e-06,-1.05635e-05,-1.4948e-05,7.75962e-06,-2.27582e-05,-0.684301,2.74725e-05,-0.429167,1.58758,-2.73881,-0.0202142,0.0405995,3.08514e-05,0.00233061,454,331,-0.00618715,-0.0916464,139.661,114.17,139.632,114.238,6.1261e-05,5.36632e-05,0.000211921
-2.83449,14.7581,-296.416,0.000431377,0.00285318,0.00181338,-1.31002e-05,-1.48119e-05,-2.01532e-05,6.21526e-06,-3.41274e-05,-0.764178,3.76221e-05,-0.469965,1.54378,-2.70254,-0.0144486,0.0325072,-0.000748087,0.00231583,461,331,-0.00590892,-0.0930842,141.278,114.999,141.249,115.065,6.11746e-05,5.28627e-05,0.000211444
-2.54195,14.7429,-296.366,0.000466445,0.00282657,0.00182515,-1.98044e-05,-2.02256e-05,-2.20638e-05,2.04979e-06,-4.20797e-05,-0.780626,4.31412e-05,-0.474799,1.52752,-2.70186,-0.00684275,0.0253879,-0.00124464,0.00233478,468,331,-0.00507095,-0.0935996,142.76,115.819,142.73,115.884,6.20614e-05,5.36324e-05,0.000214264
-2.25161,14.7283,-296.322,0.000463736,0.00279495,0.00174285,-2.26331e-05,-2.45906e-05,-2.21269e-05,-1.46337e-06,-4.57603e-05,-0.763297,4.50465e-05,-0.435941,1.51828,-2.64673,0.00127786,0.0201291,-0.000506305,0.00236799,475,331,-0.00449834,-0.093929,144.123,116.61,144.094,116.673,6.30863e-05,5.43971e-05,0.000217689
-1.96254,14.7139,-296.283,0.000425385,0.00277766,0.00165298,-2.38159e-05,-2.82755e-05,-2.14481e-05,-4.482e-06,-4.76094e-05,-0.733604,4.55342e-05,-0.351306,1.54066,-2.65268,0.00831002,0.0174269,-0.000631138,0.0024431,482,331,-0.00476009,-0.0934494,145.417,117.392,145.39,117.454,6.5158e-05,5.60486e-05,0.000224632
-1.67275,14.6995,-296.24,0.000392226,0.00273722,0.00165325,-2.32709e-05,-3.21406e-05,-2.11015e-05,-6.14322e-06,-4.92682e-05,-0.681822,4.6502e-05,-0.266818,1.59042,-2.82609,0.0136979,0.0175141,-0.00316224,0.00254046,489,331,-0.00551598,-0.0924181,146.757,118.172,146.731,118.232,6.78625e-05,5.74885e-05,0.000233763
-1.38169,14.685,-296.192,0.000383874,0.00272552,0.00173225,-1.99677e-05,-3.5485e-05,-2.02925e-05,-6.00117e-06,-4.94515e-05,-0.602803,4.67407e-05,-0.272545,1.60984,-2.93422,0.0178931,0.0188511,-0.00723102,0.00263297,496,331,-0.0062292,-0.0916082,148.175,118.948,148.148,119.008,7.01675e-05,5.87225e-05,0.000241626
-1.08884,14.6705,-296.136,0.000385777,0.00270614,0.0017834,-1.44435e-05,-3.82128e-05,-1.77169e-05,-4.9943e-06,-4.7662e-05,-0.489966,4.53715e-05,-0.346499,1.58895,-3.01346,0.0192374,0.0205302,-0.0110881,0.00267272,503,331,-0.00647767,-0.0907428,149.7,119.729,149.673,119.789,7.09358e-05,5.83752e-05,0.000244346
-0.79392,14.6555,-296.073,0.000349625,0.00273463,0.00174757,-6.31388e-06,-3.92447e-05,-1.19721e-05,-2.42145e-06,-4.31371e-05,-0.314344,4.19788e-05,-0.401818,1.537,-3.02153,0.0171389,0.022262,-0.0137254,0.00264023,510,331,-0.00709538,-0.0900643,151.346,120.528,151.32,120.591,6.98804e-05,5.7457e-05,0.000240465
-0.497366,14.6401,-296.003,0.000282669,0.0027872,0.00166948,4.70203e-06,-3.89673e-05,-4.87968e-06,5.24065e-06,-3.95059e-05,-0.109935,4.237e-05,-0.418595,1.45682,-2.91256,0.0128366,0.0246024,-0.0170517,0.00254335,517,331,-0.00824582,-0.0910354,153.091,121.347,153.067,121.412,6.71659e-05,5.54641e-05,0.000230784
-0.199036,14.6247,-295.925,0.000239912,0.00285455,0.00160443,1.78888e-05,-3.85876e-05,2.55209e-06,1.80039e-05,-3.87027e-05,0.045066,5.01881e-05,-0.353879,1.38194,-2.88443,0.00623554,0.028472,-0.0216586,0.00246804,524,331,-0.00890532,-0.0926866,154.946,122.162,154.924,122.229,6.54842e-05,5.45086e-05,0.000224873
0.0995163,14.6092,-295.846,0.000271381,0.00286279,0.00172772,3.42032e-05,-3.75062e-05,1.01599e-05,3.56149e-05,-3.89179e-05,0.138062,6.45684e-05,-0.272565,1.3561,-2.98956,-0.000998348,0.0326267,-0.025602,0.00244045,531,331,-0.00896985,-0.0935123,156.826,122.983,156.801,123.049,6.51143e-05,5.47368e-05,0.000223424
0.398196,14.5938,-295.766,0.000349061,0.00281268,0.0018933,5.14673e-05,-3.73925e-05,2.04797e-05,5.59602e-05,-4.18853e-05,0.215959,8.50284e-05,-0.225662,1.36143,-3.05778,-0.0110856,0.037053,-0.0276586,0.00248132,538,331,-0.00809106,-0.0928184,158.723,123.805,158.695,123.869,6.6009e-05,5.70204e-05,0.000226612
0.696857,14.5781,-295.684,0.00039664,0.00276331,0.00190774,6.82301e-05,-3.80148e-05,3.43133e-05,7.83484e-05,-4.81331e-05,0.286754,0.000110573,-0.180927,1.3699,-2.97326,-0.0235762,0.0420452,-0.0256087,0.00252663,545,331,-0.00690399,-0.092033,160.626,124.637,160.596,124.699,6.73013e-05,5.83817e-05,0.000230941
0.995284,14.5623,-295.602,0.000429262,0.002742,0.00193981,8.51649e-05,-3.96538e-05,5.28755e-05,0.000104553,-5.90414e-05,0.351444,0.000143492,-0.133636,1.37529,-2.92679,-0.0415237,0.0471194,-0.0185055,0.00253053,552,331,-0.00623669,-0.0914788,162.523,125.471,162.493,125.533,6.73888e-05,5.91197e-05,0.000231195
1.29364,14.5466,-295.52,0.000455745,0.00278085,0.00187016,9.88815e-05,-4.5308e-05,7.88171e-05,0.000133603,-8.00299e-05,0.414957,0.000186941,-0.148515,1.41298,-2.85081,-0.0686155,0.0508655,-0.00653875,0.0024997,559,331,-0.00506794,-0.0919969,164.425,126.304,164.394,126.367,6.6864e-05,5.89089e-05,0.000228649
1.59082,14.5311,-295.441,0.0005033,0.00286913,0.0019085,0.000102449,-5.71147e-05,0.000116242,0.000163654,-0.00011832,0.484648,0.000245247,-0.225837,1.4639,-2.95704,-0.105206,0.0523791,0.00830813,0.00247525,566,331,-0.00416155,-0.0933347,166.269,127.119,166.237,127.186,6.6364e-05,5.85093e-05,0.000225957
1.8855,14.5159,-295.37,0.000546515,0.00290882,0.00183273,9.8967e-05,-7.50387e-05,0.000167559,0.000200765,-0.000176836,0.545939,0.000327231,-0.309979,1.46581,-3.00509,-0.145976,0.0509914,0.0240818,0.00253096,573,331,-0.00254646,-0.0947135,167.975,127.928,167.942,127.996,6.82011e-05,6.0448e-05,0.00023151
0,0,0,0,0,0,0,0,0,0,0,0,0,0,0,0,0,0,0,-1,580,331,0,0,0,0,0,0,0,0,0
0,0,0,0,0,0,0,0,0,0,0,0,0,0,0,0,0,0,0,-1,587,331,0,0,0,0,0,0,0,0,0
0,0,0,0,0,0,0,0,0,0,0,0,0,0,0,0,0,0,0,-1,594,331,0,0,0,0,0,0,0,0,0
0,0,0,0,0,0,0,0,0,0,0,0,0,0,0,0,0,0,0,-1,601,331,0,0,0,0,0,0,0,0,0
0,0,0,0,0,0,0,0,0,0,0,0,0,0,0,0,0,0,0,-1,62,338,0,0,0,0,0,0,0,0,0
0,0,0,0,0,0,0,0,0,0,0,0,0,0,0,0,0,0,0,-1,69,338,0,0,0,0,0,0,0,0,0
0,0,0,0,0,0,0,0,0,0,0,0,0,0,0,0,0,0,0,-1,76,338,0,0,0,0,0,0,0,0,0
-18.3279,15.2327,-297.277,0.000607574,0.00276765,0.000969369,-8.18624e-05,-3.9274e-05,3.24022e-05,-2.17952e-05,-9.93412e-05,1.0761,9.04353e-05,-0.407521,1.53704,-2.9986,0.103246,0.0158967,-0.0467007,0.00254784,83,338,0.00338641,-0.0883195,79.0839,74.1999,79.0577,74.2659,6.70438e-05,6.42019e-05,0.000236504
-18.056,15.2205,-297.316,0.000646169,0.00277954,0.00108362,-5.9518e-05,-2.78421e-05,4.37566e-05,2.85467e-06,-9.02147e-05,0.959041,9.16754e-05,-0.369274,1.57145,-3.24546,0.0753249,0.00981573,-0.0189041,0.00256197,90,338,0.0034735,-0.0855252,79.5412,74.9226,79.513,74.9917,6.74678e-05,6.38377e-05,0.00023909
-17.7821,15.2081,-297.349,0.000649812,0.0027449,0.00130196,-3.30324e-05,-1.60946e-05,4.88511e-05,2.50162e-05,-7.41433e-05,0.871226,8.93187e-05,-0.338592,1.57391,-3.48267,0.0574528,0.00902483,-0.000472683,0.00258309,97,338,0.00187185,-0.082959,80.0885,75.653,80.0586,75.7226,6.82703e-05,6.31297e-05,0.000242282
-17.5067,15.1958,-297.377,0.000631404,0.00269637,0.00155055,-1.12902e-05,-5.73128e-06,4.97254e-05,4.12922e-05,-5.83137e-05,0.813317,8.66801e-05,-0.343635,1.58253,-3.60789,0.0470844,0.0112757,0.00837557,0.0025839,104,338,-0.000540503,-0.0820442,80.7094,76.3823,80.6783,76.4503,6.86002e-05,6.20119e-05,0.000242112
-17.2295,15.1834,-297.399,0.000588986,0.00268133,0.00178155,3.1135e-06,2.2715e-06,4.67861e-05,4.94805e-05,-4.40955e-05,0.780899,8.10839e-05,-0.358938,1.59363,-3.51782,0.0419764,0.0147349,0.0104913,0.00256825,111,338,-0.00346184,-0.0835422,81.4055,77.1118,81.3741,77.1778,6.85634e-05,6.14646e-05,0.00023971
-16.9511,15.1706,-297.418,0.000582542,0.00271714,0.00194702,1.197e-05,7.89487e-06,4.14352e-05,5.14177e-05,-3.15528e-05,0.76083,7.25377e-05,-0.391898,1.61434,-3.04746,0.0404986,0.0183342,0.00859745,0.00250963,118,338,-0.00499829,-0.0857062,82.1601,77.8523,82.1278,77.9183,6.73086e-05,6.11989e-05,0.000233362
-16.6716,15.1578,-297.434,0.000631403,0.00282607,0.00205562,1.68416e-05,1.18859e-05,3.52548e-05,4.97056e-05,-2.09781e-05,0.750314,6.28764e-05,-0.416069,1.62533,-2.50997,0.0426098,0.021858,0.00408429,0.00243309,125,338,-0.00477596,-0.0892146,82.9615,78.5945,82.9269,78.6631,6.56798e-05,6.21756e-05,0.000226163
-16.3913,15.1449,-297.446,0.000743126,0.00290179,0.002053,1.6239e-05,1.50453e-05,2.97666e-05,4.54148e-05,-1.41304e-05,0.775374,5.38879e-05,-0.393618,1.61659,-2.26966,0.046122,0.0253284,-0.0023642,0.00254766,132,338,-0.00204209,-0.0909849,83.8026,79.3402,83.7647,79.411,6.84571e-05,6.57248e-05,0.000234648
-16.1099,15.1319,-297.455,0.000797008,0.00290241,0.00212199,1.08985e-05,1.82219e-05,2.62084e-05,4.10231e-05,-1.19027e-05,0.854806,4.80922e-05,-0.353981,1.59945,-2.71418,0.046428,0.0282802,-0.00819611,0.00275332,139,338,-0.00122177,-0.0906912,84.6932,80.0922,84.6533,80.1634,7.30305e-05,7.23059e-05,0.000247952
-15.8286,15.1187,-297.464,0.000807508,0.00286546,0.00201359,3.04266e-06,2.04838e-05,2.26298e-05,3.60152e-05,-1.24887e-05,0.969308,4.36217e-05,-0.323771,1.49745,-3.08689,0.0440282,0.0306825,-0.0135306,0.00279102,146,338,1.26041e-05,-0.0893569,85.5726,80.8496,85.5331,80.9199,7.22399e-05,7.26203e-05,0.000245927
-15.5467,15.1056,-297.471,0.000765293,0.0028492,0.00180178,-5.88514e-06,2.11214e-05,2.0547e-05,3.22051e-05,-1.69688e-05,1.0761,4.32619e-05,-0.297049,1.44018,-3.52435,0.0390417,0.0325591,-0.0182905,0.00281117,153,338,0.000784079,-0.0873288,86.4707,81.6049,86.4338,81.6761,7.08207e-05,7.29549e-05,0.00024152
-15.2647,15.0923,-297.478,0.000686242,0.0027952,0.00176619,-1.68036e-05,2.04598e-05,2.09146e-05,2.98381e-05,-2.61819e-05,1.14927,4.85492e-05,-0.284704,1.4046,-3.66996,0.0326489,0.0339675,-0.021995,0.0026464,160,338,-0.00075041,-0.0849974,87.3758,82.3676,87.3414,82.438,6.4858e-05,6.79324e-05,0.000223363
-14.9816,15.0788,-297.481,0.000664581,0.0027485,0.00210205,-3.18466e-05,1.94562e-05,2.32335e-05,2.84139e-05,-4.08043e-05,1.20281,6.0264e-05,-0.309501,1.42689,-3.44163,0.0251289,0.0347051,-0.0247234,0.0024093,167,338,-0.00388623,-0.0838879,88.3333,83.1373,88.2972,83.2065,5.89432e-05,6.19642e-05,0.000204753
-14.6974,15.0655,-297.48,0.00072092,0.00277802,0.00241033,-5.00802e-05,1.885e-05,2.68958e-05,2.81025e-05,-5.93327e-05,1.23947,7.73144e-05,-0.270936,1.4767,-3.1365,0.015815,0.0336981,-0.0254489,0.00225702,174,338,-0.00497399,-0.0856692,89.3464,83.8951,89.3065,83.9643,5.71785e-05,5.82866e-05,0.000199186
-14.4132,15.0522,-297.479,0.000755869,0.00278601,0.00263573,-6.86107e-05,1.82346e-05,3.07874e-05,2.80416e-05,-7.84177e-05,1.26242,9.55752e-05,-0.228101,1.50644,-2.83395,0.00444109,0.0306123,-0.0230256,0.00219848,181,338,-0.00588586,-0.0867178,90.3594,84.6548,90.3168,84.7235,5.79795e-05,5.65084e-05,0.000201831
-14.1286,15.0389,-297.476,0.000740151,0.00281749,0.00274915,-8.17297e-05,1.76938e-05,3.4154e-05,2.82958e-05,-9.23318e-05,1.26981,0.000109263,-0.208443,1.47603,-2.73284,-0.00716479,0.0260938,-0.0177243,0.00220962,188,338,-0.00716025,-0.0878646,91.3818,85.4121,91.3389,85.4815,5.83757e-05,5.45825e-05,0.00020298
-13.8437,15.0256,-297.472,0.000678933,0.00284582,0.00276939,-8.51732e-05,1.71484e-05,3.58125e-05,2.84373e-05,-9.64621e-05,1.26543,0.000113388,-0.264338,1.46458,-2.78052,-0.0177575,0.020518,-0.00994409,0.00221796,195,338,-0.00880868,-0.0889222,92.4166,86.1675,92.3752,86.2374,5.74492e-05,5.41387e-05,0.000199781
-13.5587,15.0123,-297.467,0.000617006,0.00287551,0.00273737,-8.2542e-05,1.6375e-05,3.4525e-05,2.72333e-05,-9.34003e-05,1.26608,0.000109585,-0.322589,1.46662,-2.84707,-0.0264055,0.014761,-0.00216976,0.00223687,202,338,-0.0100602,-0.0899224,93.4584,86.9175,93.4188,86.9881,5.61719e-05,5.53912e-05,0.000195176
-13.2735,14.9991,-297.462,0.000559564,0.00292203,0.00267166,-7.7936e-05,1.5216e-05,3.06299e-05,2.43851e-05,-8.7105e-05,1.27994,0.000101518,-0.367404,1.47334,-2.93696,-0.0313831,0.00976563,0.00343791,0.00223465,209,338,-0.0109507,-0.0911272,94.5023,87.668,94.4647,87.7398,5.47744e-05,5.68669e-05,0.000189897
-12.989,14.9857,-297.458,0.000515417,0.00294922,0.00267567,-7.34208e-05,1.27546e-05,2.51151e-05,1.95399e-05,-8.02061e-05,1.30693,9.15535e-05,-0.353772,1.50951,-2.96064,-0.0323221,0.00617555,0.00632671,0.00225163,216,338,-0.0120443,-0.0918108,95.5113,88.4214,95.4748,88.494,5.42127e-05,5.8357e-05,0.000187244
-12.7045,14.9724,-297.454,0.000445192,0.00294375,0.00267371,-6.8861e-05,8.29867e-06,1.83751e-05,1.24511e-05,-7.30135e-05,1.34855,7.99693e-05,-0.356458,1.50733,-3.0024,-0.0322812,0.00381978,0.00682878,0.00223583,223,338,-0.013723,-0.0926982,96.5176,89.1772,96.4832,89.2488,5.4018e-05,5.81808e-05,0.000186048
-12.4192,14.9589,-297.447,0.00042551,0.00290197,0.00271505,-6.183e-05,2.70926e-06,1.09483e-05,4.51594e-06,-6.36367e-05,1.40725,6.60106e-05,-0.350254,1.52771,-3.06571,-0.0323389,0.00252447,0.00640109,0.00219772,230,338,-0.0144691,-0.093315,97.5653,89.9412,97.5312,90.0101,5.40493e-05,5.6941e-05,0.000186395
-12.1324,14.945,-297.435,0.000422408,0.00284349,0.0028545,-5.19306e-05,-2.4641e-06,3.0236e-06,-2.27997e-06,-5.21147e-05,1.50997,5.10129e-05,-0.349142,1.55577,-2.99303,-0.0301355,0.00201215,0.00558187,0.00211485,237,338,-0.0155369,-0.0927727,98.6875,90.7236,98.6525,90.79,5.27301e-05,5.46607e-05,0.000182586
-11.844,14.9312,-297.417,0.000461854,0.00282898,0.0029696,-4.15358e-05,-6.20787e-06,-4.40111e-06,-5.66784e-06,-4.20758e-05,-1.4487,3.95477e-05,-0.352952,1.59208,-2.91211,-0.024443,0.00233461,0.00311633,0.00214987,244,338,-0.0153777,-0.0921172,99.8947,91.4988,99.8578,91.565,5.2802e-05,5.56054e-05,0.000183081
-11.5547,14.9171,-297.396,0.000524155,0.00276666,0.00286477,-3.23753e-05,-8.4525e-06,-1.06312e-05,-4.41089e-06,-3.6417e-05,-1.2075,3.44241e-05,-0.381519,1.58486,-2.89251,-0.0173316,0.00353168,-0.00110282,0.00227556,251,338,-0.0128921,-0.0907079,101.144,92.2847,101.106,92.3488,5.59753e-05,5.88609e-05,0.000193719
-11.2655,14.903,-297.375,0.000525471,0.00269632,0.00250146,-2.43565e-05,-8.80069e-06,-1.58138e-05,1.04445e-06,-3.42016e-05,-1.01395,3.47356e-05,-0.364298,1.5725,-2.82122,-0.0114751,0.00508916,-0.00433499,0.00237422,258,338,-0.00989935,-0.089009,102.383,93.0697,102.348,93.1315,6.10836e-05,6.09199e-05,0.000210889
-10.976,14.889,-297.352,0.000482703,0.00262737,0.00230435,-1.81652e-05,-6.90332e-06,-1.9472e-05,7.73553e-06,-3.28041e-05,-0.92615,3.72787e-05,-0.352658,1.52319,-2.75157,-0.00682266,0.0067401,-0.00516288,0.00246683,265,338,-0.00930682,-0.0875483,103.642,93.8557,103.609,93.9152,6.57675e-05,6.19347e-05,0.000226999
-10.6866,14.8751,-297.329,0.000434786,0.00263202,0.00203752,-1.41616e-05,-2.40802e-06,-2.09829e-05,1.35055e-05,-3.00752e-05,-0.921938,3.86406e-05,-0.359213,1.48787,-2.78346,-0.00311086,0.00828064,-0.00376226,0.00253764,272,338,-0.00836163,-0.0866089,104.888,94.628,104.859,94.6884,6.82506e-05,6.13238e-05,0.000235655
-10.3971,14.8613,-297.306,0.000415538,0.00268247,0.00192087,-1.29912e-05,4.79124e-06,-2.05971e-05,1.83343e-05,-2.65342e-05,-0.989153,3.9073e-05,-0.416938,1.45363,-2.75615,0.00104112,0.00993804,-0.000823542,0.00246812,279,338,-0.0079582,-0.0882119,106.149,95.3927,106.121,95.4542,6.62503e-05,6.09148e-05,0.00022894
-10.1078,14.8477,-297.282,0.000435517,0.00275472,0.00208512,-1.47357e-05,1.43702e-05,-1.93314e-05,2.40141e-05,-2.43796e-05,-1.10805,4.19106e-05,-0.438555,1.48405,-2.68453,0.00487835,0.0115921,0.00345726,0.00235656,286,338,-0.00876546,-0.090065,107.399,96.1458,107.369,96.2095,6.32235e-05,6.01179e-05,0.000218406
-9.81751,14.8335,-297.255,0.000458076,0.00276276,0.00218052,-1.58565e-05,2.49467e-05,-1.93214e-05,3.26439e-05,-2.35537e-05,-1.19169,4.88803e-05,-0.46138,1.48925,-2.56961,0.00796992,0.0126117,0.0101074,0.00225764,293,338,-0.00891285,-0.0907327,108.7,96.9319,108.669,96.9954,6.01355e-05,5.8508e-05,0.000207467
-9.52529,14.8193,-297.221,0.000484269,0.00273575,0.00222953,-1.67838e-05,3.49306e-05,-2.03606e-05,4.19846e-05,-2.38378e-05,-1.23728,5.77215e-05,-0.456089,1.46935,-2.47085,0.0129215,0.0124271,0.0184619,0.00218265,300,338,-0.00857625,-0.0906999,110.103,97.7181,110.071,97.7803,5.72501e-05,5.56372e-05,0.000197446
-9.23236,14.8048,-297.185,0.000500426,0.00271329,0.00231151,-1.86289e-05,4.42625e-05,-2.05071e-05,5.03584e-05,-2.47248e-05,-1.28186,6.6275e-05,-0.481985,1.45963,-2.60194,0.0194652,0.0108262,0.0272529,0.00213736,307,338,-0.00872022,-0.089783,111.545,98.513,111.511,98.5749,5.69506e-05,5.36819e-05,0.000196255
-8.94141,14.7904,-297.154,0.000502964,0.0026934,0.00241673,-1.88e-05,5.34311e-05,-2.03203e-05,5.87553e-05,-2.41241e-05,-1.31455,7.38348e-05,-0.477603,1.51536,-2.78965,0.0244995,0.00729346,0.0348161,0.00215705,314,338,-0.00937949,-0.0889494,112.883,99.3085,112.848,99.3702,5.79365e-05,5.30785e-05,0.000199642
-8.65189,14.7762,-297.127,0.000481945,0.00267958,0.00233898,-1.79112e-05,6.18244e-05,-2.08645e-05,6.6954e-05,-2.30408e-05,-1.32972,8.09716e-05,-0.449318,1.5746,-2.84857,0.0267861,0.00213731,0.0391358,0.00217896,321,338,-0.00925137,-0.0889278,114.146,100.092,114.112,100.153,5.84767e-05,5.33282e-05,0.000201822
-8.36328,14.7621,-297.103,0.000458708,0.00266832,0.0021434,-1.90894e-05,6.79124e-05,-2.17475e-05,7.30456e-05,-2.42227e-05,-1.339,8.77027e-05,-0.41835,1.58217,-2.8663,0.028721,-0.00412571,0.0392547,0.00219509,328,338,-0.0083025,-0.0894572,115.36,100.874,115.329,100.934,5.87291e-05,5.37527e-05,0.000203042
-8.07404,14.748,-297.076,0.000460622,0.00267254,0.00185226,-2.28717e-05,6.97823e-05,-2.19455e-05,7.47173e-05,-2.78067e-05,-1.3496,9.18343e-05,-0.379369,1.53879,-2.93173,0.0312572,-0.0102455,0.0343715,0.00223801,335,338,-0.00602804,-0.0903016,116.609,101.655,116.58,101.714,5.96227e-05,5.56684e-05,0.000206085
-7.78475,14.734,-297.048,0.000483121,0.00269144,0.00171319,-2.6257e-05,6.64579e-05,-1.94976e-05,7.03913e-05,-3.01904e-05,-1.37173,8.93953e-05,-0.367147,1.52475,-3.05386,0.0332091,-0.015706,0.0255339,0.00229577,342,338,-0.00440458,-0.091045,117.863,102.425,117.835,102.484,6.11041e-05,5.7392e-05,0.000210836
-7.49471,14.7197,-297.017,0.000530364,0.00267721,0.00179065,-2.68683e-05,5.99516e-05,-1.43107e-05,6.22497e-05,-2.91663e-05,-1.41157,8.08783e-05,-0.327319,1.56249,-3.24551,0.0343685,-0.0202259,0.0155421,0.00233258,349,338,-0.00375818,-0.0907611,119.161,103.211,119.13,103.27,6.2144e-05,5.89534e-05,0.000214088
-7.2031,14.7048,-296.981,0.000498345,0.00265924,0.00181686,-2.55312e-05,5.2589e-05,-7.97788e-06,5.33954e-05,-2.63376e-05,-1.47006,7.03636e-05,-0.287413,1.57787,-3.30584,0.0351313,-0.0228776,0.00550052,0.00234453,356,338,-0.0047118,-0.0911254,120.54,104.026,120.511,104.084,6.27745e-05,5.8689e-05,0.000216054
-6.90693,14.6898,-296.928,0.00043531,0.00265019,0.00183385,-2.45702e-05,4.48765e-05,-1.29351e-06,4.49006e-05,-2.45943e-05,-1.55218,6.10348e-05,-0.244431,1.60106,-3.31317,0.0351609,-0.0228996,-0.00532792,0.00232727,363,338,-0.00637029,-0.0913023,122.166,104.841,122.138,104.898,6.22227e-05,5.76428e-05,0.000214127
-6.60941,14.6747,-296.871,0.000422205,0.00267238,0.00194637,-2.24362e-05,3.60776e-05,5.04115e-06,3.65088e-05,-2.28673e-05,1.48548,5.18716e-05,-0.239682,1.60841,-3.27486,0.032564,-0.0195181,-0.0159494,0.00226541,370,338,-0.00751479,-0.0915172,123.87,105.658,123.841,105.716,6.02068e-05,5.68248e-05,0.000207734
-6.3126,14.6598,-296.815,0.00039344,0.00271397,0.00205218,-1.78674e-05,2.67248e-05,1.03052e-05,2.89911e-05,-2.01338e-05,1.35432,4.27733e-05,-0.257701,1.59887,-3.15278,0.0275005,-0.013277,-0.0235087,0.00230532,377,338,-0.00901791,-0.0922168,125.541,106.463,125.512,106.523,6.06943e-05,5.85241e-05,0.000209814
-6.01949,14.6458,-296.771,0.0003977,0.00273492,0.00216384,-1.2101e-05,1.84452e-05,1.49792e-05,2.45647e-05,-1.82205e-05,1.18295,3.71885e-05,-0.24777,1.57972,-2.99238,0.0203175,-0.0054369,-0.0269427,0.00230839,384,338,-0.0097085,-0.0921909,127.017,107.23,126.987,107.29,5.9688e-05,5.83477e-05,0.000206637
-5.73258,14.6325,-296.747,0.000380666,0.00273293,0.00220544,-6.06354e-06,1.18447e-05,1.93449e-05,2.42073e-05,-1.84261e-05,1.00215,3.70346e-05,-0.243879,1.50643,-2.86779,0.0125264,0.00370049,-0.0267347,0.00228499,391,338,-0.0104082,-0.0927189,128.16,107.963,128.131,108.023,5.81356e-05,5.68383e-05,0.000201434
-5.44986,14.6194,-296.736,0.00041852,0.00276546,0.00217867,-2.12585e-06,7.54009e-06,2.38177e-05,2.70102e-05,-2.1596e-05,0.885497,4.21812e-05,-0.235132,1.44528,-2.80545,0.00380114,0.0135536,-0.0248756,0.00227169,398,338,-0.00926291,-0.0939983,129.078,108.687,129.047,108.747,5.76182e-05,5.53404e-05,0.000199739
-5.16581,14.606,-296.721,0.000456044,0.00276285,0.00206499,9.99265e-07,4.68311e-06,2.66938e-05,2.95984e-05,-2.39161e-05,0.819845,4.64319e-05,-0.231058,1.42255,-2.87371,-0.007708,0.0239875,-0.0221495,0.00234466,405,338,-0.00746017,-0.094994,130.067,109.428,130.036,109.487,5.99289e-05,5.55153e-05,0.000207616
-4.87874,14.592,-296.695,0.000479027,0.00277043,0.00187863,6.17334e-06,2.2588e-06,2.63211e-05,3.06099e-05,-2.21777e-05,0.748286,4.59094e-05,-0.229548,1.45761,-2.89184,-0.0201538,0.0334742,-0.0183229,0.00246211,412,338,-0.00549393,-0.0959345,131.221,110.196,131.191,110.256,6.34902e-05,5.62344e-05,0.0002198
-4.59017,14.5777,-296.663,0.000456739,0.00281282,0.00163031,9.72854e-06,-2.20957e-07,2.36428e-05,2.89143e-05,-1.94067e-05,0.681704,4.21163e-05,-0.221374,1.53429,-2.84236,-0.0292147,0.0407947,-0.0144883,0.00246066,419,338,-0.00422116,-0.0964536,132.456,110.976,132.428,111.037,6.46042e-05,5.59239e-05,0.000223447
-4.30048,14.5633,-296.627,0.00043012,0.00283182,0.00157477,9.83362e-06,-2.2029e-06,1.94039e-05,2.41311e-05,-1.65004e-05,0.635024,3.53942e-05,-0.256846,1.59432,-2.84382,-0.0321457,0.0452614,-0.0108328,0.00240325,426,338,-0.00443285,-0.0955312,133.757,111.76,133.73,111.823,6.39907e-05,5.59072e-05,0.0002211
-4.00956,14.5489,-296.586,0.000416417,0.00281121,0.00154977,9.06652e-06,-2.33035e-06,1.31605e-05,1.77093e-05,-1.09731e-05,0.581086,2.5067e-05,-0.306117,1.62652,-2.95781,-0.0305887,0.0470696,-0.0073268,0.00231719,433,338,-0.00451783,-0.0942427,135.129,112.54,135.103,112.603,6.18392e-05,5.57557e-05,0.000213432
-3.71642,14.5343,-296.536,0.000413044,0.00281862,0.0016843,9.48312e-06,-1.21381e-06,5.68335e-06,1.19389e-05,-3.66961e-06,0.407873,1.41356e-05,-0.35027,1.6204,-2.92915,-0.0285703,0.0456068,-0.00418158,0.00231306,440,338,-0.00553466,-0.0935034,136.629,113.333,136.602,113.396,6.14541e-05,5.5886e-05,0.000211978
-3.42068,14.519,-296.477,0.000403422,0.00283322,0.00172789,9.00643e-06,-6.17984e-07,-2.47952e-06,9.60766e-06,-1.21922e-06,-0.237889,1.02717e-05,-0.382029,1.60914,-2.88565,-0.0265486,0.0413376,-0.00181465,0.00231602,447,338,-0.00605184,-0.0929974,138.276,114.153,138.248,114.218,6.17488e-05,5.5577e-05,0.000213057
-3.12414,14.5041,-296.414,0.00045644,0.00286443,0.00172665,3.73157e-06,-2.63205e-06,-9.58984e-06,1.06537e-05,-9.55414e-06,-0.625218,1.75091e-05,-0.398217,1.58549,-2.7648,-0.0230823,0.0357496,-0.00119073,0.00229701,454,338,-0.00469911,-0.0934315,139.975,114.951,139.946,115.018,6.12212e-05,5.34483e-05,0.00021147
-2.8284,14.4892,-296.353,0.000518249,0.00284919,0.0017547,-4.46963e-06,-7.09265e-06,-1.40464e-05,8.32634e-06,-1.98886e-05,-0.738848,2.51094e-05,-0.430849,1.5532,-2.73664,-0.0175228,0.0287597,-0.00184181,0.00234276,461,338,-0.00332897,-0.0945903,141.635,115.755,141.605,115.82,6.20621e-05,5.28621e-05,0.000214447
-2.53534,14.4742,-296.301,0.000556169,0.00282582,0.00175544,-9.97428e-06,-1.22883e-05,-1.67785e-05,5.68705e-06,-2.79496e-05,-0.750974,3.11845e-05,-0.43648,1.53631,-2.66377,-0.00996445,0.0217414,-0.00214148,0.00240036,468,338,-0.0023338,-0.0948208,143.15,116.566,143.118,116.629,6.37408e-05,5.38734e-05,0.000220082
-2.2447,14.4596,-296.256,0.000550909,0.00278658,0.00165207,-1.19435e-05,-1.64037e-05,-1.86259e-05,4.58535e-06,-3.29326e-05,-0.725816,3.54484e-05,-0.397667,1.54493,-2.51221,-0.00120731,0.0156108,-0.00127709,0.0024629,475,338,-0.00163762,-0.0937948,144.533,117.36,144.502,117.422,6.56264e-05,5.53803e-05,0.000226418
-1.95513,14.4453,-296.215,0.000512685,0.00274764,0.0016206,-1.37598e-05,-1.95832e-05,-2.00013e-05,3.54063e-06,-3.68836e-05,-0.713119,3.87754e-05,-0.329814,1.58224,-2.44679,0.00696502,0.0112613,-0.00127699,0.00257916,482,338,-0.00228584,-0.0925079,145.859,118.135,145.829,118.196,6.88238e-05,5.89102e-05,0.000237262
-1.66529,14.4309,-296.171,0.000478854,0.00271706,0.00165404,-1.51006e-05,-2.26226e-05,-2.19055e-05,3.36444e-06,-4.10877e-05,-0.700382,4.2869e-05,-0.2429,1.61321,-2.54422,0.0131735,0.00906631,-0.00317761,0.00272391,489,338,-0.00330831,-0.0918012,147.205,118.914,147.176,118.974,7.27449e-05,6.2952e-05,0.000250532
-1.37399,14.4165,-296.122,0.000472168,0.00270594,0.00176044,-1.43368e-05,-2.46999e-05,-2.34325e-05,4.48015e-06,-4.35169e-05,-0.676585,4.59212e-05,-0.278483,1.617,-2.72652,0.0171216,0.00799635,-0.00577904,0.00287418,496,338,-0.00418748,-0.0915407,148.64,119.692,148.611,119.752,7.61816e-05,6.77467e-05,0.000262431
-1.08038,14.4021,-296.064,0.000449003,0.00269786,0.00173142,-1.16209e-05,-2.59606e-05,-2.27323e-05,5.04549e-06,-4.2627e-05,-0.632634,4.53607e-05,-0.34901,1.55771,-2.88833,0.0177039,0.00736422,-0.00751939,0.00290161,503,338,-0.00452411,-0.0916391,150.21,120.467,150.182,120.526,7.65154e-05,6.85936e-05,0.000263753
-0.784265,14.3872,-295.996,0.000380366,0.00273051,0.00160038,-6.3823e-06,-2.57372e-05,-1.83075e-05,4.64815e-06,-3.67677e-05,-0.542263,3.92985e-05,-0.40444,1.5365,-3.02097,0.0158239,0.00694871,-0.00771772,0.00278897,510,338,-0.00527444,-0.0903806,151.927,121.261,151.901,121.323,7.36077e-05,6.42105e-05,0.000253619
-0.486506,14.3718,-295.922,0.000332831,0.00277338,0.00152449,1.99208e-06,-2.4691e-05,-1.15249e-05,6.2806e-06,-2.89796e-05,-0.356235,3.25771e-05,-0.414335,1.49839,-2.92324,0.012912,0.00716248,-0.00825756,0.00260383,517,338,-0.0059158,-0.0900157,153.745,122.083,153.721,122.148,6.87404e-05,5.93998e-05,0.000236536
-0.187355,14.3564,-295.841,0.000328058,0.00279282,0.00168666,1.2857e-05,-2.35973e-05,-3.41422e-06,1.3174e-05,-2.39143e-05,-0.0925844,3.25653e-05,-0.347809,1.44893,-2.94088,0.00807526,0.00831549,-0.00980877,0.0024305,524,338,-0.00715377,-0.0897318,155.654,122.901,155.629,122.967,6.46401e-05,5.5717e-05,0.000222088
0.111682,14.341,-295.76,0.000359322,0.00275262,0.00190967,2.57631e-05,-2.20379e-05,5.71207e-06,2.64362e-05,-2.2711e-05,0.117297,4.26034e-05,-0.261067,1.42311,-3.05706,0.00177866,0.00972265,-0.0108089,0.00239642,531,338,-0.0078571,-0.0887575,157.567,123.724,157.539,123.788,6.386e-05,5.47845e-05,0.00021916
0.410079,14.3257,-295.68,0.000386393,0.00269501,0.00204111,3.93448e-05,-2.16141e-05,1.82339e-05,4.43826e-05,-2.66518e-05,0.269561,6.21531e-05,-0.198939,1.37843,-2.9925,-0.00636416,0.0114957,-0.0100609,0.00247203,538,338,-0.00799504,-0.0873871,159.451,124.541,159.421,124.604,6.56178e-05,5.73495e-05,0.000225322
0.707827,14.3101,-295.602,0.000398853,0.00268504,0.00203354,5.31201e-05,-2.22201e-05,3.46456e-05,6.66296e-05,-3.57296e-05,0.371799,8.9982e-05,-0.177858,1.3415,-2.84654,-0.0157329,0.014001,-0.0055717,0.00254336,545,338,-0.00757237,-0.0871393,161.304,125.37,161.273,125.432,6.75477e-05,5.83751e-05,0.000232037
1.00493,14.2945,-295.525,0.000410609,0.00270137,0.00209132,6.79296e-05,-2.41669e-05,5.6195e-05,9.45334e-05,-5.07707e-05,0.442158,0.000127725,-0.167532,1.32715,-2.8304,-0.0294205,0.0170601,0.0037706,0.00257734,552,338,-0.0076635,-0.087967,163.128,126.202,163.097,126.265,6.84458e-05,5.9528e-05,0.000235159
1.3023,14.2789,-295.445,0.0004378,0.00277464,0.00202481,8.00191e-05,-2.98054e-05,8.52928e-05,0.000126548,-7.63339e-05,0.499393,0.000177485,-0.194803,1.35768,-2.91762,-0.050465,0.0197079,0.0176007,0.00255948,559,338,-0.00656872,-0.0908212,164.976,127.029,164.944,127.094,6.82725e-05,5.91785e-05,0.000233861
1.59906,14.2636,-295.368,0.000479984,0.00288262,0.00207348,8.26883e-05,-4.10054e-05,0.000125068,0.000160366,-0.000118683,0.555776,0.00024256,-0.215124,1.43121,-3.12835,-0.078241,0.0211438,0.0338114,0.00251808,566,338,-0.00592581,-0.0941626,166.8,127.838,166.767,127.905,6.75607e-05,5.88466e-05,0.00023022
1.89459,14.2485,-295.293,0.000522621,0.00293989,0.00201675,8.08371e-05,-5.72834e-05,0.000176689,0.000201483,-0.000177929,0.599098,0.000328791,-0.219881,1.45836,-3.15964,-0.105844,0.0205855,0.0506468,0.00258176,573,338,-0.00448265,-0.096347,168.559,128.645,168.525,128.713,6.9812e-05,6.1069e-05,0.000236756
0,0,0,0,0,0,0,0,0,0,0,0,0,0,0,0,0,0,0,-1,580,338,0,0,0,0,0,0,0,0,0
0,0,0,0,0,0,0,0,0,0,0,0,0,0,0,0,0,0,0,-1,587,338,0,0,0,0,0,0,0,0,0
0,0,0,0,0,0,0,0,0,0,0,0,0,0,0,0,0,0,0,-1,594,338,0,0,0,0,0,0,0,0,0
0,0,0,0,0,0,0,0,0,0,0,0,0,0,0,0,0,0,0,-1,601,338,0,0,0,0,0,0,0,0,0
0,0,0,0,0,0,0,0,0,0,0,0,0,0,0,0,0,0,0,-1,62,345,0,0,0,0,0,0,0,0,0
0,0,0,0,0,0,0,0,0,0,0,0,0,0,0,0,0,0,0,-1,69,345,0,0,0,0,0,0,0,0,0
0,0,0,0,0,0,0,0,0,0,0,0,0,0,0,0,0,0,0,-1,76,345,0,0,0,0,0,0,0,0,0
-18.357,14.9633,-297.327,0.000615145,0.00282858,0.000879776,-0.000105858,-4.67998e-05,2.80926e-05,-3.55716e-05,-0.000117087,1.19056,0.000103969,-0.457809,1.49514,-3.02193,0.10818,0.0168696,-0.0466922,0.00247742,83,345,0.00428173,-0.0884991,77.5929,75.0229,77.567,75.0918,6.50707e-05,6.22833e-05,0.0002298
-18.0839,14.9509,-297.362,0.000637081,0.00279747,0.00110407,-7.56889e-05,-3.75926e-05,3.68473e-05,-1.51612e-05,-9.81203e-05,1.02396,9.14868e-05,-0.433569,1.53311,-3.1883,0.0798614,0.0139817,-0.019696,0.00246695,90,345,0.00307918,-0.0854634,78.1116,75.7483,78.0834,75.8183,6.47885e-05,6.14186e-05,0.000229894
-17.8087,14.9385,-297.391,0.00063487,0.00276121,0.00142803,-4.33463e-05,-2.73279e-05,4.08221e-05,6.26326e-06,-7.69374e-05,0.882266,8.02525e-05,-0.399936,1.55898,-3.40335,0.0618442,0.0156122,-0.00220369,0.00248021,97,345,0.000471307,-0.082673,78.7229,76.4797,78.6925,76.5505,6.54293e-05,6.03172e-05,0.000231674
-17.5317,14.9259,-297.415,0.000633437,0.00269542,0.00170377,-1.6853e-05,-1.81284e-05,4.18219e-05,2.43361e-05,-5.93175e-05,0.777775,7.45276e-05,-0.378907,1.56686,-3.58061,0.0515391,0.0192268,0.00609672,0.00250398,104,345,-0.00172292,-0.0812332,79.4143,77.2153,79.382,77.284,6.59521e-05,5.94534e-05,0.000231977
-17.253,14.9133,-297.433,0.000613063,0.00267384,0.00189394,9.56157e-07,-1.11055e-05,3.97832e-05,3.51631e-05,-4.53124e-05,0.710175,6.98783e-05,-0.361248,1.58683,-3.55846,0.0466371,0.022826,0.00813205,0.0024977,111,345,-0.00375519,-0.0824579,80.1882,77.9503,80.1553,78.0168,6.59328e-05,5.93862e-05,0.000229686
-16.9732,14.9006,-297.447,0.000622682,0.00271305,0.00195833,1.16355e-05,-6.21688e-06,3.55071e-05,3.93212e-05,-3.39026e-05,0.662254,6.34716e-05,-0.389858,1.6075,-3.23013,0.045292,0.0255102,0.00644477,0.00243897,118,345,-0.00406629,-0.084411,81.0102,78.69,80.9766,78.7568,6.45479e-05,5.99309e-05,0.000223596
-16.6925,14.8876,-297.459,0.000668379,0.00278817,0.00198731,1.67625e-05,-2.55058e-06,3.04284e-05,3.90299e-05,-2.4818e-05,0.631748,5.57486e-05,-0.413301,1.61365,-2.74899,0.0472507,0.0273358,0.00246189,0.00237798,125,345,-0.00324886,-0.0876749,81.8714,79.4376,81.8363,79.5054,6.25501e-05,6.14291e-05,0.000216051
-16.4109,14.8746,-297.468,0.000777068,0.00284339,0.00202115,1.56813e-05,5.97374e-07,2.61867e-05,3.53905e-05,-1.91118e-05,0.645189,4.7897e-05,-0.380013,1.61296,-2.47969,0.0503127,0.0286364,-0.00315035,0.00248227,132,345,-0.000886518,-0.0899091,82.7714,80.1867,82.7329,80.2554,6.34821e-05,6.44703e-05,0.000219375
-16.129,14.8616,-297.475,0.000815824,0.00285854,0.00202324,1.08144e-05,3.88492e-06,2.38629e-05,3.14628e-05,-1.67634e-05,0.713305,4.24069e-05,-0.326605,1.6052,-2.74358,0.0501776,0.0295394,-0.00790931,0.00267351,139,345,7.93669e-05,-0.0903216,83.6873,80.932,83.6476,81.001,6.71541e-05,6.9679e-05,0.000231244
-15.8474,14.8485,-297.484,0.000820339,0.00284125,0.0019653,3.25866e-06,6.45706e-06,2.16838e-05,2.66005e-05,-1.68848e-05,0.822207,3.79714e-05,-0.286141,1.55483,-3.07949,0.0475837,0.0296645,-0.0122995,0.00271608,146,345,0.000754793,-0.0885961,84.5787,81.6844,84.5392,81.754,6.75448e-05,7.02032e-05,0.000232671
-15.5657,14.8354,-297.492,0.000788248,0.00282591,0.00192954,-6.03898e-06,7.79361e-06,2.0801e-05,2.2798e-05,-2.10433e-05,0.945898,3.79778e-05,-0.261317,1.49787,-3.44907,0.0422371,0.029345,-0.0161626,0.00271054,153,345,0.000352351,-0.0866495,85.4687,82.4359,85.4302,82.5065,6.64929e-05,6.97348e-05,0.000229418
-15.2842,14.8223,-297.5,0.000712935,0.00280021,0.00194665,-1.78634e-05,8.41586e-06,2.17698e-05,2.0704e-05,-3.01515e-05,1.05692,4.42948e-05,-0.258947,1.46179,-3.60253,0.0350464,0.0287829,-0.0189683,0.002596,160,345,-0.00151514,-0.0838096,86.3517,83.1897,86.3152,83.2614,6.31522e-05,6.64189e-05,0.000218901
-15.0017,14.8088,-297.504,0.00064756,0.00278372,0.00222483,-3.35531e-05,9.07125e-06,2.41599e-05,1.99757e-05,-4.44576e-05,1.14682,5.71277e-05,-0.287605,1.46482,-3.37536,0.0264612,0.0279066,-0.0206668,0.00244137,167,345,-0.00526766,-0.082285,87.2768,83.955,87.2401,84.0273,6.00444e-05,6.28102e-05,0.000208504
-14.7179,14.7956,-297.505,0.000690129,0.0028085,0.00239994,-5.17835e-05,1.01352e-05,2.75086e-05,2.05909e-05,-6.22391e-05,1.20757,7.46944e-05,-0.240766,1.51165,-3.06103,0.0159297,0.025996,-0.0204386,0.00232077,174,345,-0.00562902,-0.0842968,88.2653,84.709,88.2261,84.7809,5.93158e-05,5.99525e-05,0.000206034
-14.4338,14.7824,-297.504,0.000705329,0.00283094,0.00250017,-6.96528e-05,1.11489e-05,3.08218e-05,2.15635e-05,-8.00674e-05,1.24494,9.27486e-05,-0.217786,1.54813,-2.8322,0.003544,0.0229783,-0.0173897,0.0022657,181,345,-0.00605482,-0.0861611,89.2689,85.463,89.2286,85.5344,6.03132e-05,5.84255e-05,0.000209367
-14.1492,14.7692,-297.502,0.00069662,0.00287266,0.00256015,-8.22171e-05,1.20698e-05,3.33125e-05,2.26518e-05,-9.27991e-05,1.26322,0.000105957,-0.213451,1.53683,-2.78973,-0.00856716,0.0193984,-0.0118385,0.00230178,188,345,-0.0067497,-0.0877679,90.2942,86.214,90.2536,86.2861,6.10987e-05,5.71261e-05,0.000211486
-13.864,14.7558,-297.497,0.000661024,0.00288093,0.00258786,-8.57119e-05,1.2994e-05,3.40984e-05,2.36278e-05,-9.63457e-05,1.2685,0.000110078,-0.26522,1.5207,-2.86107,-0.0192774,0.0154746,-0.00430533,0.0022609,195,345,-0.00782215,-0.0889744,91.3443,86.9708,91.3045,87.0423,5.90894e-05,5.60231e-05,0.00020464
-13.5785,14.7426,-297.491,0.000612491,0.00289651,0.00258756,-8.32665e-05,1.37584e-05,3.22186e-05,2.34825e-05,-9.29906e-05,1.27767,0.000106688,-0.321249,1.49605,-2.84541,-0.0277547,0.0118049,0.00284591,0.00223327,202,345,-0.00899707,-0.0902601,92.4092,87.72,92.3708,87.7911,5.6926e-05,5.56758e-05,0.000197302
-13.2929,14.7294,-297.484,0.000569374,0.00291198,0.00259561,-7.837e-05,1.37028e-05,2.80122e-05,2.15555e-05,-8.62227e-05,1.29748,9.87804e-05,-0.381251,1.50224,-2.85854,-0.0323759,0.00895954,0.00750454,0.00221317,209,345,-0.010103,-0.0914466,93.4769,88.4666,93.4397,88.5375,5.50635e-05,5.66312e-05,0.000190532
-13.0076,14.7162,-297.478,0.000524759,0.00293101,0.00261459,-7.26949e-05,1.17797e-05,2.22661e-05,1.72893e-05,-7.82046e-05,1.32822,8.81305e-05,-0.383716,1.53999,-2.88663,-0.0326144,0.00723863,0.00931981,0.00223594,216,345,-0.0113131,-0.0916915,94.5236,89.2154,94.4874,89.287,5.40116e-05,5.80541e-05,0.000186423
-12.7223,14.7028,-297.471,0.000462502,0.0029263,0.00268587,-6.65271e-05,7.42475e-06,1.51555e-05,1.04102e-05,-6.95125e-05,1.3763,7.52595e-05,-0.384267,1.56355,-2.92868,-0.03142,0.00624109,0.0089766,0.00221724,223,345,-0.0133612,-0.0920827,95.5716,89.9696,95.5366,90.0406,5.36187e-05,5.76722e-05,0.000184682
-12.4365,14.6893,-297.463,0.000445692,0.00289284,0.0027919,-5.79516e-05,1.39579e-06,7.01765e-06,2.21432e-06,-5.87701e-05,1.45468,5.9908e-05,-0.361647,1.57577,-3,-0.0301672,0.00571421,0.00769852,0.00218052,230,345,-0.0145311,-0.0919798,96.6426,90.7351,96.6073,90.8046,5.33626e-05,5.65244e-05,0.000184088
-12.1495,14.6754,-297.45,0.000442853,0.00282407,0.00295755,-4.69745e-05,-4.58543e-06,-1.97535e-06,-4.49358e-06,-4.70664e-05,-1.52433,4.49882e-05,-0.342111,1.5849,-2.9772,-0.0269631,0.00553296,0.0061282,0.00206027,237,345,-0.0157868,-0.0912936,97.7791,91.5143,97.7428,91.5809,5.14544e-05,5.3279e-05,0.000178311
-11.8616,14.6617,-297.434,0.000457091,0.00281168,0.00295342,-3.59994e-05,-9.56325e-06,-1.05855e-05,-5.84705e-06,-3.97156e-05,-1.23317,3.71389e-05,-0.316594,1.57875,-2.94204,-0.0211034,0.00568887,0.00314375,0.00208142,244,345,-0.0153396,-0.0915442,98.955,92.2842,98.9183,92.3499,5.18228e-05,5.37879e-05,0.000179811
-11.5736,14.6477,-297.417,0.00049271,0.00276677,0.00281707,-2.63637e-05,-1.32719e-05,-1.80611e-05,-6.0706e-07,-3.90285e-05,-0.959251,3.87285e-05,-0.350246,1.55934,-2.92093,-0.0144586,0.00627159,-0.00140496,0.00223279,251,345,-0.0132915,-0.0907119,100.135,93.0688,100.099,93.1328,5.59928e-05,5.77534e-05,0.000194029
-11.285,14.6337,-297.398,0.000465089,0.00270669,0.00244663,-1.79342e-05,-1.52044e-05,-2.44618e-05,7.93056e-06,-4.10691e-05,-0.813268,4.55551e-05,-0.365151,1.53815,-2.85098,-0.0091797,0.00713819,-0.00524862,0.00238884,258,345,-0.0109671,-0.0890423,101.342,93.8481,101.309,93.9103,6.27504e-05,6.11275e-05,0.00021665
-10.9953,14.6198,-297.375,0.00042582,0.00265817,0.00236184,-1.12635e-05,-1.50774e-05,-2.93199e-05,1.62114e-05,-4.25523e-05,-0.752924,5.25675e-05,-0.375197,1.48187,-2.76816,-0.00502606,0.00831844,-0.00694634,0.00254959,265,345,-0.0111775,-0.0878675,102.606,94.6255,102.575,94.6862,6.83303e-05,6.25287e-05,0.000235525
-10.7053,14.6061,-297.35,0.000422631,0.00265617,0.00221471,-6.85315e-06,-1.24929e-05,-3.20967e-05,2.25473e-05,-4.18934e-05,-0.741583,5.66394e-05,-0.381147,1.45576,-2.77144,-0.00210523,0.0095426,-0.00642253,0.00258933,272,345,-0.0100474,-0.0869782,103.891,95.3842,103.861,95.4455,6.96729e-05,6.22536e-05,0.000240412
-10.414,14.5924,-297.321,0.000453307,0.00269604,0.00219746,-5.57585e-06,-7.29791e-06,-3.27976e-05,2.6372e-05,-3.92457e-05,-0.772275,5.719e-05,-0.439573,1.43385,-2.72775,0.000270398,0.0107323,-0.00409236,0.00249292,279,345,-0.00915175,-0.0880228,105.242,96.1462,105.211,96.2087,6.70533e-05,6.12964e-05,0.000231589
-10.1221,14.5785,-297.289,0.000495713,0.00273352,0.00228199,-7.88157e-06,3.55657e-07,-3.21163e-05,2.86163e-05,-3.61423e-05,-0.84917,5.62087e-05,-0.466971,1.45882,-2.66455,0.00125577,0.0115832,-0.000139655,0.00235462,286,345,-0.00876035,-0.0896443,106.63,96.9137,106.597,96.9767,6.22495e-05,6.08226e-05,0.000215185
-9.83046,14.5645,-297.258,0.000527595,0.00275345,0.0022526,-1.0467e-05,9.40762e-06,-3.19909e-05,3.29691e-05,-3.40284e-05,-0.935988,5.80239e-05,-0.488172,1.47189,-2.54565,0.00132301,0.0116751,0.00604809,0.00227645,293,345,-0.00772623,-0.0905724,108.001,97.69,107.967,97.7532,5.81043e-05,5.92704e-05,0.000200514
-9.53628,14.5501,-297.218,0.000544763,0.00272915,0.002252,-1.32107e-05,1.8289e-05,-3.24158e-05,3.85786e-05,-3.35003e-05,-1.01154,6.24738e-05,-0.449635,1.45723,-2.3951,0.00439895,0.0110001,0.0138334,0.00216295,300,345,-0.00723657,-0.090695,109.505,98.4817,109.471,98.5434,5.51871e-05,5.62507e-05,0.000190319
-9.24204,14.5356,-297.177,0.000542877,0.00272364,0.00227805,-1.71176e-05,2.67294e-05,-3.19047e-05,4.3517e-05,-3.39052e-05,-1.08642,6.72216e-05,-0.450411,1.4527,-2.48183,0.0106517,0.00948972,0.0222992,0.00212969,307,345,-0.00741799,-0.0901533,111.014,99.2815,110.98,99.3435,5.67782e-05,5.4311e-05,0.000195547
-8.94979,14.5211,-297.141,0.000556853,0.00267857,0.00236406,-1.9694e-05,3.5228e-05,-3.07813e-05,4.90175e-05,-3.34834e-05,-1.14962,7.18688e-05,-0.436415,1.48962,-2.67232,0.0166295,0.00679637,0.0301386,0.00217123,314,345,-0.0076175,-0.0886108,112.421,100.082,112.386,100.143,5.82108e-05,5.35022e-05,0.000200588
-8.65866,14.5068,-297.109,0.000533814,0.00263958,0.00229775,-2.12283e-05,4.32057e-05,-2.98139e-05,5.48841e-05,-3.29067e-05,-1.19746,7.68191e-05,-0.415538,1.52307,-2.70426,0.0206459,0.0029461,0.0352767,0.0021924,321,345,-0.00759738,-0.0878774,113.769,100.872,113.734,100.932,5.85426e-05,5.32286e-05,0.000202312
-8.36848,14.4925,-297.08,0.000489692,0.00261989,0.00212209,-2.41818e-05,4.91754e-05,-2.88571e-05,5.91664e-05,-3.41728e-05,-1.23749,8.17945e-05,-0.407391,1.53496,-2.73417,0.0248568,-0.00173953,0.0365255,0.00217906,328,345,-0.00730396,-0.087947,115.066,101.661,115.035,101.72,5.7914e-05,5.33769e-05,0.000200588
-8.07798,14.4783,-297.049,0.000471507,0.0026655,0.00190172,-2.84974e-05,5.15028e-05,-2.73307e-05,5.99483e-05,-3.69429e-05,-1.27109,8.4695e-05,-0.385746,1.49862,-2.80773,0.029989,-0.00635781,0.0331443,0.00218549,335,345,-0.00611155,-0.0898846,116.383,102.439,116.353,102.498,5.78669e-05,5.5119e-05,0.000200294
-7.78745,14.4643,-297.017,0.000471923,0.00272249,0.00175055,-3.17319e-05,4.93409e-05,-2.39659e-05,5.58955e-05,-3.82865e-05,-1.30383,8.20379e-05,-0.391237,1.49082,-2.99744,0.0344074,-0.0106849,0.0259673,0.00223849,342,345,-0.0049948,-0.0919077,117.704,103.211,117.676,103.271,5.94493e-05,5.6795e-05,0.000205116
-7.49669,14.4501,-296.984,0.000509471,0.00274626,0.00180819,-3.21732e-05,4.47142e-05,-1.88469e-05,4.90855e-05,-3.65445e-05,-1.34289,7.44224e-05,-0.355232,1.52582,-3.2186,0.0375628,-0.0144606,0.0175067,0.00228342,349,345,-0.00449179,-0.0930052,119.041,103.994,119.011,104.055,6.06644e-05,5.83184e-05,0.000208879
-7.20528,14.4354,-296.948,0.000504192,0.00272198,0.00182433,-3.07379e-05,3.9512e-05,-1.31124e-05,4.18797e-05,-3.31056e-05,-1.39215,6.50872e-05,-0.292013,1.5579,-3.1806,0.0399276,-0.0168974,0.00867249,0.00230979,356,345,-0.00470553,-0.0936182,120.412,104.8,120.382,104.859,6.16548e-05,5.81101e-05,0.000212174
-6.91064,14.4206,-296.9,0.00046273,0.00267162,0.00183033,-3.00227e-05,3.42478e-05,-7.20256e-06,3.50451e-05,-3.082e-05,-1.46055,5.708e-05,-0.231598,1.60334,-3.14627,0.041153,-0.0173908,-0.00118797,0.00230713,363,345,-0.00570315,-0.0929852,121.958,105.61,121.929,105.666,6.17073e-05,5.74111e-05,0.000212343
-6.6148,14.4059,-296.848,0.000460001,0.002645,0.00198194,-2.85938e-05,2.84158e-05,-1.71525e-06,2.84674e-05,-2.86454e-05,-1.54075,4.94612e-05,-0.191461,1.63896,-3.03427,0.0389345,-0.0152976,-0.0112174,0.00225923,370,345,-0.00684296,-0.0926687,123.574,106.409,123.544,106.465,6.00748e-05,5.68835e-05,0.000207256
-6.31898,14.3913,-296.796,0.000430617,0.00266012,0.00201422,-2.47157e-05,2.23966e-05,2.52648e-06,2.25317e-05,-2.48508e-05,1.51737,4.10509e-05,-0.186167,1.63892,-2.95772,0.0335893,-0.0107986,-0.0188128,0.00229755,377,345,-0.00779343,-0.0931447,125.191,107.206,125.162,107.261,6.0746e-05,5.83009e-05,0.00020987
-6.02509,14.3769,-296.749,0.000407668,0.00268527,0.00204522,-1.91727e-05,1.74556e-05,6.10348e-06,1.84458e-05,-2.0163e-05,1.40995,3.34472e-05,-0.179775,1.62753,-2.97553,0.0257896,-0.00445918,-0.0229053,0.0023193,384,345,-0.00857175,-0.0933359,126.709,107.989,126.68,108.046,6.0733e-05,5.8816e-05,0.000209892
-5.73405,14.3632,-296.711,0.000353288,0.00270738,0.00205167,-1.26256e-05,1.38942e-05,9.55504e-06,1.69782e-05,-1.57096e-05,1.25859,2.83156e-05,-0.206484,1.5563,-3.00657,0.016955,0.00347502,-0.0236986,0.0023001,391,345,-0.009957,-0.0937665,128.075,108.74,128.047,108.798,5.93571e-05,5.8402e-05,0.000205307
-5.44799,14.3497,-296.689,0.000393306,0.00276632,0.0020423,-7.71371e-06,1.21853e-05,1.35177e-05,1.90204e-05,-1.45487e-05,1.10265,2.91575e-05,-0.228793,1.50208,-3.08393,0.00663638,0.0123235,-0.0226368,0.0022895,398,345,-0.00890496,-0.0951124,129.176,109.483,129.147,109.543,5.80525e-05,5.71107e-05,0.000201075
-5.16365,14.3365,-296.673,0.000446915,0.00279255,0.0019054,-3.92635e-06,1.16851e-05,1.6786e-05,2.23915e-05,-1.46327e-05,1.00303,3.22977e-05,-0.23934,1.47739,-3.08748,-0.00709624,0.0214152,-0.0203811,0.00239044,405,345,-0.00654248,-0.0959756,130.183,110.213,130.154,110.273,6.10513e-05,5.6895e-05,0.000211457
-4.87724,14.3228,-296.649,0.000445384,0.00281644,0.00161445,1.49448e-06,1.13643e-05,1.79638e-05,2.50587e-05,-1.21999e-05,0.919449,3.29012e-05,-0.210731,1.49986,-2.97994,-0.0216439,0.029469,-0.0170518,0.00249104,412,345,-0.00441273,-0.0961236,131.302,110.965,131.275,111.027,6.46332e-05,5.69272e-05,0.000223619
-4.58955,14.3087,-296.62,0.00041843,0.00282743,0.00136043,5.70734e-06,1.04575e-05,1.75418e-05,2.57843e-05,-9.61945e-06,0.852687,3.1708e-05,-0.199494,1.53368,-2.86517,-0.0316855,0.0356762,-0.0137178,0.00246129,419,345,-0.00318869,-0.0959813,132.491,111.734,132.467,111.796,6.48686e-05,5.64271e-05,0.000224234
-4.30075,14.2944,-296.587,0.000392361,0.00279837,0.00133185,7.45762e-06,9.33751e-06,1.56327e-05,2.40585e-05,-7.26339e-06,0.815425,2.83957e-05,-0.221051,1.52383,-2.82165,-0.0347604,0.0395414,-0.0104413,0.00240923,426,345,-0.00355746,-0.0947215,133.745,112.515,133.721,112.576,6.42369e-05,5.63992e-05,0.00022187
-4.01031,14.2802,-296.547,0.000387924,0.00275479,0.00142388,9.05353e-06,9.00816e-06,1.19244e-05,2.09553e-05,-2.89362e-06,0.784447,2.25419e-05,-0.269514,1.53092,-2.96894,-0.0331842,0.0411353,-0.00713662,0.00230847,433,345,-0.00425617,-0.093329,135.094,113.293,135.07,113.353,6.14323e-05,5.60548e-05,0.000211927
-3.71769,14.2658,-296.499,0.000406091,0.00275808,0.00169172,1.15225e-05,9.16184e-06,7.1939e-06,1.76323e-05,3.0521e-06,0.704085,1.63217e-05,-0.323338,1.53892,-2.99991,-0.031223,0.0399522,-0.00386542,0.00231744,440,345,-0.0057139,-0.0929666,136.569,114.071,136.542,114.132,6.06863e-05,5.55804e-05,0.0002091
-3.42245,14.251,-296.442,0.000453864,0.00278251,0.0018299,1.25458e-05,8.6527e-06,2.07293e-06,1.34428e-05,7.75565e-06,0.408415,1.16877e-05,-0.368624,1.57301,-3.02265,-0.0289907,0.0363242,-0.00133488,0.00233379,447,345,-0.00549163,-0.0928355,138.193,114.874,138.163,114.937,6.16095e-05,5.48892e-05,0.00021232
-3.12573,14.236,-296.378,0.000521717,0.0028245,0.00188019,8.59021e-06,5.60458e-06,-2.42104e-06,9.94167e-06,4.25312e-06,-0.509131,8.6396e-06,-0.370731,1.57476,-2.86661,-0.025268,0.0313251,-0.000582386,0.00231776,454,345,-0.00414872,-0.0935206,139.904,115.677,139.872,115.741,6.19175e-05,5.30303e-05,0.000213677
-2.82862,14.2213,-296.313,0.000581293,0.00283274,0.00183934,1.92805e-06,5.59654e-07,-5.50188e-06,6.78811e-06,-4.30041e-06,-0.723537,9.68316e-06,-0.397902,1.54384,-2.81612,-0.0199847,0.0248564,-0.00108893,0.00236393,461,345,-0.00234477,-0.0947129,141.643,116.474,141.61,116.538,6.27492e-05,5.2097e-05,0.000216805
-2.53397,14.2065,-296.255,0.000610406,0.00282458,0.00180508,-1.54154e-06,-4.95487e-06,-8.14924e-06,5.07783e-06,-1.15742e-05,-0.682177,1.47824e-05,-0.418595,1.5188,-2.66712,-0.0126501,0.0178194,-0.00126408,0.00242645,468,345,-0.0013319,-0.0953028,143.248,117.271,143.215,117.334,6.43854e-05,5.29321e-05,0.000222376
-2.24212,14.1918,-296.206,0.000592455,0.00276819,0.00172812,-1.8997e-06,-9.48071e-06,-1.07132e-05,5.67376e-06,-1.70542e-05,-0.615362,2.0489e-05,-0.401367,1.54238,-2.47054,-0.00364059,0.0111824,-0.000434463,0.00254787,475,345,-0.00112569,-0.0938895,144.7,118.07,144.668,118.131,6.7893e-05,5.60908e-05,0.000234291
-1.95181,14.1773,-296.161,0.000552258,0.00272823,0.00179344,-3.44329e-06,-1.2882e-05,-1.31819e-05,5.83864e-06,-2.21639e-05,-0.613499,2.55878e-05,-0.368871,1.57439,-2.39238,0.00500568,0.00593407,-0.000507127,0.00271233,482,345,-0.00251255,-0.0924373,146.071,118.856,146.039,118.916,7.23661e-05,6.2205e-05,0.000249521
-1.66131,14.1628,-296.115,0.000517658,0.00272248,0.00193091,-5.72898e-06,-1.58206e-05,-1.66003e-05,6.5754e-06,-2.8125e-05,-0.637855,3.19247e-05,-0.293853,1.57021,-2.50477,0.0113184,0.00241809,-0.00208183,0.00290437,489,345,-0.00431392,-0.0919527,147.458,119.642,147.426,119.702,7.74241e-05,6.69839e-05,0.000266601
-1.36887,14.1486,-296.062,0.000503876,0.00275502,0.00196313,-6.86174e-06,-1.75144e-05,-1.99371e-05,8.44823e-06,-3.28244e-05,-0.654868,3.7764e-05,-0.341554,1.55585,-2.71822,0.014676,-3.63088e-05,-0.0037593,0.00304958,496,345,-0.00487302,-0.092288,148.96,120.408,148.928,120.47,8.08298e-05,7.04451e-05,0.000278649
-1.07452,14.134,-296.001,0.000466504,0.00274741,0.00184639,-6.69896e-06,-1.82528e-05,-2.08286e-05,9.13898e-06,-3.40907e-05,-0.650121,3.9462e-05,-0.347698,1.51544,-2.86923,0.0145438,-0.00187228,-0.00413758,0.00300734,503,345,-0.00494196,-0.0925106,150.574,121.194,150.544,121.255,7.9629e-05,6.89301e-05,0.000274609
-0.776615,14.1189,-295.927,0.000393,0.00278557,0.00167277,-4.47004e-06,-1.76063e-05,-1.77197e-05,7.85964e-06,-2.9936e-05,-0.607914,3.45431e-05,-0.373754,1.51124,-3.01546,0.0128256,-0.00329507,-0.00273455,0.00289218,510,345,-0.00553597,-0.0922008,152.395,122.002,152.368,122.065,7.66196e-05,6.55166e-05,0.0002643
-0.476697,14.1031,-295.844,0.000371083,0.00279224,0.00161637,8.33604e-07,-1.63326e-05,-1.16743e-05,6.74051e-06,-2.22395e-05,-0.468415,2.62666e-05,-0.385419,1.50471,-2.93454,0.0108114,-0.0040962,-0.0012353,0.00266208,517,345,-0.00564556,-0.0917037,154.34,122.848,154.314,122.912,7.05094e-05,6.08323e-05,0.000242883
-0.17551,14.0877,-295.756,0.000401222,0.00275482,0.00197491,8.78253e-06,-1.48341e-05,-3.72548e-06,9.35627e-06,-1.54079e-05,-0.152806,2.16588e-05,-0.338101,1.51551,-3.00646,0.00711076,-0.00445166,-0.000374468,0.00243828,524,345,-0.00731406,-0.0894857,156.372,123.671,156.343,123.735,6.47908e-05,5.6344e-05,0.000222898
0.124239,14.0725,-295.672,0.000405879,0.00270356,0.002234,1.75283e-05,-1.31031e-05,6.02234e-06,1.86698e-05,-1.42446e-05,0.187321,2.85905e-05,-0.265644,1.49988,-3.04215,0.0015273,-0.00470653,0.000868294,0.0023882,531,345,-0.00889403,-0.0867932,158.331,124.483,158.298,124.547,6.34206e-05,5.48299e-05,0.000217825
0.422009,14.0574,-295.595,0.000403044,0.0026829,0.00227484,2.67636e-05,-1.25406e-05,1.96407e-05,3.48957e-05,-2.06726e-05,0.392554,4.86462e-05,-0.215499,1.40916,-2.95158,-0.00484491,-0.00472533,0.00369343,0.00246135,538,345,-0.00916575,-0.0854859,160.182,125.286,160.149,125.35,6.54175e-05,5.72419e-05,0.000224512
0.718657,14.0422,-295.52,0.000404861,0.00267094,0.00224102,3.70056e-05,-1.31632e-05,3.73682e-05,5.6928e-05,-3.30856e-05,0.489804,7.88603e-05,-0.19731,1.33299,-2.80473,-0.0113872,-0.00413019,0.00987301,0.00254429,545,345,-0.00882895,-0.0854946,161.975,126.103,161.942,126.167,6.75057e-05,5.82465e-05,0.000231854
1.01483,14.0269,-295.446,0.000422731,0.00270477,0.0022947,4.94014e-05,-1.52158e-05,6.04133e-05,8.56028e-05,-5.14171e-05,0.539852,0.000119887,-0.226597,1.31736,-2.92209,-0.0210921,-0.00292526,0.0206742,0.00259959,552,345,-0.0087591,-0.0870849,163.749,126.923,163.716,126.987,6.88734e-05,5.92451e-05,0.0002366
1.31145,14.0115,-295.369,0.000459977,0.00277836,0.00222263,6.00118e-05,-2.03855e-05,9.10073e-05,0.000119303,-7.96768e-05,0.57743,0.000173457,-0.272203,1.34066,-3.16499,-0.0361936,-0.00176348,0.0356194,0.00258167,559,345,-0.00739226,-0.0910699,165.558,127.747,165.524,127.811,6.86937e-05,5.88767e-05,0.000235077
1.60816,13.9963,-295.291,0.000509444,0.00289166,0.00217379,6.25531e-05,-3.01024e-05,0.000131326,0.000155483,-0.000123033,0.615828,0.000241747,-0.246776,1.40027,-3.44204,-0.0552155,-0.00128617,0.0525982,0.00253752,566,345,-0.0058963,-0.0949697,167.383,128.554,167.348,128.62,6.80436e-05,5.93026e-05,0.000231612
1.90425,13.9813,-295.215,0.000552981,0.00295951,0.00204199,6.36997e-05,-4.33989e-05,0.0001813,0.000199193,-0.000178893,0.6418,0.000327589,-0.178665,1.45066,-3.43012,-0.0699058,-0.00213481,0.070114,0.00259506,573,345,-0.00391584,-0.0973592,169.178,129.354,169.143,129.422,7.02415e-05,6.15761e-05,0.00023781
0,0,0,0,0,0,0,0,0,0,0,0,0,0,0,0,0,0,0,-1,580,345,0,0,0,0,0,0,0,0,0
0,0,0,0,0,0,0,0,0,0,0,0,0,0,0,0,0,0,0,-1,587,345,0,0,0,0,0,0,0,0,0
0,0,0,0,0,0,0,0,0,0,0,0,0,0,0,0,0,0,0,-1,594,345,0,0,0,0,0,0,0,0,0
0,0,0,0,0,0,0,0,0,0,0,0,0,0,0,0,0,0,0,-1,601,345,0,0,0,0,0,0,0,0,0
0,0,0,0,0,0,0,0,0,0,0,0,0,0,0,0,0,0,0,-1,62,352,0,0,0,0,0,0,0,0,0
0,0,0,0,0,0,0,0,0,0,0,0,0,0,0,0,0,0,0,-1,69,352,0,0,0,0,0,0,0,0,0
0,0,0,0,0,0,0,0,0,0,0,0,0,0,0,0,0,0,0,-1,76,352,0,0,0,0,0,0,0,0,0
-18.3879,14.6936,-297.381,0.000669089,0.00287922,0.000948857,-0.00012013,-4.74207e-05,2.31333e-05,-4.06846e-05,-0.000126866,1.28745,0.000112199,-0.48564,1.43112,-3.03086,0.111634,0.00558685,-0.0515414,0.00243332,83,352,0.00504213,-0.0871507,76.021,75.8517,75.9928,75.9244,6.33466e-05,6.15383e-05,0.000223272
-18.114,14.6812,-297.415,0.000645361,0.0028432,0.00117195,-8.50831e-05,-4.03135e-05,2.98802e-05,-2.53632e-05,-0.000100033,1.10688,9.00711e-05,-0.467688,1.46951,-3.09755,0.0840968,0.00671885,-0.0251849,0.00239977,90,352,0.00271198,-0.0850588,76.5724,76.5771,76.5433,76.6498,6.26602e-05,6.0353e-05,0.000221433
-17.8375,14.6688,-297.44,0.000607719,0.00279699,0.00153386,-4.91844e-05,-3.19111e-05,3.29968e-05,-6.43936e-06,-7.46562e-05,0.913397,7.16538e-05,-0.449224,1.51082,-3.31536,0.0663764,0.0117805,-0.00816796,0.00240397,97,352,-0.00109013,-0.0831434,77.2445,77.3054,77.214,77.3775,6.25843e-05,5.94292e-05,0.000220433
-17.5589,14.6561,-297.459,0.000589942,0.00273144,0.00179108,-1.97699e-05,-2.45837e-05,3.42097e-05,1.21174e-05,-5.6471e-05,0.750277,6.34042e-05,-0.422924,1.54528,-3.51002,0.0561798,0.0179687,0.000297885,0.00245112,104,352,-0.00353615,-0.0819062,78.0154,78.0468,77.9838,78.1167,6.32512e-05,5.85838e-05,0.000221502
-17.2786,14.6434,-297.472,0.00060204,0.0026939,0.00199866,1.68304e-07,-1.93762e-05,3.30508e-05,2.48612e-05,-4.40692e-05,0.641656,6.04631e-05,-0.405696,1.57899,-3.56007,0.0513315,0.0230756,0.00310275,0.00244239,111,352,-0.00488331,-0.0822662,78.8654,78.7841,78.8321,78.8518,6.31638e-05,5.84533e-05,0.000220142
-16.9972,14.6305,-297.482,0.00065097,0.00272301,0.00204738,1.17973e-05,-1.60924e-05,2.97148e-05,3.06767e-05,-3.49718e-05,0.566009,5.68938e-05,-0.427598,1.60343,-3.36669,0.0498145,0.0262934,0.00246005,0.00238368,118,352,-0.00407564,-0.0834375,79.7658,79.5253,79.7307,79.5934,6.21987e-05,5.88812e-05,0.000216284
-16.7153,14.6175,-297.49,0.000710441,0.00276447,0.00200578,1.65757e-05,-1.36655e-05,2.54818e-05,3.10854e-05,-2.81753e-05,0.517627,5.13419e-05,-0.431694,1.59794,-3.02691,0.0512414,0.0278661,-0.000311772,0.00234402,125,352,-0.00230633,-0.085891,80.6847,80.2754,80.6482,80.3434,6.11322e-05,6.04338e-05,0.00021216
-16.4327,14.6044,-297.496,0.00078005,0.00278293,0.00194038,1.46451e-05,-1.14354e-05,2.20964e-05,2.72622e-05,-2.40524e-05,0.518825,4.44687e-05,-0.399726,1.59704,-2.87602,0.0535819,0.0283752,-0.00461392,0.00242116,132,352,-6.91675e-05,-0.0877391,81.6323,81.0243,81.5943,81.0916,6.15578e-05,6.27845e-05,0.000213855
-16.1501,14.5915,-297.502,0.000803194,0.00278601,0.00190582,9.75792e-06,-8.86212e-06,2.05844e-05,2.30398e-05,-2.2144e-05,0.573022,3.91329e-05,-0.362154,1.60575,-3.0516,0.0529672,0.0284896,-0.00797888,0.00256775,139,352,0.000804584,-0.0886044,82.5807,81.7699,82.5423,81.8366,6.47387e-05,6.62854e-05,0.000224309
-15.868,14.5783,-297.509,0.00080523,0.00278757,0.00192145,2.22039e-06,-6.79654e-06,1.93781e-05,1.76076e-05,-2.21837e-05,0.671103,3.45361e-05,-0.318,1.58289,-3.3347,0.0501526,0.0274803,-0.0112104,0.00265295,146,352,0.000807438,-0.0870449,83.4943,82.5214,83.4556,82.5895,6.6162e-05,6.72729e-05,0.000228692
-15.5863,14.5653,-297.517,0.000794405,0.00281987,0.00207002,-7.38787e-06,-5.48931e-06,1.92588e-05,1.28436e-05,-2.57208e-05,0.810024,3.40127e-05,-0.294491,1.53053,-3.62865,0.0443953,0.0258721,-0.0141203,0.00267873,153,352,-0.000596558,-0.0856011,84.3876,83.2652,84.348,83.3363,6.6004e-05,6.76663e-05,0.000228128
-15.3047,14.5522,-297.525,0.000745701,0.0028172,0.00220596,-1.97327e-05,-4.22429e-06,2.04913e-05,9.93094e-06,-3.38879e-05,0.966278,3.97939e-05,-0.263313,1.51645,-3.67841,0.0364417,0.0240007,-0.0161161,0.00260559,160,352,-0.00279034,-0.0834461,85.2733,84.0113,85.234,84.0842,6.38917e-05,6.60015e-05,0.000221431
-15.0225,14.539,-297.531,0.000661215,0.00280046,0.00246387,-3.56587e-05,-2.45673e-06,2.28017e-05,9.14704e-06,-4.72625e-05,1.10005,5.24378e-05,-0.280531,1.5161,-3.45249,0.0269597,0.0219642,-0.0170592,0.00247085,167,352,-0.00685021,-0.0821417,86.1819,84.7672,86.143,84.8405,6.15817e-05,6.3482e-05,0.000213567
-14.7393,14.5259,-297.533,0.000661549,0.00281366,0.00246715,-5.36178e-05,-1.30887e-07,2.58998e-05,1.03549e-05,-6.41036e-05,1.18611,6.9859e-05,-0.248875,1.55091,-3.1733,0.015454,0.0194092,-0.0162976,0.00235946,174,352,-0.00685964,-0.0839038,87.1444,85.5158,87.1056,85.5881,6.05339e-05,6.10179e-05,0.000210178
-14.4552,14.5127,-297.532,0.000645903,0.00284222,0.00240781,-7.07325e-05,2.23461e-06,2.88964e-05,1.22919e-05,-8.07898e-05,1.23586,8.75851e-05,-0.231719,1.58214,-2.97363,0.00232694,0.0164582,-0.013084,0.00229328,181,352,-0.00677894,-0.0860105,88.1431,86.2638,88.1051,86.3357,6.12509e-05,5.94172e-05,0.000212609
-14.1702,14.4995,-297.528,0.000636679,0.00287857,0.0023956,-8.27614e-05,4.42266e-06,3.09185e-05,1.42742e-05,-9.26129e-05,1.26234,0.000100513,-0.230612,1.57599,-2.90898,-0.00999542,0.0135205,-0.00767244,0.00231766,188,352,-0.00690305,-0.0872669,89.1837,87.013,89.146,87.0857,6.1943e-05,5.80605e-05,0.000214348
-13.8844,14.4861,-297.522,0.00062763,0.00288505,0.00245166,-8.63123e-05,6.58766e-06,3.12252e-05,1.61074e-05,-9.58321e-05,1.27487,0.000104818,-0.260008,1.56276,-2.93105,-0.0205416,0.0107143,-0.000602839,0.00225949,195,352,-0.00754417,-0.0882742,90.2648,87.7699,90.2269,87.8421,5.99721e-05,5.65574e-05,0.000207324
-13.5982,14.4729,-297.514,0.000605515,0.00290384,0.00254658,-8.39045e-05,8.60168e-06,2.91522e-05,1.70222e-05,-9.2325e-05,1.2896,0.000101908,-0.294447,1.51988,-2.80864,-0.028664,0.00851395,0.00586444,0.00221248,202,352,-0.00882029,-0.0892888,91.3662,88.518,91.3282,88.5903,5.77879e-05,5.53799e-05,0.000200012
-13.3119,14.4597,-297.505,0.000573044,0.00289761,0.00259549,-7.84562e-05,9.46135e-06,2.50987e-05,1.61219e-05,-8.51168e-05,1.3114,9.4218e-05,-0.369125,1.52663,-2.74695,-0.0328894,0.00730329,0.00971052,0.00218222,209,352,-0.00997414,-0.0904216,92.4653,89.2681,92.4279,89.339,5.58126e-05,5.58429e-05,0.000193186
-13.026,14.4463,-297.497,0.000522593,0.00290636,0.00257584,-7.13909e-05,8.12164e-06,1.9654e-05,1.27145e-05,-7.59837e-05,1.34123,8.30739e-05,-0.398121,1.54851,-2.811,-0.0325467,0.00699522,0.0107683,0.00220975,216,352,-0.0110202,-0.0907588,93.546,90.0219,93.5102,90.093,5.41176e-05,5.72933e-05,0.000187307
-12.74,14.4329,-297.488,0.000472864,0.00290563,0.00265457,-6.34804e-05,4.08422e-06,1.27524e-05,6.41103e-06,-6.58073e-05,1.39032,6.92357e-05,-0.412821,1.57806,-2.89606,-0.0302879,0.00701709,0.00998246,0.00220086,223,352,-0.0128196,-0.0911195,94.63,90.7766,94.5949,90.8473,5.35006e-05,5.7121e-05,0.000184906
-12.4537,14.4194,-297.478,0.000457694,0.00289085,0.0027925,-5.33825e-05,-1.98142e-06,4.4107e-06,-1.60569e-06,-5.37582e-05,1.48581,5.29736e-05,-0.385847,1.58524,-2.98191,-0.0278267,0.00706336,0.00831485,0.00215498,230,352,-0.0142135,-0.0911855,95.7269,91.5378,95.6913,91.6077,5.28906e-05,5.58676e-05,0.000182906
-12.1662,14.4057,-297.464,0.000441382,0.00282806,0.00292139,-4.14526e-05,-8.32069e-06,-5.21561e-06,-7.51905e-06,-4.22542e-05,-1.41829,3.90415e-05,-0.356649,1.57008,-2.97106,-0.0238179,0.007086,0.00645859,0.00203,237,352,-0.0155222,-0.0907143,96.8821,92.3109,96.846,92.378,5.13752e-05,5.25038e-05,0.000177885
-11.8788,14.3921,-297.449,0.000443384,0.00281395,0.00284374,-3.00509e-05,-1.40002e-05,-1.46874e-05,-5.28862e-06,-3.87625e-05,-1.03544,3.64075e-05,-0.313543,1.55307,-2.99807,-0.0179298,0.00702305,0.00336842,0.00203014,244,352,-0.0148175,-0.0916037,98.0331,93.0734,97.9976,93.139,5.15579e-05,5.24562e-05,0.000178795
-11.5916,14.3783,-297.435,0.000454764,0.00280227,0.00270702,-2.01093e-05,-1.8674e-05,-2.32166e-05,3.83607e-06,-4.26194e-05,-0.800848,4.46612e-05,-0.324038,1.54539,-2.94909,-0.0116776,0.00697497,-0.00121047,0.00216413,251,352,-0.0133988,-0.0913281,99.1697,93.8427,99.1349,93.9078,5.54717e-05,5.59562e-05,0.000192156
-11.3036,14.3647,-297.418,0.000424531,0.0027498,0.00242013,-1.15182e-05,-2.17204e-05,-3.0731e-05,1.45322e-05,-4.77708e-05,-0.703152,5.64575e-05,-0.348028,1.50634,-2.89597,-0.0066569,0.00702506,-0.00542015,0.0023591,258,352,-0.0117985,-0.0898248,100.347,94.6081,100.315,94.6718,6.24908e-05,5.97439e-05,0.000215698
-11.0137,14.3509,-297.395,0.000391846,0.00270005,0.00245906,-4.68006e-06,-2.29315e-05,-3.67089e-05,2.40204e-05,-5.16319e-05,-0.663569,6.69556e-05,-0.36738,1.44954,-2.81991,-0.00268982,0.00736633,-0.00775263,0.00256908,265,352,-0.0128021,-0.0885087,101.624,95.3775,101.593,95.4398,6.8655e-05,6.20437e-05,0.000236586
-10.7223,14.3371,-297.366,0.00040551,0.00269026,0.0023387,-1.14e-07,-2.1943e-05,-4.06503e-05,3.10616e-05,-5.31186e-05,-0.654243,7.37317e-05,-0.394194,1.41639,-2.87582,-0.000324009,0.00773264,-0.00781289,0.00260104,272,352,-0.0114471,-0.087208,102.978,96.1419,102.948,96.2047,6.98031e-05,6.29166e-05,0.000240644
-10.4299,14.3231,-297.333,0.000485817,0.00272138,0.00247964,1.06985e-06,-1.85164e-05,-4.23756e-05,3.47692e-05,-5.22157e-05,-0.67184,7.58345e-05,-0.445597,1.40947,-2.7992,0.000585553,0.00791272,-0.00584857,0.00250371,279,352,-0.010527,-0.0878911,104.393,96.9159,104.359,96.9797,6.73247e-05,6.19295e-05,0.000232306
-10.1354,14.3091,-297.293,0.000556331,0.00273958,0.00255047,-1.82526e-06,-1.25491e-05,-4.23399e-05,3.54909e-05,-4.98653e-05,-0.722414,7.42692e-05,-0.461744,1.44208,-2.76985,-0.000755754,0.00763608,-0.00217088,0.00237685,286,352,-0.0093086,-0.0891276,105.91,97.693,105.873,97.7567,6.24634e-05,6.1758e-05,0.000215566
-9.84046,14.2948,-297.251,0.00060828,0.00272419,0.00244353,-5.73269e-06,-4.84894e-06,-4.22621e-05,3.69736e-05,-4.75552e-05,-0.790626,7.33951e-05,-0.460331,1.47472,-2.61718,-0.00320993,0.00670871,0.00337938,0.00231053,293,352,-0.0071481,-0.0896754,107.455,98.4798,107.417,98.5421,5.64156e-05,6.00745e-05,0.000194577
-9.54459,14.2804,-297.205,0.000574192,0.00270152,0.00234153,-1.01363e-05,3.12329e-06,-4.22505e-05,3.9261e-05,-4.6274e-05,-0.863222,7.41585e-05,-0.401963,1.46179,-2.4636,-0.00192537,0.00549127,0.0102283,0.00217506,300,352,-0.007147,-0.089648,109.045,99.2776,109.01,99.3388,5.40675e-05,5.66805e-05,0.000186332
-9.25002,14.2659,-297.163,0.000550148,0.00270369,0.00231948,-1.59628e-05,1.08754e-05,-4.12601e-05,4.08437e-05,-4.59312e-05,-0.942619,7.51923e-05,-0.389123,1.4383,-2.46963,0.00365297,0.00398493,0.0179113,0.00216243,307,352,-0.00751349,-0.0891016,110.571,100.071,110.536,100.133,5.78834e-05,5.48809e-05,0.000199189
-8.95715,14.2515,-297.126,0.000566935,0.00266259,0.00233394,-2.07828e-05,1.88936e-05,-3.94781e-05,4.32377e-05,-4.51269e-05,-1.01823,7.65318e-05,-0.370986,1.45447,-2.60974,0.00990872,0.00202429,0.0254982,0.00221886,314,352,-0.00710303,-0.0877261,112.012,100.867,111.976,100.928,5.93478e-05,5.40111e-05,0.000204636
-8.66528,14.2372,-297.091,0.000550722,0.00261693,0.00226107,-2.43609e-05,2.6646e-05,-3.74029e-05,4.64129e-05,-4.41277e-05,-1.08462,7.84188e-05,-0.364238,1.47422,-2.64885,0.0148699,-0.000441585,0.030954,0.00223406,321,352,-0.00686523,-0.0872149,113.399,101.656,113.364,101.715,5.94613e-05,5.31483e-05,0.000205745
-8.37396,14.2229,-297.058,0.00052236,0.0026085,0.0021389,-2.8498e-05,3.28334e-05,-3.50554e-05,4.87431e-05,-4.44077e-05,-1.14475,8.07e-05,-0.375424,1.49647,-2.69684,0.020498,-0.00324927,0.0329047,0.00218959,328,352,-0.00659858,-0.0875873,114.758,102.445,114.725,102.504,5.81078e-05,5.28917e-05,0.000201543
-8.08217,14.2087,-297.023,0.000499119,0.002682,0.00202482,-3.28812e-05,3.60412e-05,-3.21939e-05,4.87395e-05,-4.55795e-05,-1.1951,8.1698e-05,-0.381751,1.49982,-2.81247,0.0274714,-0.00585732,0.0306694,0.00214542,335,352,-0.00635718,-0.0898401,116.145,103.224,116.113,103.284,5.69946e-05,5.37019e-05,0.000197544
-7.79024,14.1947,-296.986,0.000468161,0.00275921,0.00187039,-3.58107e-05,3.54968e-05,-2.81328e-05,4.52594e-05,-4.55733e-05,-1.23678,7.86636e-05,-0.414277,1.5145,-3.01909,0.0337902,-0.00830907,0.0248888,0.00216157,342,352,-0.0060194,-0.0925042,117.54,103.998,117.511,104.059,5.77051e-05,5.46005e-05,0.000199335
-7.4986,14.1805,-296.95,0.000492458,0.00279115,0.00191318,-3.62346e-05,3.30552e-05,-2.31269e-05,4.00651e-05,-4.32445e-05,-1.27649,7.21658e-05,-0.394608,1.5462,-3.20651,0.0385494,-0.0103805,0.0178161,0.00219657,349,352,-0.00576156,-0.0946919,118.926,104.775,118.895,104.836,5.8458e-05,5.58748e-05,0.000201545
-7.20732,14.1663,-296.914,0.000532106,0.0027661,0.00199634,-3.49482e-05,3.02083e-05,-1.78897e-05,3.4797e-05,-3.95369e-05,-1.31971,6.44187e-05,-0.31741,1.57895,-3.0672,0.0422372,-0.0114226,0.0102116,0.00223912,356,352,-0.00536805,-0.0958317,120.294,105.561,120.262,105.62,5.96357e-05,5.61695e-05,0.000205561
-6.91496,14.1519,-296.875,0.000508293,0.00270985,0.0019727,-3.46025e-05,2.74043e-05,-1.26148e-05,2.98724e-05,-3.70706e-05,-1.37758,5.8086e-05,-0.218371,1.62959,-2.95383,0.0444993,-0.0111025,0.00147268,0.00229339,363,352,-0.0057021,-0.0954444,121.719,106.354,121.688,106.41,6.12546e-05,5.72224e-05,0.000210984
-6.62083,14.1374,-296.828,0.000473471,0.00266615,0.00202899,-3.40376e-05,2.43671e-05,-7.84682e-06,2.5403e-05,-3.50735e-05,-1.43954,5.25968e-05,-0.165026,1.66788,-2.85297,0.0429596,-0.00903029,-0.00771617,0.00230857,370,352,-0.00691345,-0.0949189,123.243,107.145,123.213,107.2,6.16325e-05,5.82306e-05,0.000212438
-6.32636,14.1231,-296.78,0.000416624,0.00265004,0.00196724,-3.11697e-05,2.13624e-05,-4.42535e-06,2.17326e-05,-3.15399e-05,-1.48734,4.63952e-05,-0.150466,1.64904,-2.81895,0.0381043,-0.00522988,-0.0151146,0.00230499,377,352,-0.00781624,-0.0947425,124.787,107.931,124.759,107.985,6.11514e-05,5.84164e-05,0.000211014
-6.0329,14.1088,-296.735,0.000373868,0.00265596,0.00192888,-2.6242e-05,1.93037e-05,-1.67484e-06,1.93652e-05,-2.63035e-05,-1.53409,3.97021e-05,-0.149575,1.6283,-2.91866,0.0305871,0.000256014,-0.0196264,0.00231719,384,352,-0.00854257,-0.0939581,126.281,108.711,126.254,108.766,6.07538e-05,5.86609e-05,0.000209668
-5.74069,14.0948,-296.693,0.000336803,0.00270874,0.00197382,-1.96459e-05,1.8225e-05,1.14602e-06,1.82597e-05,-1.96806e-05,1.54057,3.28649e-05,-0.184995,1.59212,-3.02072,0.0214153,0.00728383,-0.021091,0.00228797,391,352,-0.00978939,-0.0939414,127.711,109.476,127.685,109.533,5.92057e-05,5.90061e-05,0.00020455
-5.45168,14.0808,-296.661,0.000357722,0.00277319,0.00190176,-1.42874e-05,1.85972e-05,4.83568e-06,1.92936e-05,-1.49837e-05,1.42778,2.97631e-05,-0.226466,1.55756,-3.19375,0.010011,0.0152248,-0.0204557,0.00229619,398,352,-0.00874388,-0.0947539,128.971,110.241,128.945,110.301,5.76696e-05,5.81214e-05,0.000199597
-5.16542,14.0671,-296.638,0.000436574,0.00280691,0.00182653,-1.04475e-05,1.99317e-05,8.57848e-06,2.21867e-05,-1.27025e-05,1.31374,3.05848e-05,-0.242776,1.54849,-3.15994,-0.00530862,0.023103,-0.0183682,0.00236985,405,352,-0.00621038,-0.0955532,130.085,110.994,130.057,111.055,6.00536e-05,5.77204e-05,0.000207921
-4.87881,14.0534,-296.613,0.000455359,0.00280927,0.00162023,-5.48383e-06,2.12866e-05,1.12334e-05,2.53757e-05,-9.57296e-06,1.22169,3.12808e-05,-0.188736,1.53806,-3.01011,-0.0212701,0.0298655,-0.0153269,0.00241672,412,352,-0.00417986,-0.0954621,131.218,111.747,131.19,111.808,6.24479e-05,5.74699e-05,0.000216052
-4.59137,14.0397,-296.585,0.000418467,0.00277987,0.00140746,-1.29856e-06,2.16598e-05,1.28953e-05,2.7445e-05,-7.08385e-06,1.14908,3.15884e-05,-0.173682,1.51624,-2.89747,-0.0319773,0.0349669,-0.0123898,0.00239562,419,352,-0.00347941,-0.0950223,132.395,112.502,132.371,112.562,6.29777e-05,5.7323e-05,0.000217706
-4.303,14.0257,-296.553,0.000394935,0.00274774,0.0014001,1.44801e-06,2.11922e-05,1.31813e-05,2.77885e-05,-5.14823e-06,1.10681,3.06882e-05,-0.187837,1.46013,-2.83323,-0.0353482,0.0380565,-0.00941448,0.00235724,426,352,-0.00394295,-0.0939885,133.628,113.271,133.604,113.33,6.29093e-05,5.72468e-05,0.000217243
-4.01305,14.0117,-296.515,0.000389121,0.00271324,0.00160144,4.90688e-06,2.05482e-05,1.18613e-05,2.6935e-05,-1.48001e-06,1.07685,2.77047e-05,-0.257454,1.456,-3.03065,-0.0342644,0.0391203,-0.00620581,0.0023223,433,352,-0.00548718,-0.0929681,134.952,114.037,134.927,114.096,6.13473e-05,5.67625e-05,0.000211518
-3.72062,13.9975,-296.468,0.0004244,0.00272932,0.00185571,9.32557e-06,1.96999e-05,9.68427e-06,2.54987e-05,3.52676e-06,1.03127,2.3931e-05,-0.350108,1.49594,-3.08485,-0.0328842,0.0377247,-0.00272099,0.00235909,440,352,-0.00644023,-0.0934715,136.419,114.807,136.391,114.866,6.16775e-05,5.52632e-05,0.000212421
-3.42585,13.9829,-296.412,0.00048714,0.00273838,0.00194882,1.21966e-05,1.80444e-05,7.37405e-06,2.30531e-05,7.18793e-06,0.974147,2.04306e-05,-0.417247,1.58307,-3.08574,-0.0307648,0.0341342,5.64296e-05,0.00236084,447,352,-0.00550867,-0.0935728,138.019,115.599,137.987,115.659,6.2381e-05,5.35121e-05,0.000214918
-3.12947,13.9681,-296.35,0.0005449,0.0027725,0.00194757,1.02714e-05,1.39605e-05,5.3694e-06,1.77933e-05,6.43855e-06,0.950848,1.56043e-05,-0.416361,1.61136,-2.95379,-0.0269268,0.0290679,0.00101211,0.00231912,454,352,-0.00403545,-0.0941055,139.711,116.399,139.679,116.46,6.19241e-05,5.17988e-05,0.000213612
-2.83245,13.9533,-296.284,0.000577329,0.00279426,0.00182896,5.89834e-06,8.23371e-06,3.7344e-06,1.09787e-05,3.15333e-06,0.936924,9.79063e-06,-0.412651,1.56587,-2.90498,-0.0219167,0.0225148,0.000677123,0.00233243,461,352,-0.00234596,-0.0948341,141.445,117.199,141.412,117.26,6.20044e-05,5.10262e-05,0.000214178
-2.5363,13.9386,-296.221,0.000582439,0.0027894,0.00175354,4.9789e-06,2.22248e-06,1.58886e-06,5.704e-06,1.49737e-06,0.428137,5.12218e-06,-0.433454,1.50255,-2.80713,-0.0148715,0.0152275,0.000569151,0.00239272,468,352,-0.00164251,-0.0954592,143.135,117.997,143.102,118.057,6.35271e-05,5.1854e-05,0.000219397
-2.24226,13.924,-296.164,0.00054859,0.00275626,0.00174565,6.75644e-06,-2.98266e-06,-1.02807e-06,6.86378e-06,-3.09e-06,-0.104033,8.82433e-06,-0.420442,1.50043,-2.57939,-0.00584966,0.0082424,0.00123086,0.00255663,475,352,-0.00234921,-0.0941222,144.712,118.788,144.681,118.848,6.82277e-05,5.56403e-05,0.000235371
-1.95042,13.9095,-296.115,0.000525737,0.00270807,0.00197182,6.26516e-06,-6.94716e-06,-3.89792e-06,7.32941e-06,-8.0114e-06,-0.266533,1.32899e-05,-0.403472,1.52262,-2.47945,0.00283997,0.00252386,0.000933421,0.00274938,482,352,-0.00443741,-0.0920859,146.173,119.575,146.14,119.634,7.3439e-05,6.1626e-05,0.000253078
-1.6594,13.895,-296.067,0.000520576,0.00269814,0.0022143,3.8874e-06,-1.0159e-05,-8.14655e-06,7.62021e-06,-1.38918e-05,-0.429658,1.8892e-05,-0.32984,1.51904,-2.54082,0.00883163,-0.00172681,-0.000582554,0.00294814,489,352,-0.00623211,-0.0910614,147.593,120.361,147.558,120.421,7.84358e-05,6.6121e-05,0.000270127
-1.36592,13.8809,-296.01,0.000524589,0.00274889,0.00219748,1.5076e-06,-1.20095e-05,-1.26085e-05,9.05469e-06,-1.95566e-05,-0.53937,2.53284e-05,-0.354167,1.51679,-2.71956,0.0114376,-0.00492202,-0.00185749,0.00301263,496,352,-0.00600733,-0.0918679,149.156,121.124,149.122,121.185,7.99e-05,6.82887e-05,0.000275544
-1.07044,13.8661,-295.945,0.000493515,0.00276472,0.00204342,-4.57652e-07,-1.29056e-05,-1.45822e-05,9.17327e-06,-2.25365e-05,-0.583692,2.82627e-05,-0.337962,1.4893,-2.90407,0.0106208,-0.00725182,-0.00158406,0.00295356,503,352,-0.00566183,-0.092216,150.837,121.923,150.804,121.985,7.81663e-05,6.74412e-05,0.000269652
-0.77141,13.8509,-295.866,0.000443273,0.00279144,0.00189749,-1.00355e-06,-1.25386e-05,-1.24907e-05,6.98689e-06,-2.0529e-05,-0.569109,2.47728e-05,-0.351705,1.48916,-3.02188,0.00890793,-0.00890476,0.000691926,0.00283914,510,352,-0.00587321,-0.092676,152.725,122.736,152.695,122.799,7.52558e-05,6.4854e-05,0.000259687
-0.468429,13.835,-295.773,0.000430909,0.00278488,0.00188512,1.25508e-06,-1.16126e-05,-7.27044e-06,4.52967e-06,-1.48872e-05,-0.423184,1.75949e-05,-0.357219,1.5106,-2.96496,0.00729823,-0.00992341,0.00353265,0.0026046,517,352,-0.00605901,-0.0929099,154.849,123.591,154.819,123.654,6.91045e-05,5.92383e-05,0.000238292
-0.164338,13.8197,-295.674,0.000470507,0.0027429,0.00226328,6.12299e-06,-1.02539e-05,4.79131e-08,6.12312e-06,-1.0254e-05,0.00292562,1.43326e-05,-0.317061,1.56357,-3.08987,0.00419289,-0.0108221,0.00616817,0.00243787,524,352,-0.00762004,-0.0906918,157.054,124.406,157.02,124.468,6.43071e-05,5.5961e-05,0.00022165
0.137097,13.8045,-295.584,0.000457361,0.00271966,0.00246674,1.03673e-05,-8.90687e-06,9.81779e-06,1.44874e-05,-1.30271e-05,0.397344,2.38394e-05,-0.268125,1.54751,-3.0433,-0.000859146,-0.0117319,0.00901229,0.00237542,531,352,-0.00926511,-0.0878889,159.112,125.221,159.077,125.285,6.28947e-05,5.44732e-05,0.000216229
0.434414,13.7894,-295.507,0.000413736,0.00270253,0.00238158,1.5019e-05,-8.72714e-06,2.36014e-05,2.95655e-05,-2.32737e-05,0.552349,4.58681e-05,-0.21921,1.46187,-2.93059,-0.00562339,-0.0126825,0.0132483,0.00242546,538,352,-0.00968835,-0.0869299,160.939,126.031,160.905,126.095,6.43863e-05,5.61961e-05,0.000220714
0.729683,13.7744,-295.437,0.000391376,0.00269245,0.00230804,2.15766e-05,-9.83155e-06,4.13747e-05,5.01273e-05,-3.83822e-05,0.604018,7.68761e-05,-0.221403,1.38595,-2.90194,-0.00963374,-0.013362,0.0204404,0.00251069,545,352,-0.00968787,-0.0870974,162.656,126.838,162.623,126.901,6.6566e-05,5.70004e-05,0.000228148
1.02474,13.7595,-295.367,0.000407909,0.00272909,0.00232634,3.14804e-05,-1.2339e-05,6.42614e-05,7.74645e-05,-5.8323e-05,0.621105,0.000117984,-0.273338,1.37712,-3.15767,-0.0157045,-0.0137224,0.0319747,0.00256159,552,352,-0.00942012,-0.0893792,164.37,127.641,164.337,127.704,6.78263e-05,5.78873e-05,0.000232107
1.32069,13.7443,-295.293,0.000451574,0.00281341,0.00223252,4.07936e-05,-1.7275e-05,9.43554e-05,0.000110481,-8.69622e-05,0.63614,0.000171395,-0.319082,1.38247,-3.42114,-0.0251656,-0.0142233,0.0473079,0.00255028,559,352,-0.00774011,-0.0932587,166.144,128.46,166.11,128.524,6.79368e-05,5.83807e-05,0.000231528
1.61715,13.7291,-295.216,0.000521892,0.00291185,0.00210295,4.38292e-05,-2.5439e-05,0.000132959,0.000146591,-0.000128201,0.657986,0.000238154,-0.265457,1.4097,-3.57609,-0.035761,-0.0153452,0.0643394,0.00253432,566,352,-0.00513173,-0.0966582,167.957,129.273,167.922,129.339,6.80774e-05,5.98882e-05,0.000230985
1.91284,13.7144,-295.14,0.000586463,0.00298192,0.0019082,4.88612e-05,-3.5329e-05,0.000178972,0.000190622,-0.000177089,0.669895,0.000318519,-0.177987,1.43458,-3.49755,-0.0380849,-0.0173312,0.0818455,0.00260126,573,352,-0.0021668,-0.0984667,169.734,130.062,169.699,130.13,7.01767e-05,6.24587e-05,0.000237108
0,0,0,0,0,0,0,0,0,0,0,0,0,0,0,0,0,0,0,-1,580,352,0,0,0,0,0,0,0,0,0
0,0,0,0,0,0,0,0,0,0,0,0,0,0,0,0,0,0,0,-1,587,352,0,0,0,0,0,0,0,0,0
0,0,0,0,0,0,0,0,0,0,0,0,0,0,0,0,0,0,0,-1,594,352,0,0,0,0,0,0,0,0,0
0,0,0,0,0,0,0,0,0,0,0,0,0,0,0,0,0,0,0,-1,601,352,0,0,0,0,0,0,0,0,0
0,0,0,0,0,0,0,0,0,0,0,0,0,0,0,0,0,0,0,-1,62,359,0,0,0,0,0,0,0,0,0
0,0,0,0,0,0,0,0,0,0,0,0,0,0,0,0,0,0,0,-1,69,359,0,0,0,0,0,0,0,0,0
0,0,0,0,0,0,0,0,0,0,0,0,0,0,0,0,0,0,0,-1,76,359,0,0,0,0,0,0,0,0,0
-18.4184,14.4239,-297.435,0.000678523,0.00291671,0.00111367,-0.000126378,-4.22394e-05,1.76219e-05,-3.86977e-05,-0.000129919,1.37246,0.000115538,-0.503069,1.39746,-3.00891,0.113446,-0.0110916,-0.0624256,0.0024101,83,359,0.00391297,-0.086378,74.4678,76.6781,74.4381,76.7534,6.30997e-05,6.14128e-05,0.000220933
-18.1437,14.4115,-297.466,0.000626049,0.00287667,0.00131813,-8.87346e-05,-3.71993e-05,2.31608e-05,-2.83202e-05,-9.76136e-05,1.20471,8.69829e-05,-0.492804,1.42844,-3.09375,0.0873566,-0.00628255,-0.035928,0.00239705,90,359,0.0010042,-0.0857822,75.0536,77.4044,75.024,77.4782,6.25646e-05,6.03847e-05,0.000219565
-17.8662,14.3991,-297.489,0.000559443,0.00281427,0.00166639,-5.10642e-05,-3.10177e-05,2.5894e-05,-1.32747e-05,-6.88073e-05,0.970061,6.32239e-05,-0.475426,1.46223,-3.26679,0.070149,0.00213511,-0.0184636,0.00240648,97,359,-0.00340661,-0.0848868,75.7737,78.126,75.7437,78.1974,6.17986e-05,5.99724e-05,0.000216189
-17.5864,14.3863,-297.504,0.000550305,0.0027714,0.00192248,-2.01873e-05,-2.61345e-05,2.75878e-05,4.58665e-06,-5.09085e-05,0.731711,5.33499e-05,-0.462851,1.51921,-3.45636,0.0600403,0.0110707,-0.00886667,0.00242458,104,359,-0.00565222,-0.084146,76.6002,78.8674,76.5688,78.9373,6.17718e-05,5.89293e-05,0.000215547
-17.3048,14.3735,-297.514,0.000568738,0.00274746,0.00202832,8.14753e-07,-2.33857e-05,2.74185e-05,1.86844e-05,-4.12553e-05,0.577594,5.31219e-05,-0.459586,1.57033,-3.58772,0.0550833,0.0181797,-0.00434719,0.00241023,111,359,-0.0059977,-0.0836527,77.5127,79.6097,77.48,79.6788,6.18087e-05,5.82978e-05,0.00021551
-17.0222,14.3606,-297.52,0.000647992,0.0027692,0.00200162,1.26708e-05,-2.23807e-05,2.4985e-05,2.56639e-05,-3.53739e-05,0.479549,5.30827e-05,-0.453106,1.59572,-3.44648,0.0531851,0.0226459,-0.0030913,0.00235193,118,359,-0.00380799,-0.0840255,78.4693,80.3485,78.4346,80.4184,6.12062e-05,5.79863e-05,0.000213271
-16.7394,14.3477,-297.526,0.000717472,0.00278086,0.0018887,1.66343e-05,-2.19515e-05,2.14065e-05,2.61589e-05,-3.14761e-05,0.418642,4.99842e-05,-0.439873,1.57683,-3.20004,0.0538639,0.0247994,-0.00402122,0.00228772,125,359,-0.00116498,-0.0850458,79.4332,81.0932,79.3973,81.1627,6.00877e-05,5.85685e-05,0.000209672
-16.4563,14.3347,-297.53,0.000783991,0.00275046,0.00184317,1.35722e-05,-2.14547e-05,1.85499e-05,2.15699e-05,-2.94524e-05,0.407065,4.43621e-05,-0.40551,1.58944,-3.04845,0.0553946,0.0254028,-0.00662799,0.00233868,132,359,0.000879786,-0.0859908,80.4069,81.84,80.3695,81.9071,6.05846e-05,6.03395e-05,0.00021122
-16.1733,14.3215,-297.535,0.000789938,0.00275857,0.00182065,8.201e-06,-2.03938e-05,1.75163e-05,1.65141e-05,-2.87069e-05,0.443117,3.96343e-05,-0.400079,1.60992,-3.23722,0.0543651,0.0255564,-0.00837459,0.00248004,139,359,0.00122488,-0.0870277,81.3684,82.5916,81.331,82.6581,6.31605e-05,6.31073e-05,0.000219477
-15.8909,14.3083,-297.541,0.000804453,0.00278358,0.0019624,4.12309e-07,-1.96595e-05,1.68569e-05,9.99463e-06,-2.92418e-05,0.516898,3.53163e-05,-0.385806,1.62631,-3.52528,0.0514266,0.0242627,-0.0102788,0.00258347,146,359,0.000488827,-0.0859782,82.3003,83.3438,82.2613,83.4126,6.47039e-05,6.46885e-05,0.000224019
-15.6089,14.2953,-297.548,0.000800315,0.00283951,0.00222334,-9.50945e-06,-1.91505e-05,1.70306e-05,3.36975e-06,-3.20297e-05,0.647481,3.38406e-05,-0.368863,1.58998,-3.72878,0.0453917,0.0221338,-0.0121865,0.00261294,153,359,-0.00168794,-0.0853776,83.2094,84.087,83.1685,84.1592,6.49671e-05,6.51393e-05,0.000224743
-15.3268,14.2823,-297.554,0.000779396,0.00284714,0.00244881,-2.21982e-05,-1.80061e-05,1.81372e-05,-1.8442e-06,-3.83601e-05,0.842926,3.7472e-05,-0.299269,1.58197,-3.66844,0.0368943,0.0195643,-0.0134979,0.00256359,160,359,-0.00394238,-0.0841933,84.1202,84.8293,84.0781,84.9031,6.39653e-05,6.46817e-05,0.000221629
-15.0442,14.2693,-297.559,0.00070658,0.00283881,0.00269352,-3.8175e-05,-1.5861e-05,2.01493e-05,-3.98602e-06,-5.00499e-05,1.03824,4.81807e-05,-0.273875,1.55248,-3.45758,0.0268343,0.0168577,-0.0140124,0.00244632,167,359,-0.00762142,-0.0834721,85.0467,85.5703,85.0049,85.6443,6.18026e-05,6.26443e-05,0.000214203
-14.7608,14.2562,-297.561,0.000659614,0.0028158,0.00255484,-5.57988e-05,-1.29246e-05,2.29503e-05,-2.95683e-06,-6.57666e-05,1.16106,6.43392e-05,-0.238207,1.55147,-3.27043,0.01471,0.014022,-0.013136,0.00234805,174,359,-0.00761469,-0.0843409,86.0111,86.3144,85.9717,86.3864,6.08302e-05,6.04888e-05,0.000211083
-14.4764,14.2431,-297.56,0.000602575,0.00282668,0.00234632,-7.22376e-05,-9.70816e-06,2.57605e-05,-4.62547e-07,-8.14832e-05,1.22621,8.12529e-05,-0.226667,1.56944,-3.19493,0.00114989,0.011248,-0.0101531,0.00231048,181,359,-0.00733639,-0.0857876,87.0241,87.0625,86.9878,87.1338,6.14623e-05,5.91037e-05,0.000213196
-14.1909,14.2298,-297.554,0.000599382,0.002853,0.00233865,-8.38169e-05,-6.60784e-06,2.76067e-05,2.24748e-06,-9.26723e-05,1.2604,9.38162e-05,-0.241413,1.5796,-3.14242,-0.0111472,0.00881315,-0.00517778,0.00231597,188,359,-0.0073243,-0.0861442,88.0933,87.8141,88.057,87.8863,6.23146e-05,5.85586e-05,0.000215737
-13.9043,14.2163,-297.545,0.000613477,0.00285057,0.00243615,-8.73814e-05,-3.48021e-06,2.77164e-05,4.84891e-06,-9.57105e-05,1.27887,9.82247e-05,-0.257974,1.57417,-3.09527,-0.0213823,0.00680721,0.00127429,0.00225113,195,359,-0.00770847,-0.0866131,89.2145,88.5746,89.1771,88.6463,6.05402e-05,5.67412e-05,0.000209309
-13.6173,14.203,-297.535,0.00061811,0.00287005,0.00261252,-8.48656e-05,-4.49795e-07,2.57028e-05,6.76033e-06,-9.20757e-05,1.29731,9.56353e-05,-0.284889,1.55933,-2.91088,-0.0291043,0.00569001,0.00704034,0.00219885,202,359,-0.00897579,-0.0878454,90.3511,89.3248,90.3123,89.3965,5.87218e-05,5.54632e-05,0.000203249
-13.3304,14.1898,-297.524,0.000590517,0.00287697,0.002707,-7.87015e-05,1.26803e-06,2.20833e-05,6.96098e-06,-8.43945e-05,1.3185,8.80815e-05,-0.350742,1.54777,-2.70896,-0.0329844,0.00572414,0.0102192,0.00214906,209,359,-0.0103935,-0.0898138,91.4858,90.074,91.4472,90.1443,5.64465e-05,5.51395e-05,0.000195609
-13.0438,14.1764,-297.514,0.000535675,0.00288101,0.00268249,-7.01501e-05,6.91008e-07,1.72702e-05,4.67701e-06,-7.41362e-05,1.34397,7.65818e-05,-0.397077,1.55307,-2.77714,-0.0322596,0.00649085,0.0108304,0.00217925,216,359,-0.0115287,-0.09124,92.5974,90.8301,92.5605,90.8993,5.45889e-05,5.64188e-05,0.000189331
-12.7572,14.1629,-297.504,0.000470206,0.00288667,0.00267424,-6.04492e-05,-2.63624e-06,1.10201e-05,-6.06877e-07,-6.24786e-05,1.38868,6.21773e-05,-0.432755,1.58438,-2.85131,-0.0291712,0.00728281,0.00998684,0.00216963,223,359,-0.0130332,-0.0915738,93.7087,91.5875,93.6737,91.6567,5.35397e-05,5.6265e-05,0.000185741
-12.4704,14.1494,-297.492,0.000432927,0.00289974,0.00270559,-4.87984e-05,-8.15644e-06,2.93673e-06,-7.94533e-06,-4.90095e-05,1.49903,4.55594e-05,-0.420275,1.58,-2.97077,-0.0257155,0.00773965,0.00839864,0.00214775,230,359,-0.0141553,-0.0917992,94.8313,92.3468,94.797,92.4165,5.29982e-05,5.57293e-05,0.000183553
-12.1822,14.1357,-297.476,0.00042004,0.00287202,0.00279012,-3.58851e-05,-1.42203e-05,-6.92268e-06,-1.21972e-05,-3.79082e-05,-1.28647,3.35176e-05,-0.388189,1.56399,-3.02871,-0.0211186,0.00780508,0.00671657,0.00204275,237,359,-0.0150419,-0.0908246,96.0231,93.1123,95.9886,93.1814,5.25921e-05,5.29463e-05,0.00018174
-11.8942,14.1223,-297.459,0.000405954,0.00287839,0.00262502,-2.40037e-05,-1.99412e-05,-1.69401e-05,-4.911e-06,-3.90339e-05,-0.845068,3.68248e-05,-0.333439,1.57244,-3.11954,-0.0152702,0.00740734,0.00393468,0.00203076,244,359,-0.0140646,-0.0916631,97.2012,93.865,97.1682,93.9337,5.30321e-05,5.25572e-05,0.000183273
-11.607,14.1089,-297.445,0.000429966,0.00288082,0.00255459,-1.37835e-05,-2.49171e-05,-2.63072e-05,7.53948e-06,-4.624e-05,-0.681132,5.04342e-05,-0.346986,1.58458,-3.11102,-0.00926381,0.00660308,-0.000379128,0.00212723,251,359,-0.0128712,-0.0918009,98.3433,94.6188,98.3101,94.6874,5.54297e-05,5.50064e-05,0.000191776
-11.3211,14.0956,-297.435,0.000438764,0.00283848,0.00239612,-5.14714e-06,-2.8475e-05,-3.4795e-05,1.98868e-05,-5.3509e-05,-0.623675,6.57482e-05,-0.375143,1.55892,-3.01617,-0.00422085,0.00566292,-0.00468973,0.0022702,258,359,-0.0113292,-0.0910985,99.4108,95.3654,99.3785,95.4324,6.07571e-05,5.79876e-05,0.000210047
-11.0322,14.0818,-297.415,0.000428388,0.00280242,0.00250221,1.67081e-06,-3.04537e-05,-4.17634e-05,3.03543e-05,-5.91372e-05,-0.601817,7.88267e-05,-0.384732,1.50027,-2.89487,-0.000189685,0.0048998,-0.00739315,0.00248751,265,359,-0.0123143,-0.0900315,100.64,96.136,100.607,96.2021,6.65876e-05,5.98232e-05,0.000229794
-10.7386,14.0678,-297.379,0.000439515,0.0027637,0.00246956,6.13076e-06,-3.05542e-05,-4.67344e-05,3.79934e-05,-6.24168e-05,-0.598394,8.78111e-05,-0.378589,1.44986,-2.86022,0.00184318,0.00408738,-0.00780719,0.00254954,272,359,-0.0116725,-0.0882188,102.103,96.9129,102.071,96.9786,6.85059e-05,6.10879e-05,0.000235896
-10.4427,14.0536,-297.335,0.000531508,0.00277327,0.00268648,6.95054e-06,-2.8399e-05,-4.9406e-05,4.17481e-05,-6.31966e-05,-0.613619,9.15153e-05,-0.421014,1.45261,-2.84938,0.0016489,0.00300644,-0.00610115,0.00244524,279,359,-0.0110267,-0.0885317,103.696,97.694,103.659,97.7599,6.57108e-05,6.07385e-05,0.000226482
-10.1449,14.0391,-297.284,0.000578779,0.00276589,0.00273708,3.30963e-06,-2.36756e-05,-5.00216e-05,4.16264e-05,-6.19924e-05,-0.653665,9.03125e-05,-0.412896,1.47999,-2.90497,-0.00140877,0.00154479,-0.00275539,0.0023526,286,359,-0.0102016,-0.0893474,105.387,98.4956,105.348,98.5604,6.18358e-05,6.11543e-05,0.000212934
-9.84704,14.0245,-297.233,0.000590635,0.00275796,0.0025546,-1.90689e-06,-1.70169e-05,-5.00344e-05,4.11397e-05,-6.00635e-05,-0.710466,8.81538e-05,-0.425295,1.52247,-2.92507,-0.00574969,-0.000270611,0.00198105,0.00229587,293,359,-0.00845096,-0.0896648,107.082,99.2989,107.045,99.363,5.55692e-05,5.98921e-05,0.000191615
-9.5517,14.0102,-297.189,0.00055016,0.00271799,0.00243176,-7.89287e-06,-9.70621e-06,-4.96223e-05,4.08311e-05,-5.84302e-05,-0.776263,8.6412e-05,-0.391055,1.50052,-2.80834,-0.00602575,-0.00187593,0.00763738,0.00217544,300,359,-0.0084342,-0.089497,108.646,100.09,108.611,100.153,5.49807e-05,5.67325e-05,0.000189247
-9.25831,13.9962,-297.15,0.000524684,0.0027078,0.0023645,-1.55075e-05,-2.3796e-06,-4.81036e-05,3.96058e-05,-5.74929e-05,-0.853207,8.45642e-05,-0.37331,1.45744,-2.69158,-0.00141978,-0.00327792,0.0142203,0.00221277,307,359,-0.00848073,-0.088854,110.111,100.865,110.076,100.927,5.96354e-05,5.49668e-05,0.000205091
-8.96588,13.9821,-297.115,0.000543974,0.00265611,0.00233835,-2.23148e-05,5.37823e-06,-4.56983e-05,3.92817e-05,-5.62183e-05,-0.932501,8.31379e-05,-0.356339,1.43712,-2.76252,0.00450299,-0.00450432,0.0211607,0.00228627,314,359,-0.00769505,-0.0875937,111.529,101.642,111.494,101.703,6.13424e-05,5.41635e-05,0.000211431
-8.674,13.968,-297.08,0.000537498,0.00260732,0.0022729,-2.74954e-05,1.30904e-05,-4.26945e-05,4.00693e-05,-5.44743e-05,-1.00725,8.21933e-05,-0.342735,1.45204,-2.73119,0.00971823,-0.00556899,0.0265228,0.00228285,321,359,-0.00726857,-0.0870245,112.918,102.423,112.884,102.482,6.09209e-05,5.30586e-05,0.000210761
-8.38215,13.9538,-297.045,0.00054609,0.0026098,0.00221689,-3.22303e-05,1.9685e-05,-3.92098e-05,4.07508e-05,-5.32961e-05,-1.07779,8.16882e-05,-0.356982,1.4882,-2.76708,0.0160447,-0.00642387,0.0288051,0.00224405,328,359,-0.00658796,-0.0872988,114.308,103.209,114.274,103.267,5.97744e-05,5.31381e-05,0.000207275
-8.08927,13.9396,-297.006,0.000548829,0.00269,0.00218145,-3.6254e-05,2.396e-05,-3.51912e-05,4.01655e-05,-5.24595e-05,-1.13925,8.04508e-05,-0.378554,1.53144,-2.91885,0.0241703,-0.00687836,0.0274209,0.00218332,335,359,-0.0062836,-0.0889638,115.754,103.991,115.72,104.052,5.82846e-05,5.3317e-05,0.000202112
-7.79566,13.9253,-296.964,0.000520397,0.00275643,0.00202473,-3.87383e-05,2.51996e-05,-3.04403e-05,3.73738e-05,-5.09126e-05,-1.19034,7.67574e-05,-0.427584,1.56418,-3.09698,0.0317915,-0.0071824,0.0228048,0.00217806,342,359,-0.00585709,-0.0916724,117.239,104.773,117.207,104.835,5.82942e-05,5.35808e-05,0.000201705
-7.50182,13.9111,-296.921,0.000521768,0.0027996,0.00194061,-3.92047e-05,2.49513e-05,-2.53997e-05,3.37896e-05,-4.8043e-05,-1.23593,7.12266e-05,-0.423736,1.59716,-3.22225,0.0376986,-0.00718963,0.0169319,0.00220325,349,359,-0.00523724,-0.0947683,118.741,105.555,118.709,105.616,5.8741e-05,5.43583e-05,0.000202832
-7.20962,13.8971,-296.882,0.000533002,0.00278954,0.00191851,-3.8216e-05,2.43201e-05,-2.04476e-05,3.04124e-05,-4.43083e-05,-1.28122,6.5082e-05,-0.35949,1.62708,-3.04445,0.0424196,-0.00636376,0.0104667,0.00223099,356,359,-0.00478793,-0.0967978,120.158,106.328,120.127,106.387,5.95315e-05,5.51331e-05,0.000205507
-6.9186,13.8832,-296.847,0.000509465,0.0027545,0.00190127,-3.82941e-05,2.36384e-05,-1.56365e-05,2.73623e-05,-4.20181e-05,-1.33699,6.05304e-05,-0.247123,1.64767,-2.82577,0.0456436,-0.00470213,0.00287702,0.0022646,363,359,-0.00519606,-0.0973292,121.514,107.097,121.483,107.154,6.05545e-05,5.60739e-05,0.000208923
-6.62694,13.869,-296.809,0.000466986,0.00268937,0.00197268,-3.86617e-05,2.28423e-05,-1.14884e-05,2.49182e-05,-4.07375e-05,-1.39203,5.74071e-05,-0.183753,1.65684,-2.66279,0.045097,-0.00207928,-0.00534789,0.00230783,370,359,-0.00668913,-0.0962652,122.907,107.877,122.877,107.931,6.18168e-05,5.74607e-05,0.000213126
-6.33359,13.8549,-296.764,0.000405041,0.00265058,0.00191394,-3.70484e-05,2.21469e-05,-8.7841e-06,2.34229e-05,-3.83244e-05,-1.42654,5.39913e-05,-0.17553,1.64399,-2.65118,0.0413406,0.00154822,-0.012363,0.00231744,377,359,-0.00770907,-0.0951312,124.391,108.652,124.364,108.706,6.16977e-05,5.80943e-05,0.000212638
-6.04066,13.8407,-296.72,0.000343975,0.00265586,0.00185871,-3.31095e-05,2.21517e-05,-6.75221e-06,2.29647e-05,-3.39226e-05,-1.45096,4.95696e-05,-0.182956,1.6305,-2.79286,0.0347127,0.00654203,-0.0170533,0.00229314,384,359,-0.00875509,-0.0937467,125.856,109.43,125.83,109.485,6.04549e-05,5.79979e-05,0.000208464
-5.74824,13.8265,-296.678,0.000329977,0.00273051,0.0019482,-2.69472e-05,2.27406e-05,-4.49794e-06,2.31445e-05,-2.73511e-05,-1.48124,4.37811e-05,-0.204443,1.60379,-2.90913,0.0256437,0.0129141,-0.018917,0.0022582,391,359,-0.00976915,-0.0936998,127.3,110.204,127.273,110.263,5.88716e-05,5.85611e-05,0.00020324
-5.4579,13.8125,-296.642,0.000350739,0.00280143,0.00190332,-2.1663e-05,2.44757e-05,-1.11609e-06,2.45026e-05,-2.169e-05,-1.54663,4.00287e-05,-0.228895,1.59997,-3.11256,0.013513,0.0201257,-0.0184929,0.0022967,398,359,-0.00893397,-0.0945501,128.633,110.973,128.606,111.034,5.75714e-05,5.86973e-05,0.000199136
-5.16985,13.7986,-296.612,0.00042166,0.00281659,0.00182661,-1.82174e-05,2.69924e-05,2.92144e-06,2.71804e-05,-1.84054e-05,1.50653,3.97216e-05,-0.249685,1.59635,-3.0914,-0.00290417,0.0270889,-0.0164378,0.00235045,405,359,-0.00657478,-0.0951952,129.845,111.734,129.816,111.796,5.90995e-05,5.87301e-05,0.000204553
-4.88241,13.7848,-296.585,0.00046154,0.00278029,0.00170046,-1.40824e-05,2.94971e-05,6.65447e-06,3.04906e-05,-1.50759e-05,1.4226,4.02074e-05,-0.220106,1.56147,-2.97484,-0.0196881,0.0329562,-0.0135641,0.00237083,412,359,-0.00457457,-0.0946089,131.024,112.495,130.996,112.555,6.07716e-05,5.85442e-05,0.00021022
-4.59462,13.7711,-296.555,0.00043899,0.00271279,0.0015402,-1.02768e-05,3.08795e-05,9.90458e-06,3.31391e-05,-1.25364e-05,1.3465,4.08754e-05,-0.205132,1.49264,-2.82626,-0.0307602,0.0373138,-0.0109225,0.00236669,419,359,-0.00385538,-0.0931492,132.223,113.25,132.197,113.308,6.21296e-05,5.84036e-05,0.000214718
-4.30583,13.7572,-296.522,0.000415838,0.00266777,0.00152194,-6.90786e-06,3.10738e-05,1.19081e-05,3.44985e-05,-1.03325e-05,1.29076,4.06615e-05,-0.234647,1.42069,-2.80948,-0.0346121,0.0398449,-0.00814318,0.00233566,426,359,-0.00420417,-0.0914092,133.48,114.014,133.454,114.072,6.23931e-05,5.78893e-05,0.000215398
-4.01522,13.7432,-296.482,0.000402912,0.00264187,0.00171236,-1.92492e-06,3.043e-05,1.24628e-05,3.46739e-05,-6.16879e-06,1.24259,3.81343e-05,-0.287585,1.42661,-2.95705,-0.0344727,0.0404559,-0.00489421,0.00236315,433,359,-0.00585424,-0.0905997,134.842,114.782,134.816,114.839,6.27393e-05,5.66257e-05,0.00021632
-3.72251,13.729,-296.434,0.000441941,0.00268002,0.00184319,4.34716e-06,2.9119e-05,1.22359e-05,3.41437e-05,-6.77528e-07,1.18114,3.44875e-05,-0.363067,1.50965,-2.96578,-0.0340387,0.0387598,-0.00111406,0.00237597,440,359,-0.00583675,-0.0917177,136.325,115.553,136.296,115.61,6.30813e-05,5.45366e-05,0.00021744
-3.42826,13.7147,-296.379,0.000507009,0.00270762,0.00188432,9.25994e-06,2.69181e-05,1.20788e-05,3.30507e-05,3.12737e-06,1.101,3.16033e-05,-0.42799,1.61008,-2.93702,-0.0322065,0.0349821,0.00198048,0.00235451,447,359,-0.00449991,-0.0927708,137.897,116.335,137.866,116.393,6.27164e-05,5.26598e-05,0.000216234
-3.13275,13.7002,-296.32,0.000556967,0.00275492,0.00183028,9.70007e-06,2.24701e-05,1.20283e-05,2.9703e-05,2.46712e-06,1.0294,2.85496e-05,-0.440733,1.63367,-2.87281,-0.0282961,0.029556,0.00320105,0.00227728,454,359,-0.00286992,-0.0942958,139.543,117.12,139.511,117.18,6.08138e-05,5.14059e-05,0.000209851
-2.83658,13.6856,-296.257,0.000564558,0.00278308,0.00166333,7.90241e-06,1.6647e-05,1.16133e-05,2.46838e-05,-1.34401e-07,0.965436,2.47513e-05,-0.445418,1.58769,-2.93624,-0.023497,0.022619,0.00301733,0.00226996,461,359,-0.00147105,-0.0954987,141.229,117.915,141.198,117.975,6.03606e-05,5.12335e-05,0.000208432
-2.54071,13.6708,-296.195,0.000542399,0.0028054,0.00163245,9.58214e-06,1.05859e-05,1.01746e-05,2.0271e-05,-1.02964e-07,0.810041,2.03227e-05,-0.452403,1.51578,-2.86151,-0.0167453,0.0149478,0.00286416,0.0023415,468,359,-0.00179802,-0.0963573,142.904,118.713,142.874,118.773,6.23746e-05,5.1891e-05,0.000215286
-2.24558,13.6562,-296.134,0.000492234,0.00278416,0.00174533,1.35473e-05,5.03799e-06,8.01524e-06,1.83671e-05,2.1816e-07,0.541399,1.8259e-05,-0.441315,1.48897,-2.6707,-0.00787054,0.0076362,0.00320545,0.00251582,475,359,-0.00379971,-0.0952445,144.544,119.506,144.514,119.566,6.72155e-05,5.50813e-05,0.000231759
-1.95161,13.6418,-296.077,0.00048115,0.00271465,0.00206797,1.44929e-05,6.55396e-07,5.37697e-06,1.63366e-05,-1.18833e-06,0.33033,1.6962e-05,-0.43803,1.4789,-2.57331,0.00061741,0.00155705,0.00254694,0.00269561,482,359,-0.00627162,-0.0930748,146.128,120.291,146.096,120.349,7.20328e-05,6.0094e-05,0.000248181
-1.65753,13.6274,-296.018,0.000483018,0.00268943,0.00236757,1.25791e-05,-2.88643e-06,1.06282e-06,1.26518e-05,-2.95912e-06,0.068294,1.43618e-05,-0.386685,1.4797,-2.65189,0.0061281,-0.00328368,0.000849787,0.00286285,489,359,-0.00827636,-0.0914432,147.724,121.074,147.689,121.133,7.62733e-05,6.38947e-05,0.000262781
-1.3633,13.6129,-295.959,0.000493343,0.00273667,0.00243206,9.47597e-06,-5.2151e-06,-3.66682e-06,1.03403e-05,-6.07946e-06,-0.2315,1.43787e-05,-0.38553,1.47939,-2.81951,0.0079895,-0.00705965,-0.00047708,0.00300091,496,359,-0.0084553,-0.0916034,149.333,121.855,149.297,121.916,7.96902e-05,6.71584e-05,0.000274978
-1.06654,13.5979,-295.889,0.000471424,0.00276487,0.0022848,5.84354e-06,-6.7826e-06,-5.96529e-06,8.21606e-06,-9.15512e-06,-0.37854,1.50512e-05,-0.316067,1.48079,-2.92164,0.00653584,-0.00968267,-0.000163148,0.00294306,503,359,-0.00793286,-0.0920776,151.088,122.669,151.054,122.731,7.80531e-05,6.54105e-05,0.000269388
-0.76607,13.5827,-295.805,0.000442268,0.00279938,0.00211523,2.93843e-06,-7.30345e-06,-4.30374e-06,4.50675e-06,-8.87177e-06,-0.349453,1.17899e-05,-0.327372,1.47807,-3.02988,0.00468452,-0.0113403,0.002333,0.00270142,510,359,-0.00746583,-0.0935119,153.061,123.487,153.029,123.55,7.18983e-05,5.98086e-05,0.000248005
-0.461224,13.5669,-295.705,0.000451196,0.00279631,0.00209675,2.50212e-06,-7.2892e-06,3.40393e-07,2.51393e-06,-7.30102e-06,0.0347089,8.83057e-06,-0.351607,1.50352,-3.05414,0.00305061,-0.0122918,0.00585401,0.00248227,517,359,-0.00706663,-0.0936839,155.297,124.333,155.265,124.396,6.58305e-05,5.59951e-05,0.000227016
-0.155763,13.552,-295.601,0.000485387,0.00278808,0.00228286,4.5338e-06,-6.69464e-06,6.97228e-06,7.87124e-06,-1.00321e-05,0.44644,1.55423e-05,-0.330211,1.53913,-3.05442,7.90875e-05,-0.0132715,0.00960161,0.0024191,524,359,-0.00743248,-0.0920149,157.582,125.137,157.548,125.2,6.39144e-05,5.52341e-05,0.000220303
0.146226,13.5367,-295.508,0.000499108,0.0027994,0.00241152,4.48132e-06,-6.27687e-06,1.64842e-05,1.64419e-05,-1.82374e-05,0.627686,3.00466e-05,-0.286386,1.55786,-2.8825,-0.00453027,-0.014242,0.0133989,0.00240423,531,359,-0.00791065,-0.0902199,159.677,125.956,159.64,126.022,6.38521e-05,5.43719e-05,0.00021977
0.444363,13.5215,-295.429,0.000446616,0.00277601,0.00230366,4.83173e-06,-6.95251e-06,2.97698e-05,2.92869e-05,-3.14077e-05,0.687699,5.25737e-05,-0.23211,1.50793,-2.78067,-0.00779981,-0.01553,0.0184503,0.00241492,538,359,-0.00840293,-0.0895709,161.554,126.775,161.52,126.841,6.43256e-05,5.47702e-05,0.000220657
0.739067,13.5066,-295.361,0.000429502,0.0027262,0.00226868,8.00748e-06,-8.93766e-06,4.6577e-05,4.68763e-05,-4.78064e-05,0.69543,8.19989e-05,-0.247257,1.46204,-2.90298,-0.00956166,-0.0169719,0.0261636,0.0024435,545,359,-0.00851374,-0.0894698,163.242,127.583,163.209,127.646,6.50599e-05,5.52325e-05,0.000222556
1.03347,13.4919,-295.293,0.000424269,0.00274559,0.00222729,1.56632e-05,-1.22352e-05,6.78865e-05,7.10188e-05,-6.75908e-05,0.68407,0.000120052,-0.284989,1.45291,-3.1796,-0.0124026,-0.0185541,0.0379968,0.00250593,552,359,-0.00836981,-0.0917257,164.921,128.381,164.888,128.442,6.65441e-05,5.67636e-05,0.000226986
1.32853,13.4769,-295.221,0.000450752,0.00281953,0.00211505,2.39228e-05,-1.73128e-05,9.56214e-05,0.000101124,-9.45139e-05,0.679214,0.00016946,-0.33344,1.42501,-3.49555,-0.0167768,-0.0205837,0.0533393,0.00251428,559,359,-0.00697281,-0.0947333,166.646,129.189,166.614,129.252,6.70367e-05,5.81198e-05,0.00022768
1.62362,13.4621,-295.149,0.000496355,0.00291519,0.00192208,2.78008e-05,-2.4334e-05,0.000130362,0.000134676,-0.000131209,0.686719,0.00023027,-0.276333,1.41666,-3.51647,-0.0198684,-0.0233491,0.0700737,0.00255421,566,359,-0.00452498,-0.0970154,168.382,129.986,168.349,130.051,6.83635e-05,6.03973e-05,0.000231292
1.91692,13.4478,-295.082,0.000560155,0.00295697,0.00176982,3.69924e-05,-3.14272e-05,0.000170405,0.000176588,-0.000171023,0.686337,0.000301053,-0.206009,1.43013,-3.3638,-0.0115036,-0.0266143,0.0872827,0.00263442,573,359,-0.00184121,-0.0978446,170.022,130.759,169.989,130.826,7.07308e-05,6.33156e-05,0.000238462
0,0,0,0,0,0,0,0,0,0,0,0,0,0,0,0,0,0,0,-1,580,359,0,0,0,0,0,0,0,0,0
0,0,0,0,0,0,0,0,0,0,0,0,0,0,0,0,0,0,0,-1,587,359,0,0,0,0,0,0,0,0,0
0,0,0,0,0,0,0,0,0,0,0,0,0,0,0,0,0,0,0,-1,594,359,0,0,0,0,0,0,0,0,0
0,0,0,0,0,0,0,0,0,0,0,0,0,0,0,0,0,0,0,-1,601,359,0,0,0,0,0,0,0,0,0
0,0,0,0,0,0,0,0,0,0,0,0,0,0,0,0,0,0,0,-1,62,366,0,0,0,0,0,0,0,0,0
0,0,0,0,0,0,0,0,0,0,0,0,0,0,0,0,0,0,0,-1,69,366,0,0,0,0,0,0,0,0,0
0,0,0,0,0,0,0,0,0,0,0,0,0,0,0,0,0,0,0,-1,76,366,0,0,0,0,0,0,0,0,0
-18.4474,14.1541,-297.484,0.000688489,0.00287827,0.00130367,-0.000129157,-3.3858e-05,1.03288e-05,-3.27514e-05,-0.000130263,1.46406,0.000117366,-0.445615,1.41689,-2.86484,0.116153,-0.025474,-0.0731666,0.00251354,83,366,0.00261512,-0.0863597,72.9857,77.5076,72.9545,77.581,6.48078e-05,6.41331e-05,0.00022568
-18.1718,14.1417,-297.513,0.00062062,0.00283665,0.00144895,-8.95807e-05,-3.06999e-05,1.57472e-05,-2.6753e-05,-9.35276e-05,1.32521,8.34325e-05,-0.434633,1.4283,-3.08121,0.0902824,-0.0177575,-0.0461586,0.00250352,90,366,-0.000189669,-0.0862898,73.6142,78.2331,73.5841,78.3043,6.48672e-05,6.33049e-05,0.000226203
-17.8935,14.1293,-297.533,0.000544092,0.00279835,0.00175036,-5.06584e-05,-2.67104e-05,1.8988e-05,-1.62362e-05,-6.11325e-05,1.06671,5.48474e-05,-0.430076,1.45841,-3.31591,0.0728214,-0.0066095,-0.0281022,0.00246924,97,366,-0.00448615,-0.0861841,74.3705,78.953,74.3406,79.0224,6.33194e-05,6.22536e-05,0.000220554
-17.6132,14.1165,-297.547,0.00052483,0.00279144,0.00196448,-1.88493e-05,-2.43561e-05,2.18256e-05,3.95887e-07,-4.36013e-05,0.722652,4.38005e-05,-0.438925,1.52975,-3.53199,0.0624046,0.00460851,-0.0173501,0.0024489,104,366,-0.00667199,-0.0862454,75.2197,79.6933,75.1888,79.7623,6.27297e-05,6.08673e-05,0.000218316
-17.3313,14.1036,-297.556,0.000547747,0.00279284,0.00206243,2.81673e-06,-2.42326e-05,2.31158e-05,1.60737e-05,-3.74895e-05,0.520709,4.7607e-05,-0.444029,1.58385,-3.67157,0.0571865,0.0134176,-0.0111265,0.0024003,111,366,-0.0068532,-0.0855898,76.145,80.433,76.1127,80.5026,6.2034e-05,5.93533e-05,0.000216728
-17.0482,14.0907,-297.561,0.000614612,0.00281714,0.00198259,1.46776e-05,-2.58056e-05,2.19277e-05,2.42781e-05,-3.5406e-05,0.412681,5.19866e-05,-0.442239,1.59547,-3.56098,0.0549844,0.0189562,-0.00795317,0.00230819,118,366,-0.00451828,-0.0851698,77.1238,81.1723,77.09,81.2435,6.10585e-05,5.75316e-05,0.000213389
-16.7647,14.0778,-297.565,0.00068849,0.00282412,0.00186532,1.77198e-05,-2.78502e-05,1.91664e-05,2.4709e-05,-3.48394e-05,0.349677,5.18186e-05,-0.419283,1.56459,-3.33362,0.0551454,0.021573,-0.00707959,0.00222558,125,366,-0.00170872,-0.0852067,78.1203,81.9073,78.0852,81.9789,5.92734e-05,5.62326e-05,0.000207738
-16.4809,14.0651,-297.567,0.000758901,0.00278275,0.00184494,1.34355e-05,-2.97071e-05,1.68165e-05,1.9216e-05,-3.54875e-05,0.331082,4.80681e-05,-0.407543,1.5644,-3.21708,0.0561595,0.0221319,-0.00810068,0.00221993,132,366,0.000248216,-0.0854533,79.1275,82.6423,79.0906,82.7114,5.91558e-05,5.6728e-05,0.000207025
-16.1975,14.052,-297.571,0.000770186,0.00280102,0.00183542,7.34622e-06,-3.08171e-05,1.6193e-05,1.3291e-05,-3.67619e-05,0.351845,4.49076e-05,-0.416175,1.58832,-3.43298,0.0549083,0.0220695,-0.00838355,0.00233685,139,366,0.000610703,-0.0866221,80.1116,83.3867,80.0745,83.4557,6.10932e-05,5.91423e-05,0.000212793
-15.9146,14.0388,-297.576,0.00076511,0.00282628,0.00195487,-9.09915e-07,-3.2172e-05,1.58418e-05,5.71422e-06,-3.87962e-05,0.396048,4.19462e-05,-0.405774,1.62306,-3.66874,0.0520502,0.0204003,-0.00907213,0.00244921,146,366,-0.000436368,-0.0859916,81.0649,84.1411,81.027,84.2119,6.28583e-05,6.09463e-05,0.000218169
-15.632,14.0255,-297.581,0.000782591,0.00285156,0.0022389,-1.13403e-05,-3.32771e-05,1.5996e-05,-2.9134e-06,-4.1704e-05,0.484867,4.03263e-05,-0.384448,1.60734,-3.7947,0.0460255,0.0177488,-0.0100304,0.00251664,153,366,-0.00225345,-0.0854943,82.0008,84.893,81.9602,84.9657,6.37257e-05,6.25404e-05,0.000221029
-15.3492,14.0123,-297.585,0.000789131,0.00285823,0.00251169,-2.45558e-05,-3.31443e-05,1.66853e-05,-1.16211e-05,-4.60791e-05,0.659448,4.15072e-05,-0.314856,1.58321,-3.68601,0.0373017,0.0144685,-0.0107081,0.00249309,160,366,-0.00421036,-0.0842151,82.9458,85.6428,82.903,85.717,6.33498e-05,6.285e-05,0.000220274
-15.0657,13.9994,-297.587,0.000732297,0.00281724,0.00267774,-4.07686e-05,-3.15011e-05,1.81549e-05,-1.7398e-05,-5.48718e-05,0.910348,4.8569e-05,-0.263111,1.54412,-3.44142,0.0269208,0.0110596,-0.010864,0.00240547,167,366,-0.0068401,-0.0832468,83.9186,86.3827,83.8762,86.4557,6.16337e-05,6.16785e-05,0.000214499
-14.7818,13.9864,-297.588,0.000679356,0.002766,0.00255337,-5.82978e-05,-2.87061e-05,2.04235e-05,-1.82821e-05,-6.87217e-05,1.09887,6.16484e-05,-0.243384,1.51367,-3.33516,0.0143711,0.00788565,-0.00989892,0.00231774,174,366,-0.00705349,-0.0829505,84.907,87.1217,84.8671,87.1922,6.08705e-05,5.95707e-05,0.000211904
-14.4969,13.9733,-297.585,0.000596994,0.00275669,0.00232234,-7.436e-05,-2.51791e-05,2.28365e-05,-1.62107e-05,-8.33284e-05,1.19658,7.65218e-05,-0.237141,1.50496,-3.36038,0.000472741,0.00525432,-0.00707977,0.00232832,181,366,-0.00718994,-0.0835913,85.9425,87.8649,85.9066,87.9343,6.1902e-05,5.87022e-05,0.000214834
-14.211,13.9601,-297.579,0.000587356,0.00278578,0.00230831,-8.56569e-05,-2.14037e-05,2.43542e-05,-1.3216e-05,-9.38446e-05,1.24647,8.79842e-05,-0.253397,1.51642,-3.35654,-0.0118969,0.00332882,-0.00242022,0.00234941,188,366,-0.00728837,-0.0839542,87.0292,88.6133,86.9936,88.6839,6.26965e-05,5.82022e-05,0.000217408
-13.924,13.9466,-297.568,0.000614846,0.00281048,0.00245732,-8.91988e-05,-1.72583e-05,2.41414e-05,-9.90802e-06,-9.65491e-05,1.27525,9.19961e-05,-0.250498,1.51118,-3.29101,-0.0220537,0.00224789,0.00356404,0.00228979,195,366,-0.00777394,-0.0847276,88.17,89.3745,88.1324,89.4457,6.10355e-05,5.63116e-05,0.000211626
-13.6367,13.9331,-297.557,0.000636539,0.00284211,0.0027006,-8.65096e-05,-1.29327e-05,2.2096e-05,-6.80697e-06,-9.26353e-05,1.30036,8.94263e-05,-0.271591,1.51807,-3.11798,-0.0295918,0.0024135,0.00876522,0.00223239,202,366,-0.00917085,-0.0865977,89.3261,90.131,89.2862,90.2022,5.95503e-05,5.51397e-05,0.000206663
-13.3491,13.9199,-297.544,0.000617611,0.00285772,0.00288466,-7.96394e-05,-9.83643e-06,1.88044e-05,-5.09302e-06,-8.43829e-05,1.3237,8.19551e-05,-0.308303,1.50245,-2.83421,-0.0332838,0.00392335,0.0113994,0.0021568,209,366,-0.0111021,-0.0893411,90.4931,90.8784,90.4524,90.9481,5.77511e-05,5.4508e-05,0.000200639
-13.0617,13.9065,-297.532,0.00056309,0.00287025,0.00289743,-6.97196e-05,-8.95083e-06,1.45861e-05,-5.63112e-06,-7.30393e-05,1.34701,7.03929e-05,-0.369935,1.50786,-2.90827,-0.0323401,0.00612563,0.0117013,0.00215556,216,366,-0.012543,-0.0916348,91.647,91.6359,91.6078,91.7041,5.60774e-05,5.56271e-05,0.00019474
-12.774,13.8929,-297.518,0.000478978,0.00289211,0.00281493,-5.82951e-05,-1.07341e-05,9.06146e-06,-9.06614e-06,-5.99631e-05,1.38877,5.59833e-05,-0.424211,1.5175,-2.92154,-0.0286325,0.00813837,0.0109215,0.00216359,223,366,-0.0139366,-0.0923533,92.8091,92.3965,92.7729,92.4652,5.53464e-05,5.61229e-05,0.000191935
-12.486,13.8794,-297.502,0.000416675,0.00292735,0.0027063,-4.49638e-05,-1.4828e-05,1.4817e-06,-1.47553e-05,-4.50364e-05,1.52179,3.97678e-05,-0.435323,1.53291,-3.02809,-0.0243788,0.00946775,0.00957669,0.00216604,230,366,-0.0146004,-0.0931433,93.9927,93.1547,93.9589,93.2245,5.5096e-05,5.63735e-05,0.000190146
-12.1965,13.8658,-297.482,0.000383104,0.00293504,0.0026359,-3.08356e-05,-1.98289e-05,-8.25383e-06,-1.54119e-05,-3.52525e-05,-1.07943,3.06098e-05,-0.40549,1.52861,-3.13006,-0.019283,0.00994875,0.0082197,0.00209462,237,366,-0.0148057,-0.0921819,95.2491,93.9119,95.2166,93.9829,5.47186e-05,5.40014e-05,0.000188068
-11.9074,13.8525,-297.462,0.000380752,0.00293779,0.00249007,-1.82415e-05,-2.49353e-05,-1.84199e-05,-2.86696e-06,-4.03099e-05,-0.695528,3.89556e-05,-0.357112,1.57302,-3.28908,-0.0133866,0.00947256,0.00585522,0.00207212,244,366,-0.0136755,-0.0923597,96.4846,94.6573,96.4531,94.7283,5.47258e-05,5.30694e-05,0.000188103
-11.6197,13.8393,-297.447,0.000419266,0.00294128,0.00244872,-7.56813e-06,-2.96579e-05,-2.82204e-05,1.16917e-05,-4.89178e-05,-0.598871,5.56919e-05,-0.356779,1.60233,-3.25668,-0.00746371,0.008051,0.0019107,0.00209645,251,366,-0.0123463,-0.0921658,97.6482,95.3972,97.6159,95.4686,5.53429e-05,5.39241e-05,0.000190854
-11.332,13.826,-297.431,0.00048338,0.00291169,0.00240451,1.2392e-06,-3.33982e-05,-3.73384e-05,2.50799e-05,-5.72388e-05,-0.56825,7.3081e-05,-0.370642,1.59154,-3.10738,-0.00228235,0.00613787,-0.00236043,0.00215742,258,366,-0.0103437,-0.0919651,98.8159,96.1444,98.7821,96.2143,5.79459e-05,5.50979e-05,0.000200363
-11.0423,13.8123,-297.408,0.000489319,0.00288549,0.00250292,8.07352e-06,-3.5981e-05,-4.50062e-05,3.61538e-05,-6.40612e-05,-0.557822,8.79033e-05,-0.366338,1.52595,-2.95355,0.00192159,0.00421016,-0.00528374,0.00227674,265,366,-0.0108757,-0.091147,100.082,96.9082,100.047,96.9775,6.1076e-05,5.61245e-05,0.00021132
-10.7479,13.7983,-297.369,0.000510987,0.00284851,0.00258957,1.22936e-05,-3.70145e-05,-5.08024e-05,4.41082e-05,-6.88291e-05,-0.559492,9.85846e-05,-0.341833,1.46403,-2.87905,0.00378824,0.00215065,-0.00598615,0.00236882,272,366,-0.0108932,-0.0892033,101.596,97.6872,101.56,97.7563,6.35684e-05,5.75365e-05,0.000219277
-10.4501,13.7839,-297.32,0.000545563,0.00283489,0.00271399,1.2532e-05,-3.59481e-05,-5.43256e-05,4.77801e-05,-7.11963e-05,-0.575554,0.0001037,-0.371489,1.46678,-2.89929,0.00279246,-0.00019541,-0.00460898,0.00232124,279,366,-0.0109339,-0.089186,103.283,98.4816,103.245,98.55,6.23493e-05,5.83373e-05,0.000214909
-10.1513,13.7691,-297.266,0.000538052,0.00278627,0.0027095,7.98056e-06,-3.23256e-05,-5.56014e-05,4.69685e-05,-7.13136e-05,-0.611534,0.000103156,-0.349082,1.48715,-2.97937,-0.00152705,-0.00278165,-0.00174753,0.0022917,286,366,-0.011005,-0.0893377,105.024,99.2983,104.987,99.364,5.953e-05,5.96753e-05,0.000205099
-9.85365,13.7545,-297.215,0.000517965,0.00275285,0.00255309,1.38674e-06,-2.66262e-05,-5.5786e-05,4.48977e-05,-7.01372e-05,-0.662403,0.000100419,-0.366387,1.52134,-3.10239,-0.00726592,-0.00539033,0.00207935,0.00227532,293,366,-0.0102258,-0.0892862,106.706,100.103,106.671,100.167,5.65598e-05,5.93517e-05,0.000194905
-9.5596,13.7402,-297.175,0.00050035,0.00270623,0.00246054,-6.21448e-06,-2.00088e-05,-5.51197e-05,4.24379e-05,-6.86612e-05,-0.723156,9.71039e-05,-0.372345,1.50672,-3.12841,-0.00880073,-0.00732049,0.00652334,0.0022087,300,366,-0.0098632,-0.0887815,108.204,100.896,108.17,100.958,5.69919e-05,5.75355e-05,0.000196265
-9.26819,13.7267,-297.143,0.000499409,0.00270075,0.00237011,-1.54819e-05,-1.3151e-05,-5.32002e-05,3.88965e-05,-6.75294e-05,-0.79635,9.32727e-05,-0.38394,1.45216,-3.02906,-0.00516809,-0.00854872,0.0119811,0.00227913,307,366,-0.00912525,-0.088109,109.567,101.649,109.533,101.712,6.12834e-05,5.58685e-05,0.000210978
-8.9769,13.7131,-297.111,0.000513118,0.00266919,0.0023065,-2.39534e-05,-5.626e-06,-5.02801e-05,3.63187e-05,-6.58981e-05,-0.875535,8.97493e-05,-0.385745,1.43344,-3.02227,0.000184598,-0.00900524,0.018124,0.00235591,314,366,-0.00821826,-0.0875014,110.925,102.405,110.891,102.466,6.33367e-05,5.55008e-05,0.000218455
-8.68561,13.6992,-297.078,0.000525492,0.0026322,0.00230197,-3.04174e-05,2.1138e-06,-4.64916e-05,3.5103e-05,-6.34067e-05,-0.953674,8.64777e-05,-0.372842,1.44062,-2.91733,0.00536616,-0.00876562,0.0230932,0.00235084,321,366,-0.00779382,-0.0869422,112.285,103.172,112.251,103.232,6.30501e-05,5.49191e-05,0.000217888
-8.39394,13.6852,-297.044,0.00055195,0.00262264,0.00231343,-3.55224e-05,9.12417e-06,-4.19861e-05,3.43526e-05,-6.07508e-05,-1.02973,8.34129e-05,-0.384878,1.49362,-2.84703,0.0121108,-0.00788162,0.0253266,0.00230751,328,366,-0.00717171,-0.0871285,113.667,103.946,113.632,104.005,6.17424e-05,5.4851e-05,0.000213874
-8.10085,13.6711,-297.004,0.000560617,0.0026781,0.00231337,-3.9135e-05,1.43809e-05,-3.68062e-05,3.31277e-05,-5.78819e-05,-1.09971,7.97825e-05,-0.410135,1.58745,-2.983,0.0210838,-0.00649233,0.0243956,0.00224735,335,366,-0.0069404,-0.087344,115.125,104.723,115.089,104.785,6.00579e-05,5.41072e-05,0.000208221
-7.80582,13.6568,-296.958,0.00054921,0.00271896,0.00213313,-4.11805e-05,1.72553e-05,-3.11879e-05,3.07735e-05,-5.46986e-05,-1.1618,7.49814e-05,-0.479111,1.63597,-3.17286,0.0296536,-0.00503724,0.0205472,0.00223451,342,366,-0.00587597,-0.089172,116.686,105.51,116.652,105.573,5.98318e-05,5.37832e-05,0.000207235
-7.51044,13.6425,-296.909,0.000562232,0.00274958,0.00193779,-4.16353e-05,1.89535e-05,-2.58226e-05,2.84656e-05,-5.11474e-05,-1.21786,6.98734e-05,-0.480297,1.67409,-3.26316,0.0363514,-0.00351838,0.0154848,0.0022707,349,366,-0.00411087,-0.091929,118.269,106.299,118.236,106.361,6.07971e-05,5.41344e-05,0.000210188
-7.21564,13.6282,-296.862,0.000566725,0.00275122,0.00184633,-4.0852e-05,2.01822e-05,-2.08532e-05,2.66265e-05,-4.72964e-05,-1.27107,6.48479e-05,-0.429549,1.68998,-3.10663,0.0418718,-0.00154207,0.00981192,0.00234341,356,366,-0.00331817,-0.094157,119.825,107.087,119.793,107.146,6.27612e-05,5.51555e-05,0.000216659
-6.92345,13.6144,-296.823,0.000522215,0.00274239,0.00177534,-4.125e-05,2.12347e-05,-1.62313e-05,2.51994e-05,-4.52148e-05,-1.33122,6.17962e-05,-0.329276,1.6786,-2.82682,0.045962,0.000679325,0.00306905,0.00236813,363,366,-0.0038919,-0.0960751,121.244,107.846,121.214,107.904,6.34772e-05,5.58141e-05,0.000219009
-6.63237,13.6005,-296.786,0.00044681,0.00271201,0.00177583,-4.24935e-05,2.21792e-05,-1.24896e-05,2.45074e-05,-4.48217e-05,-1.3865,6.08938e-05,-0.260716,1.66957,-2.64434,0.046412,0.0031438,-0.00437585,0.00235708,370,366,-0.00571778,-0.0959255,122.605,108.614,122.577,108.67,6.31669e-05,5.64975e-05,0.000217857
-6.3404,13.5866,-296.747,0.000393142,0.00268474,0.00175547,-4.21236e-05,2.31074e-05,-1.03293e-05,2.4704e-05,-4.37202e-05,-1.41744,6.0015e-05,-0.252566,1.65911,-2.62342,0.0437564,0.00604795,-0.0110073,0.00229537,377,366,-0.00683537,-0.0951515,124.017,109.382,123.99,109.437,6.15194e-05,5.67503e-05,0.000212097
-6.04792,13.5725,-296.704,0.000355907,0.00269518,0.00178383,-3.92526e-05,2.44319e-05,-8.93113e-06,2.56607e-05,-4.04814e-05,-1.43407,5.77581e-05,-0.237207,1.63816,-2.71778,0.0379824,0.0101528,-0.0157648,0.00224176,384,366,-0.00791349,-0.0937374,125.46,110.158,125.434,110.214,5.96928e-05,5.65664e-05,0.000205957
-5.75576,13.5583,-296.663,0.00037804,0.00276874,0.00194329,-3.36992e-05,2.60028e-05,-7.27121e-06,2.68756e-05,-3.45721e-05,-1.45133,5.33542e-05,-0.229878,1.62362,-2.81661,0.029065,0.0156584,-0.0179447,0.00221474,391,366,-0.00854478,-0.093689,126.891,110.933,126.863,110.994,5.78079e-05,5.7115e-05,0.000199696
-5.46476,13.5442,-296.624,0.000400327,0.00280747,0.00196399,-2.86434e-05,2.84093e-05,-4.38716e-06,2.87447e-05,-2.89788e-05,-1.4945,4.99901e-05,-0.231778,1.60355,-2.96787,0.0164117,0.0221528,-0.0177308,0.00229194,398,366,-0.00812544,-0.0939161,128.261,111.701,128.232,111.764,5.73662e-05,5.82309e-05,0.000198426
-5.17513,13.5304,-296.59,0.000428859,0.00278245,0.00188609,-2.55917e-05,3.14991e-05,-3.71486e-07,3.15015e-05,-2.55941e-05,-1.56429,4.95344e-05,-0.250952,1.57373,-2.96369,-0.000841777,0.0284612,-0.0157568,0.00237542,405,366,-0.00677913,-0.093857,129.559,112.466,129.53,112.527,5.86294e-05,5.95445e-05,0.000202952
-4.88632,13.5164,-296.557,0.000454465,0.00274505,0.00177739,-2.21613e-05,3.45681e-05,3.89756e-06,3.48346e-05,-2.24278e-05,1.50252,4.99772e-05,-0.253961,1.53183,-2.87983,-0.0182098,0.0338723,-0.0130493,0.00240369,412,366,-0.0052519,-0.0927676,130.814,113.235,130.785,113.295,5.97845e-05,6.00107e-05,0.000206904
-4.59747,13.5025,-296.524,0.00043312,0.00268511,0.00160484,-1.8657e-05,3.64602e-05,8.06717e-06,3.76166e-05,-1.98135e-05,1.42841,5.05263e-05,-0.252753,1.46858,-2.73687,-0.0295207,0.0380618,-0.0105785,0.00238107,419,366,-0.00440077,-0.0906693,132.071,114,132.045,114.059,6.0858e-05,5.97926e-05,0.00021049
-4.30747,13.4885,-296.487,0.000436776,0.00262177,0.00157657,-1.46994e-05,3.70415e-05,1.10798e-05,3.93143e-05,-1.69722e-05,1.36847,5.00092e-05,-0.278507,1.42214,-2.69429,-0.0338975,0.0406995,-0.00783325,0.00233959,426,366,-0.00398049,-0.0883498,133.397,114.77,133.37,114.828,6.18548e-05,5.80593e-05,0.000213746
-4.01578,13.4744,-296.443,0.000437821,0.00259205,0.00163698,-8.36818e-06,3.64302e-05,1.2778e-05,3.98186e-05,-1.17566e-05,1.31159,4.68175e-05,-0.308061,1.46513,-2.78296,-0.0347845,0.0415508,-0.00437964,0.00239361,433,366,-0.00433016,-0.0877006,134.819,115.543,134.792,115.6,6.39374e-05,5.59026e-05,0.000220744
-3.72283,13.4604,-296.393,0.000464124,0.00263931,0.00159677,-4.96478e-07,3.49285e-05,1.3731e-05,3.96274e-05,-5.1954e-06,1.24107,4.24642e-05,-0.357423,1.55981,-2.79074,-0.0353211,0.0402519,-0.000228159,0.00238295,440,366,-0.00340593,-0.0895079,136.315,116.305,136.288,116.363,6.36572e-05,5.40253e-05,0.000219765
-3.429,13.4464,-296.34,0.000482809,0.00267997,0.00157151,6.14893e-06,3.25915e-05,1.49511e-05,3.93286e-05,-5.88187e-07,1.14744,3.9626e-05,-0.394364,1.64912,-2.74094,-0.0337742,0.0369875,0.00319128,0.0023404,447,366,-0.00278447,-0.0915687,137.865,117.075,137.837,117.133,6.24437e-05,5.2645e-05,0.000215591
-3.13436,13.4321,-296.284,0.000499624,0.00274795,0.00146005,8.5116e-06,2.82993e-05,1.61959e-05,3.73842e-05,-5.7334e-07,1.05959,3.76742e-05,-0.43086,1.66291,-2.78596,-0.0297672,0.0318855,0.00463987,0.00225164,454,366,-0.00159726,-0.0935217,139.463,117.85,139.435,117.91,5.98951e-05,5.19864e-05,0.000206833
-2.83928,13.4177,-296.225,0.000505062,0.00279203,0.00139214,8.65483e-06,2.28776e-05,1.66186e-05,3.38425e-05,-2.31003e-06,0.987568,3.50546e-05,-0.447303,1.62839,-2.90782,-0.0250935,0.0251393,0.00449225,0.00223886,461,366,-0.000987161,-0.0948115,141.091,118.633,141.063,118.694,5.93862e-05,5.23032e-05,0.000205063
-2.54403,13.4032,-296.165,0.000495241,0.00281485,0.00143019,1.21831e-05,1.71977e-05,1.57731e-05,3.06616e-05,-1.28072e-06,0.864219,3.13216e-05,-0.444975,1.55695,-2.87908,-0.0185128,0.0174569,0.00416271,0.00231573,468,366,-0.00149495,-0.0951106,142.734,119.426,142.706,119.488,6.16718e-05,5.29417e-05,0.000212818
-2.24873,13.3887,-296.104,0.000469578,0.00279042,0.00160216,1.77719e-05,1.18193e-05,1.4112e-05,2.92181e-05,3.73176e-07,0.681468,2.90333e-05,-0.411707,1.50589,-2.72087,-0.00967905,0.00997029,0.00408335,0.00244423,475,366,-0.00332145,-0.0945851,144.386,120.215,144.358,120.277,6.53505e-05,5.43488e-05,0.000225226
-1.95363,13.3742,-296.042,0.000484743,0.00272877,0.00198703,1.99726e-05,7.62282e-06,1.18916e-05,2.7197e-05,3.98434e-07,0.545929,2.69999e-05,-0.384693,1.46749,-2.61576,-0.00122096,0.00342424,0.00301137,0.00260502,482,366,-0.00560717,-0.0933373,146.036,121.005,146.004,121.065,6.96265e-05,5.73317e-05,0.000239778
-1.65875,13.3597,-295.981,0.000510447,0.00270664,0.00235252,1.86231e-05,4.34423e-06,7.9392e-06,2.21608e-05,8.06467e-07,0.419195,2.17688e-05,-0.359132,1.46021,-2.66042,0.00409979,-0.00224394,0.00103838,0.002741,489,366,-0.00748199,-0.0914803,147.679,121.795,147.644,121.855,7.30324e-05,5.98414e-05,0.000251496
-1.36282,13.3449,-295.915,0.000544769,0.00272494,0.00253417,1.50953e-05,2.07428e-06,3.56332e-06,1.60067e-05,1.16293e-06,0.25039,1.54581e-05,-0.381143,1.48439,-2.88836,0.00553766,-0.00691029,-0.000493787,0.00280602,496,366,-0.00786366,-0.0910004,149.387,122.597,149.349,122.658,7.46649e-05,6.00141e-05,0.000257179
-1.06419,13.3296,-295.838,0.000518349,0.00276556,0.0023634,1.02792e-05,4.38523e-07,1.58068e-06,1.05269e-05,1.90857e-07,0.155419,1.04328e-05,-0.342961,1.51517,-3.09564,0.00370132,-0.0101987,-0.000369833,0.00267736,503,366,-0.007292,-0.091505,151.251,123.423,151.215,123.485,7.1315e-05,5.74623e-05,0.000245652
-0.761456,13.3148,-295.746,0.000453988,0.00279232,0.00212652,5.78393e-06,-3.16176e-07,3.33625e-06,7.2542e-06,-1.78646e-06,0.415091,8.29302e-06,-0.374043,1.50537,-3.21043,0.00180762,-0.0122619,0.00210106,0.0024658,510,366,-0.00722785,-0.0928886,153.356,124.227,153.323,124.29,6.57826e-05,5.45103e-05,0.000226419
-0.455376,13.2994,-295.641,0.00041427,0.00279838,0.00207712,3.53618e-06,-5.2974e-07,7.80898e-06,9.57248e-06,-6.56605e-06,0.658057,1.4057e-05,-0.375637,1.5155,-3.1732,0.000126203,-0.0134586,0.0060191,0.00237273,517,366,-0.00784749,-0.0932197,155.664,125.056,155.633,125.119,6.30988e-05,5.50662e-05,0.000217182
-0.150423,13.2844,-295.539,0.000450718,0.00283509,0.00220628,3.53323e-06,-1.76137e-07,1.40902e-05,1.58903e-05,-1.25332e-05,0.71996,2.46727e-05,-0.336551,1.53275,-3.03714,-0.00282451,-0.0147019,0.0104933,0.0023828,524,366,-0.00781468,-0.0931564,157.923,125.866,157.889,125.931,6.33875e-05,5.5434e-05,0.00021791
0.151323,13.2692,-295.448,0.00047274,0.00287221,0.0022595,9.68862e-08,6.81845e-08,2.34728e-05,2.35554e-05,-2.33903e-05,0.785092,4.06562e-05,-0.298401,1.54934,-2.81581,-0.00711063,-0.0158651,0.0149817,0.00239087,531,366,-0.00759367,-0.0925804,160.006,126.684,159.971,126.752,6.37447e-05,5.47631e-05,0.000218964
0.449853,13.2544,-295.367,0.000450771,0.00286186,0.0021836,-3.01751e-06,-6.7347e-07,3.61869e-05,3.43604e-05,-3.80514e-05,0.801586,6.27376e-05,-0.275096,1.54275,-2.81448,-0.00924404,-0.0174096,0.0207016,0.002402,538,366,-0.00755611,-0.0923105,161.911,127.487,161.877,127.554,6.41673e-05,5.42034e-05,0.000219856
0.745058,13.2398,-295.296,0.000454153,0.00277862,0.00213248,-2.62891e-06,-2.79843e-06,5.18227e-05,4.91091e-05,-5.45364e-05,0.78458,8.98007e-05,-0.301761,1.53332,-2.95495,-0.00932141,-0.0192848,0.0289522,0.00241759,545,366,-0.00700839,-0.0918123,163.632,128.285,163.599,128.349,6.47434e-05,5.4899e-05,0.000221144
1.03882,13.2252,-295.231,0.000434202,0.00277455,0.00203152,3.01084e-06,-6.30609e-06,7.12012e-05,6.97058e-05,-7.3001e-05,0.752731,0.000123599,-0.338155,1.5074,-3.25891,-0.00960207,-0.0214518,0.0411721,0.00247079,552,366,-0.0067937,-0.0933709,165.276,129.077,165.245,129.139,6.61543e-05,5.65026e-05,0.000224959
1.33232,13.2106,-295.165,0.000417823,0.00283875,0.00186139,1.00754e-05,-1.1271e-05,9.59455e-05,9.59396e-05,-9.71351e-05,0.730005,0.000167209,-0.35928,1.46016,-3.49889,-0.00969092,-0.0239927,0.0565898,0.00251253,559,366,-0.00604942,-0.095096,166.912,129.866,166.883,129.929,6.72741e-05,5.83947e-05,0.00022768
1.62498,13.1962,-295.101,0.000425243,0.00292659,0.00166397,1.43861e-05,-1.74825e-05,0.000125832,0.000125288,-0.000128385,0.722417,0.000219693,-0.313754,1.45465,-3.48247,-0.00621711,-0.0269667,0.0729711,0.00260682,566,366,-0.00452153,-0.0964748,168.507,130.647,168.479,130.714,6.95222e-05,6.12341e-05,0.000234472
1.91601,13.1819,-295.043,0.000483785,0.0029445,0.00161307,2.71196e-05,-2.31722e-05,0.000158725,0.000162678,-0.00015873,0.706839,0.000278355,-0.26338,1.47333,-3.28863,0.0119121,-0.0299474,0.0896513,0.00269277,573,366,-0.00265105,-0.0964793,170.016,131.42,169.987,131.488,7.20628e-05,6.37862e-05,0.000242317
0,0,0,0,0,0,0,0,0,0,0,0,0,0,0,0,0,0,0,-1,580,366,0,0,0,0,0,0,0,0,0
0,0,0,0,0,0,0,0,0,0,0,0,0,0,0,0,0,0,0,-1,587,366,0,0,0,0,0,0,0,0,0
0,0,0,0,0,0,0,0,0,0,0,0,0,0,0,0,0,0,0,-1,594,366,0,0,0,0,0,0,0,0,0
0,0,0,0,0,0,0,0,0,0,0,0,0,0,0,0,0,0,0,-1,601,366,0,0,0,0,0,0,0,0,0
0,0,0,0,0,0,0,0,0,0,0,0,0,0,0,0,0,0,0,-1,62,373,0,0,0,0,0,0,0,0,0
0,0,0,0,0,0,0,0,0,0,0,0,0,0,0,0,0,0,0,-1,69,373,0,0,0,0,0,0,0,0,0
0,0,0,0,0,0,0,0,0,0,0,0,0,0,0,0,0,0,0,-1,76,373,0,0,0,0,0,0,0,0,0
-18.4759,13.8841,-297.532,0.000712844,0.00281056,0.00140142,-0.000123844,-2.21732e-05,9.89918e-07,-2.21635e-05,-0.000123854,1.56106,0.000114394,-0.384712,1.43959,-2.75129,0.112853,-0.0337535,-0.082346,0.00267387,83,373,0.00246388,-0.0856669,71.5288,78.3461,71.4964,78.4165,6.8063e-05,6.8017e-05,0.000236874
-18.1994,13.8716,-297.558,0.000649372,0.00278517,0.00147811,-8.54381e-05,-2.09541e-05,7.11846e-06,-2.01777e-05,-8.62146e-05,1.46215,7.81056e-05,-0.379286,1.42382,-3.09478,0.088737,-0.024674,-0.0551376,0.00263433,90,373,0.000330496,-0.0853645,72.1985,79.0742,72.1675,79.1435,6.85456e-05,6.69594e-05,0.000238356
-17.9204,13.8591,-297.576,0.00056305,0.00278025,0.00166806,-4.72806e-05,-1.94574e-05,1.16209e-05,-1.52423e-05,-5.14957e-05,1.22283,4.58173e-05,-0.396269,1.43481,-3.46596,0.0721857,-0.0121868,-0.0364936,0.00255998,97,373,-0.00331972,-0.0858168,72.9856,79.7926,72.9558,79.8613,6.64531e-05,6.53194e-05,0.000230969
-17.6398,13.8464,-297.589,0.000548225,0.00280169,0.00188156,-1.59253e-05,-1.99421e-05,1.61945e-05,-1.6151e-06,-3.42523e-05,0.723704,3.3474e-05,-0.405485,1.53062,-3.74198,0.062374,0.000178082,-0.0244551,0.00249637,104,373,-0.00542796,-0.086764,73.8516,80.5238,73.8206,80.5927,6.47888e-05,6.33872e-05,0.000225483
-17.3578,13.8336,-297.598,0.00056601,0.00283996,0.00202047,5.47121e-06,-2.27841e-05,1.93591e-05,1.53095e-05,-3.26224e-05,0.470185,4.24032e-05,-0.395851,1.57839,-3.80039,0.0575151,0.00981439,-0.0163643,0.00241351,111,373,-0.00611228,-0.0870145,74.7778,81.2549,74.7453,81.3256,6.28523e-05,6.11108e-05,0.000219847
-17.0745,13.8207,-297.603,0.000600877,0.00286378,0.00191101,1.68073e-05,-2.73579e-05,1.96818e-05,2.43053e-05,-3.48559e-05,0.363988,5.1506e-05,-0.410547,1.5779,-3.65837,0.0553905,0.0158516,-0.0111313,0.00229209,118,373,-0.0043269,-0.0868039,75.7623,81.9925,75.7294,82.0647,6.06633e-05,5.84472e-05,0.000212213
-16.7908,13.8079,-297.606,0.000676589,0.00286276,0.00184396,1.8725e-05,-3.24567e-05,1.78278e-05,2.43226e-05,-3.80543e-05,0.304236,5.44546e-05,-0.390142,1.53664,-3.4058,0.0552695,0.0186136,-0.00840208,0.00220264,125,373,-0.00187396,-0.0866321,76.771,82.7247,76.7364,82.7969,5.80841e-05,5.58113e-05,0.000203652
-16.5065,13.7952,-297.607,0.00074302,0.00283135,0.00180442,1.32181e-05,-3.74427e-05,1.58671e-05,1.77774e-05,-4.20019e-05,0.279804,5.31684e-05,-0.401912,1.50471,-3.28443,0.0559303,0.018928,-0.00794226,0.00216701,132,373,0.000141709,-0.0865412,77.8019,83.4528,77.7657,83.5234,5.68892e-05,5.47494e-05,0.000199244
-16.2225,13.7823,-297.609,0.000761229,0.00284606,0.00183405,6.28128e-06,-4.15504e-05,1.54673e-05,1.08471e-05,-4.61163e-05,0.28704,5.23889e-05,-0.400163,1.54452,-3.45954,0.054636,0.0183712,-0.00701578,0.00217825,139,373,0.000365604,-0.0873782,78.8087,84.192,78.7718,84.2626,5.7933e-05,5.5876e-05,0.000202162
-15.9392,13.769,-297.613,0.00075768,0.0028756,0.00200519,-2.52886e-06,-4.58127e-05,1.51011e-05,2.21889e-06,-5.05605e-05,0.304613,5.17057e-05,-0.381391,1.5864,-3.63625,0.0519214,0.0161457,-0.00679715,0.00227705,146,373,-0.00106764,-0.0868953,79.786,84.9464,79.7478,85.0189,6.00901e-05,5.76232e-05,0.00020887
-15.6558,13.7556,-297.616,0.000776626,0.00288067,0.00225906,-1.34087e-05,-4.93865e-05,1.483e-05,-8.08385e-06,-5.47113e-05,0.34472,5.11507e-05,-0.347555,1.60277,-3.66345,0.0459471,0.0128787,-0.00710157,0.00234824,153,373,-0.00258921,-0.0861989,80.7576,85.7052,80.7171,85.7786,6.10326e-05,5.91524e-05,0.000212149
-15.3719,13.7423,-297.617,0.000776942,0.00285263,0.00251767,-2.69929e-05,-5.11889e-05,1.46595e-05,-2.0084e-05,-5.80978e-05,0.440417,5.11066e-05,-0.285746,1.58646,-3.49592,0.0370637,0.00888515,-0.00744866,0.00235863,160,373,-0.00456775,-0.0850225,81.7544,86.4595,81.712,86.5325,6.14206e-05,5.98988e-05,0.000213989
-15.0872,13.7294,-297.615,0.000731862,0.00278959,0.00261095,-4.32729e-05,-5.09821e-05,1.51913e-05,-3.14548e-05,-6.28002e-05,0.661151,5.43866e-05,-0.239337,1.53371,-3.29411,0.0264538,0.00483468,-0.00762356,0.00232575,167,373,-0.00630513,-0.0837402,82.7902,87.1968,82.7485,87.2678,6.08071e-05,5.95659e-05,0.000211701
-14.8022,13.7164,-297.613,0.000683771,0.00271298,0.00251832,-6.05886e-05,-4.91428e-05,1.66107e-05,-3.72968e-05,-7.24347e-05,0.951296,6.27396e-05,-0.228963,1.47954,-3.3015,0.0136162,0.00131582,-0.00699047,0.00230462,174,373,-0.00660936,-0.0820234,83.8328,87.9331,83.7931,88.0016,6.0786e-05,5.86036e-05,0.000211609
-14.5167,13.7033,-297.608,0.000622563,0.00269992,0.00240726,-7.6304e-05,-4.59382e-05,1.83649e-05,-3.72927e-05,-8.49494e-05,1.13081,7.37506e-05,-0.22606,1.45496,-3.47907,-0.000483749,-0.00129575,-0.00470146,0.00235602,181,373,-0.00715759,-0.0815871,84.8965,88.6793,84.8594,88.7474,6.271e-05,5.89863e-05,0.000216936
-14.2308,13.69,-297.602,0.000618756,0.00271569,0.00244467,-8.74104e-05,-4.18737e-05,1.93864e-05,-3.47384e-05,-9.45457e-05,1.21812,8.28329e-05,-0.245291,1.43231,-3.55301,-0.0128159,-0.00288181,-0.000650438,0.00238417,188,373,-0.00751455,-0.0820413,85.9848,89.4286,85.9474,89.4972,6.35169e-05,5.9016e-05,0.000219789
-13.9436,13.6766,-297.591,0.000639195,0.00275878,0.00260428,-9.10189e-05,-3.68894e-05,1.87768e-05,-3.10138e-05,-9.68945e-05,1.26753,8.5705e-05,-0.241364,1.42162,-3.55205,-0.022845,-0.00321037,0.00469612,0.00233876,195,373,-0.00827137,-0.0830855,87.1343,90.1837,87.0951,90.2536,6.20715e-05,5.69869e-05,0.000215142
-13.6561,13.6632,-297.579,0.000669521,0.00281006,0.00290862,-8.81912e-05,-3.12911e-05,1.66855e-05,-2.67591e-05,-9.27232e-05,1.30559,8.26586e-05,-0.260104,1.44727,-3.39418,-0.0301747,-0.00195386,0.00930301,0.00229963,202,373,-0.00996203,-0.0856556,88.2977,90.9349,88.2554,91.0052,6.08725e-05,5.5779e-05,0.000211319
-13.3679,13.65,-297.565,0.000651227,0.00285595,0.00314672,-8.06542e-05,-2.65408e-05,1.3815e-05,-2.32179e-05,-8.3977e-05,1.33475,7.51095e-05,-0.302465,1.44005,-3.15212,-0.0336876,0.000936921,0.0115422,0.00222662,209,373,-0.0123276,-0.0889014,89.4927,91.6817,89.4492,91.7515,5.94319e-05,5.52347e-05,0.000206589
-13.0795,13.6365,-297.549,0.000577742,0.00288132,0.00310834,-6.955e-05,-2.36147e-05,1.04071e-05,-2.13669e-05,-7.17978e-05,1.35807,6.38543e-05,-0.359311,1.4562,-3.18526,-0.0326675,0.00454473,0.011819,0.00217935,216,373,-0.0138368,-0.0913068,90.6982,92.4404,90.6571,92.5094,5.81058e-05,5.6033e-05,0.000201631
-12.7907,13.6229,-297.532,0.000490325,0.00289759,0.00300101,-5.66924e-05,-2.30611e-05,5.96994e-06,-2.20328e-05,-5.77207e-05,1.40022,5.04517e-05,-0.414042,1.45296,-3.12703,-0.0285237,0.00780746,0.011481,0.00217294,223,373,-0.0151145,-0.0922639,91.9151,93.2045,91.8772,93.2734,5.77562e-05,5.6405e-05,0.000199712
-12.5014,13.6092,-297.513,0.000415786,0.00292389,0.00283307,-4.19611e-05,-2.47751e-05,-5.94292e-07,-2.47546e-05,-4.19816e-05,-1.53627,3.65514e-05,-0.438353,1.47317,-3.17293,-0.0236165,0.0101111,0.0108297,0.00218694,230,373,-0.015606,-0.0930318,93.1616,93.9685,93.1269,94.0381,5.7633e-05,5.66709e-05,0.000198096
-12.2108,13.5956,-297.489,0.000352673,0.00292419,0.00264856,-2.67899e-05,-2.77452e-05,-9.57292e-06,-1.76827e-05,-3.68524e-05,-0.760472,3.19238e-05,-0.417431,1.49391,-3.26777,-0.0181228,0.0111851,0.0102949,0.00216683,237,373,-0.0156409,-0.0920217,94.4746,94.7277,94.4428,94.7982,5.66543e-05,5.4727e-05,0.000193862
-11.9204,13.5822,-297.465,0.000339252,0.00292135,0.00248088,-1.35017e-05,-3.13736e-05,-1.92922e-05,-1.1764e-06,-4.36989e-05,-0.568515,4.31227e-05,-0.367692,1.57069,-3.39202,-0.0121588,0.0108581,0.00883962,0.00214431,244,373,-0.0146009,-0.0917337,95.7752,95.476,95.745,95.5466,5.61335e-05,5.38985e-05,0.000192147
-11.631,13.569,-297.444,0.000402067,0.00292496,0.00247171,-2.27498e-06,-3.51429e-05,-2.89566e-05,1.45861e-05,-5.2004e-05,-0.527294,6.06276e-05,-0.36035,1.62172,-3.30892,-0.00612678,0.00909843,0.00568709,0.0021341,251,373,-0.0129197,-0.0914157,97.0298,96.2168,96.9978,96.2878,5.58577e-05,5.4127e-05,0.000191917
-11.342,13.5557,-297.424,0.000534572,0.00292889,0.00252214,6.79806e-06,-3.85085e-05,-3.81428e-05,2.85074e-05,-6.02179e-05,-0.517434,7.84572e-05,-0.357096,1.61603,-3.06655,-0.000490064,0.00642123,0.00181701,0.00215929,258,373,-0.00999211,-0.0918334,98.2667,96.9625,98.2306,97.0333,5.7036e-05,5.4747e-05,0.000196819
-11.0521,13.5421,-297.4,0.000583059,0.00291974,0.00259943,1.36962e-05,-4.12259e-05,-4.60376e-05,3.98409e-05,-6.73706e-05,-0.51648,9.38626e-05,-0.349626,1.54574,-2.89603,0.00424816,0.00339762,-0.00105513,0.00218752,265,373,-0.00932623,-0.0915834,99.5458,97.7211,99.5077,97.7917,5.83268e-05,5.48271e-05,0.000201622
-10.7566,13.5283,-297.358,0.000613372,0.00289112,0.00269599,1.76483e-05,-4.28042e-05,-5.22947e-05,4.78237e-05,-7.29796e-05,-0.523356,0.000105372,-0.315802,1.48186,-2.81068,0.00632921,5.4526e-05,-0.00182319,0.00222194,272,373,-0.00921692,-0.0900304,101.114,98.4881,101.074,98.5586,5.96459e-05,5.49897e-05,0.000206129
-10.4579,13.5138,-297.305,0.000564566,0.0028768,0.00264064,1.72351e-05,-4.25504e-05,-5.64742e-05,5.124e-05,-7.65553e-05,-0.541986,0.000111395,-0.306806,1.46093,-2.85849,0.00494459,-0.00357079,-0.000669799,0.00221377,279,373,-0.00993732,-0.0901984,102.849,99.2893,102.811,99.3589,5.93531e-05,5.59581e-05,0.000204978
-10.1587,13.499,-297.25,0.000510736,0.00281573,0.00258792,1.17356e-05,-3.99105e-05,-5.8359e-05,4.97295e-05,-7.79044e-05,-0.577104,0.000111428,-0.29205,1.47779,-2.99613,-8.99199e-05,-0.00721259,0.001704,0.00222827,286,373,-0.0107709,-0.0899509,104.606,100.109,104.57,100.176,5.8202e-05,5.7951e-05,0.000200875
-9.86163,13.4846,-297.201,0.000491596,0.00278061,0.00251869,3.78972e-06,-3.51567e-05,-5.87734e-05,4.62319e-05,-7.75989e-05,-0.625426,0.000108381,-0.308945,1.49422,-3.11699,-0.00665857,-0.0104827,0.00449915,0.00227093,293,373,-0.0106382,-0.0898598,106.26,100.908,106.225,100.973,5.86042e-05,5.91717e-05,0.000201928
-9.57037,13.4704,-297.17,0.000488102,0.00273779,0.00241425,-5.41788e-06,-2.92097e-05,-5.80113e-05,4.19046e-05,-7.65322e-05,-0.684269,0.00010402,-0.354235,1.48788,-3.22595,-0.00922825,-0.0125951,0.0074713,0.00230474,300,373,-0.00983998,-0.0895093,107.612,101.696,107.578,101.759,6.0423e-05,5.96737e-05,0.000208078
-9.28097,13.4571,-297.145,0.000487381,0.00272054,0.0022797,-1.63678e-05,-2.27621e-05,-5.59497e-05,3.64761e-05,-7.56059e-05,-0.756857,9.9018e-05,-0.407109,1.44676,-3.23528,-0.00679405,-0.0135562,0.0114262,0.00235779,307,373,-0.00874901,-0.0886141,108.87,102.435,108.837,102.497,6.29733e-05,5.86727e-05,0.00021701
-8.99061,13.4439,-297.116,0.0004654,0.00268468,0.00219084,-2.64083e-05,-1.54108e-05,-5.28924e-05,3.2268e-05,-7.4087e-05,-0.837193,9.44497e-05,-0.41173,1.41632,-3.14444,-0.00249567,-0.0132033,0.0162594,0.00241851,314,373,-0.00853407,-0.0879301,110.179,103.174,110.147,103.235,6.49893e-05,5.83953e-05,0.000224096
-8.7,13.4304,-297.086,0.000487377,0.0026439,0.00225827,-3.38937e-05,-7.55978e-06,-4.8774e-05,2.97933e-05,-7.12468e-05,-0.917235,8.99245e-05,-0.390868,1.43955,-3.00243,0.002098,-0.0115538,0.0202977,0.00238955,321,373,-0.00840001,-0.0865037,111.504,103.924,111.471,103.985,6.41798e-05,5.76026e-05,0.000221675
-8.40821,13.4166,-297.051,0.000538917,0.00261821,0.0023859,-3.90265e-05,-4.59574e-08,-4.37012e-05,2.83142e-05,-6.73867e-05,-0.995155,8.51508e-05,-0.413547,1.50143,-2.94928,0.0085867,-0.00878305,0.0220259,0.00234959,328,373,-0.00801576,-0.0861472,112.894,104.688,112.858,104.748,6.29639e-05,5.73e-05,0.000217993
-8.11452,13.4026,-297.01,0.000576105,0.00264347,0.00245842,-4.19914e-05,6.25527e-06,-3.77279e-05,2.69129e-05,-6.2649e-05,-1.06984,7.95944e-05,-0.429794,1.60333,-3.0441,0.0177033,-0.00530922,0.0212214,0.00230098,335,373,-0.00758891,-0.0855499,114.384,105.461,114.347,105.522,6.15268e-05,5.59639e-05,0.000213312
-7.8184,13.3883,-296.959,0.000553079,0.00266676,0.00222091,-4.35046e-05,1.07677e-05,-3.14245e-05,2.51511e-05,-5.7888e-05,-1.14155,7.37532e-05,-0.49797,1.67766,-3.251,0.0266806,-0.00181756,0.0179336,0.00230927,342,373,-0.00634898,-0.0864738,116.002,106.246,115.968,106.308,6.18162e-05,5.46921e-05,0.000214282
-7.52152,13.3741,-296.906,0.000557652,0.00268842,0.00200234,-4.3933e-05,1.42694e-05,-2.56626e-05,2.39683e-05,-5.3632e-05,-1.20945,6.88211e-05,-0.508783,1.70825,-3.3573,0.0337915,0.00150269,0.0135407,0.00237,349,373,-0.00460496,-0.088898,117.665,107.03,117.632,107.091,6.34814e-05,5.45554e-05,0.000219702
-7.22569,13.3598,-296.855,0.000565843,0.00270399,0.00201298,-4.33514e-05,1.71092e-05,-2.04875e-05,2.33974e-05,-4.96397e-05,-1.27299,6.45986e-05,-0.460208,1.69808,-3.19634,0.0399232,0.00484432,0.00859757,0.00244919,356,373,-0.0044985,-0.0913742,119.277,107.819,119.244,107.878,6.56228e-05,5.53082e-05,0.000226802
-6.93156,13.3459,-296.809,0.000520381,0.0027237,0.00198504,-4.39193e-05,1.9448e-05,-1.58817e-05,2.32056e-05,-4.76769e-05,-1.33847,6.25936e-05,-0.387242,1.67293,-2.92324,0.0448473,0.00781146,0.00273624,0.00248677,363,373,-0.00544313,-0.0938567,120.801,108.587,120.769,108.645,6.66542e-05,5.56944e-05,0.000230105
-6.63941,13.332,-296.77,0.000453953,0.00273603,0.00189541,-4.58691e-05,2.14447e-05,-1.23352e-05,2.36339e-05,-4.80583e-05,-1.39515,6.3277e-05,-0.324707,1.65717,-2.73294,0.0464727,0.0102633,-0.00380005,0.00244924,370,373,-0.00640687,-0.0944474,122.219,109.354,122.19,109.412,6.55826e-05,5.56039e-05,0.000226326
-6.34723,13.3181,-296.729,0.000416393,0.00274877,0.00181988,-4.67423e-05,2.3156e-05,-1.0523e-05,2.47058e-05,-4.82921e-05,-1.42457,6.43087e-05,-0.321101,1.6364,-2.69693,0.0453474,0.0124645,-0.00991084,0.00233371,377,373,-0.00674951,-0.0945449,123.643,110.12,123.615,110.179,6.23965e-05,5.53308e-05,0.000215425
-6.05507,13.304,-296.688,0.000408922,0.00276948,0.0018263,-4.51189e-05,2.49432e-05,-9.60614e-06,2.62364e-05,-4.64121e-05,-1.43698,6.37191e-05,-0.284609,1.60652,-2.69235,0.0410681,0.0154692,-0.0145884,0.00224517,384,373,-0.00694093,-0.0938448,125.07,110.895,125.042,110.956,5.9736e-05,5.50413e-05,0.000206426
-5.76315,13.2899,-296.647,0.000467103,0.0028052,0.00199097,-4.04195e-05,2.67574e-05,-8.49538e-06,2.78151e-05,-4.14772e-05,-1.44693,6.03964e-05,-0.246529,1.58164,-2.70676,0.0328993,0.0196564,-0.0170011,0.00220551,391,373,-0.00669729,-0.0942321,126.49,111.671,126.459,111.733,5.75255e-05,5.54491e-05,0.000198939
-5.47186,13.276,-296.608,0.000486335,0.00280609,0.00204905,-3.58692e-05,2.92757e-05,-6.245e-06,2.9869e-05,-3.64624e-05,-1.47608,5.75392e-05,-0.235523,1.55999,-2.78767,0.0201407,0.0248899,-0.0169436,0.00231215,398,373,-0.00660107,-0.094123,127.877,112.436,127.845,112.499,5.744e-05,5.79068e-05,0.000198827
-5.18117,13.2621,-296.569,0.000482286,0.00278317,0.00203949,-3.33719e-05,3.25148e-05,-2.58579e-06,3.26161e-05,-3.34732e-05,-1.53163,5.72366e-05,-0.262117,1.51707,-2.85129,0.00255098,0.0300431,-0.0150242,0.00241216,405,373,-0.00656252,-0.0935687,129.233,113.202,129.201,113.264,5.85943e-05,5.99039e-05,0.000202972
-4.89082,13.2481,-296.532,0.000479668,0.00274727,0.00195391,-3.06853e-05,3.59934e-05,1.74985e-06,3.60393e-05,-3.07312e-05,1.54458,5.78859e-05,-0.274522,1.46996,-2.79634,-0.0148946,0.0346528,-0.0125185,0.00246455,412,373,-0.00589239,-0.0916812,130.572,113.968,130.541,114.029,5.91705e-05,6.09839e-05,0.000205075
-4.60044,13.2341,-296.493,0.000456502,0.00270138,0.00176647,-2.76162e-05,3.85483e-05,6.34287e-06,3.91509e-05,-2.82188e-05,1.47608,5.85994e-05,-0.289817,1.42265,-2.72813,-0.0262556,0.0383905,-0.0102397,0.0024485,419,373,-0.0049714,-0.0891058,131.915,114.74,131.886,114.801,6.06293e-05,6.04413e-05,0.000210025
-4.30904,13.22,-296.451,0.000471526,0.00263504,0.00163465,-2.32651e-05,3.9928e-05,9.9395e-06,4.14545e-05,-2.47916e-05,1.41841,5.79726e-05,-0.321493,1.42488,-2.75666,-0.0313862,0.0409173,-0.00750325,0.00244904,426,373,-0.00349433,-0.0864176,133.318,115.517,133.29,115.578,6.32409e-05,5.84083e-05,0.000218838
-4.01639,13.2058,-296.404,0.000474409,0.00261085,0.00156821,-1.57095e-05,4.00402e-05,1.2428e-05,4.26852e-05,-1.83545e-05,1.3611,5.42437e-05,-0.309153,1.48662,-2.74127,-0.0337384,0.0419777,-0.00381683,0.00247434,433,373,-0.00288245,-0.0862544,134.794,116.292,134.766,116.352,6.49431e-05,5.64436e-05,0.00022459
-3.72328,13.192,-296.354,0.000492845,0.00264686,0.00139754,-6.15166e-06,3.92042e-05,1.42515e-05,4.33105e-05,-1.02579e-05,1.29027,4.92474e-05,-0.324401,1.56693,-2.71341,-0.0355932,0.0412024,0.000746133,0.00245286,440,373,-0.00120143,-0.0882006,136.3,117.049,136.273,117.109,6.43662e-05,5.50663e-05,0.000222616
-3.42957,13.1781,-296.301,0.000478975,0.00268932,0.00135088,2.44311e-06,3.7569e-05,1.66077e-05,4.41778e-05,-4.16566e-06,1.19207,4.64011e-05,-0.333002,1.63404,-2.63964,-0.0345851,0.0387193,0.00463619,0.00238738,447,373,-0.00125568,-0.0907182,137.844,117.816,137.817,117.875,6.27821e-05,5.41884e-05,0.000217077
-3.13528,13.164,-296.246,0.000476445,0.00278232,0.00123385,6.85319e-06,3.41506e-05,1.91118e-05,4.3987e-05,-2.98314e-06,1.09548,4.55519e-05,-0.370387,1.64654,-2.70854,-0.0306511,0.0343717,0.00657125,0.00229928,454,373,-0.000540224,-0.0930543,139.423,118.586,139.398,118.648,6.02795e-05,5.36966e-05,0.000208366
-2.8407,13.1497,-296.189,0.000487982,0.00282212,0.00126561,8.76104e-06,2.96053e-05,2.06053e-05,4.22742e-05,-3.90791e-06,1.01954,4.43575e-05,-0.388156,1.62657,-2.85982,-0.0262548,0.0283715,0.00673468,0.00228105,461,373,-0.00049614,-0.0941515,141.026,119.366,141,119.429,6.01449e-05,5.3595e-05,0.000207744
-2.54566,13.1352,-296.129,0.000491099,0.00284117,0.0013188,1.37052e-05,2.45746e-05,2.08568e-05,4.06932e-05,-2.41337e-06,0.912851,4.1952e-05,-0.396393,1.57252,-2.98345,-0.0200607,0.0213781,0.00643119,0.00234389,468,373,-0.000779851,-0.0940575,142.66,120.156,142.633,120.22,6.22285e-05,5.39364e-05,0.000214787
-2.25027,13.1208,-296.067,0.000482108,0.00281145,0.00145295,2.0523e-05,1.95029e-05,2.02992e-05,4.03186e-05,-2.92721e-07,0.772837,4.04657e-05,-0.368002,1.54361,-2.9456,-0.0115378,0.0144709,0.00609797,0.00240928,475,373,-0.00191704,-0.0937034,144.319,120.944,144.292,121.007,6.432e-05,5.46483e-05,0.000221737
-1.95485,13.1063,-296.005,0.000483058,0.00276853,0.00174969,2.3836e-05,1.53885e-05,1.91179e-05,3.91912e-05,3.33857e-08,0.676679,3.91745e-05,-0.330134,1.50386,-2.84757,-0.00339267,0.00820094,0.00469071,0.0025005,482,373,-0.00396156,-0.0934026,145.988,121.734,145.958,121.795,6.68098e-05,5.54802e-05,0.000230151
-1.65941,13.0919,-295.941,0.000509013,0.00274158,0.00205741,2.30656e-05,1.21055e-05,1.62164e-05,3.47029e-05,4.68242e-07,0.622457,3.44712e-05,-0.330079,1.50077,-2.8286,0.0015451,0.00239436,0.00235154,0.00250688,489,373,-0.00543216,-0.0921742,147.664,122.522,147.631,122.583,6.69772e-05,5.5243e-05,0.00023059
-1.36195,13.0771,-295.87,0.000550027,0.00273799,0.00229176,1.91943e-05,9.58021e-06,1.28073e-05,2.8067e-05,7.07582e-07,0.605864,2.772e-05,-0.356524,1.54156,-2.99846,0.00257767,-0.00261006,0.00032284,0.00248027,496,373,-0.0060119,-0.0915289,149.461,123.328,149.425,123.39,6.62476e-05,5.40889e-05,0.000227972
-1.0613,13.062,-295.786,0.000526367,0.00278636,0.00226163,1.34419e-05,7.6139e-06,1.15879e-05,2.24766e-05,-1.42081e-06,0.662218,2.32196e-05,-0.360285,1.5597,-3.1907,0.000503417,-0.00629212,-0.000168347,0.00234596,503,373,-0.00636166,-0.09108,151.443,124.145,151.408,124.209,6.26774e-05,5.23194e-05,0.000215461
-0.757892,13.0472,-295.692,0.000434626,0.0027737,0.00211051,7.7509e-06,6.54591e-06,1.36916e-05,2.08532e-05,-6.5564e-06,0.76341,2.47904e-05,-0.383101,1.54741,-3.28958,-0.00151774,-0.00869484,0.00179688,0.00228358,510,373,-0.00754598,-0.0909351,153.589,124.954,153.558,125.017,6.11226e-05,5.33235e-05,0.000209835
-0.452242,13.032,-295.588,0.000369361,0.00276826,0.00197866,4.07531e-06,6.15974e-06,1.8067e-05,2.32146e-05,-1.29796e-05,0.814209,3.17601e-05,-0.365409,1.53856,-3.21511,-0.00347976,-0.0102004,0.00563683,0.00233191,517,373,-0.00822955,-0.0916702,155.874,125.778,155.846,125.841,6.15594e-05,5.63727e-05,0.000211307
-0.147635,13.017,-295.487,0.000404037,0.0028221,0.00195177,2.35053e-06,6.38697e-06,2.3857e-05,2.83109e-05,-1.95734e-05,0.827596,4.16986e-05,-0.325449,1.5439,-3.0197,-0.00656612,-0.0117187,0.0103621,0.00238716,524,373,-0.0071709,-0.0926138,158.115,126.589,158.085,126.654,6.31549e-05,5.70879e-05,0.000216589
0.153665,13.0021,-295.397,0.000458544,0.00285785,0.00198968,-3.92699e-06,6.8827e-06,3.27155e-05,3.46368e-05,-3.16811e-05,0.867262,5.7452e-05,-0.307018,1.55936,-2.80342,-0.0105601,-0.0131443,0.0149826,0.00239254,531,373,-0.00604853,-0.0931668,160.176,127.402,160.144,127.468,6.37154e-05,5.62173e-05,0.000218506
0.451686,12.9875,-295.317,0.000489916,0.0028754,0.00196787,-1.008e-05,6.70834e-06,4.43268e-05,4.34288e-05,-4.68004e-05,0.878975,7.8159e-05,-0.329996,1.56986,-2.87356,-0.0117313,-0.0150733,0.0209442,0.00240199,538,373,-0.00507553,-0.0935972,162.056,128.194,162.023,128.261,6.42667e-05,5.47677e-05,0.000220155
0.746651,12.9733,-295.248,0.000521584,0.00278174,0.00194208,-1.22544e-05,5.21869e-06,5.82104e-05,5.53445e-05,-6.23803e-05,0.859885,0.000102013,-0.380047,1.55512,-3.02671,-0.010507,-0.0175389,0.0294973,0.00242829,545,373,-0.00397689,-0.0927274,163.767,128.975,163.734,129.038,6.5059e-05,5.47505e-05,0.000222426
1.03947,12.9588,-295.186,0.000486285,0.00276659,0.00182443,-8.58568e-06,2.30516e-06,7.49691e-05,7.20263e-05,-7.83069e-05,0.821652,0.00013023,-0.397332,1.50132,-3.29001,-0.00867039,-0.0204905,0.0420613,0.00247294,552,373,-0.00401312,-0.0935024,165.358,129.762,165.328,129.823,6.66371e-05,5.67687e-05,0.000226773
1.33109,12.9445,-295.127,0.000426309,0.00283386,0.00167108,-2.94752e-06,-1.96829e-06,9.59687e-05,9.3512e-05,-9.84278e-05,0.787949,0.000166243,-0.37577,1.45276,-3.40829,-0.00506664,-0.0238269,0.057779,0.00252168,559,373,-0.00447232,-0.094054,166.886,130.539,166.858,130.603,6.81988e-05,5.93487e-05,0.000230837
1.62174,12.9303,-295.07,0.000392991,0.00293787,0.00150715,8.01436e-07,-7.28996e-06,0.000120354,0.000117177,-0.000123666,0.768597,0.000208602,-0.344055,1.47971,-3.36719,0.00381793,-0.0273146,0.0743409,0.00263065,566,373,-0.00421681,-0.0950174,168.364,131.309,168.338,131.377,7.0421e-05,6.20628e-05,0.000237393
1.91125,12.9164,-295.017,0.000420659,0.0029292,0.00153495,1.4698e-05,-1.22742e-05,0.000145776,0.00014761,-0.000145186,0.739273,0.000253572,-0.337348,1.52187,-3.21985,0.0291849,-0.0301126,0.0913262,0.00271684,573,373,-0.00365686,-0.0945055,169.786,132.072,169.758,132.14,7.23466e-05,6.39213e-05,0.000243094
0,0,0,0,0,0,0,0,0,0,0,0,0,0,0,0,0,0,0,-1,580,373,0,0,0,0,0,0,0,0,0
0,0,0,0,0,0,0,0,0,0,0,0,0,0,0,0,0,0,0,-1,587,373,0,0,0,0,0,0,0,0,0
0,0,0,0,0,0,0,0,0,0,0,0,0,0,0,0,0,0,0,-1,594,373,0,0,0,0,0,0,0,0,0
0,0,0,0,0,0,0,0,0,0,0,0,0,0,0,0,0,0,0,-1,601,373,0,0,0,0,0,0,0,0,0
0,0,0,0,0,0,0,0,0,0,0,0,0,0,0,0,0,0,0,-1,62,380,0,0,0,0,0,0,0,0,0
0,0,0,0,0,0,0,0,0,0,0,0,0,0,0,0,0,0,0,-1,69,380,0,0,0,0,0,0,0,0,0
0,0,0,0,0,0,0,0,0,0,0,0,0,0,0,0,0,0,0,-1,76,380,0,0,0,0,0,0,0,0,0
-18.5049,13.614,-297.581,0.000727434,0.00280593,0.00141097,-0.000110267,-6.51075e-06,-7.55645e-06,-5.96331e-06,-0.000110814,-1.49848,0.000107956,-0.393707,1.46853,-2.78282,0.102371,-0.0360004,-0.0887477,0.00273302,83,380,0.00276717,-0.0848969,70.0439,79.1818,70.011,79.2525,6.98887e-05,6.97745e-05,0.000243746
-18.2277,13.6015,-297.605,0.000681899,0.00279352,0.00148523,-7.61911e-05,-6.8801e-06,-4.71299e-07,-6.87689e-06,-7.61943e-05,-1.564,7.29992e-05,-0.394656,1.41634,-3.21949,0.0816109,-0.0272625,-0.0623104,0.00268862,90,380,0.00109613,-0.0841442,70.7461,79.9014,70.714,79.9721,7.02741e-05,6.87601e-05,0.000244889
-17.9483,13.5891,-297.622,0.000621367,0.00280116,0.00163989,-4.08647e-05,-7.75894e-06,5.37513e-06,-6.90809e-06,-4.17156e-05,1.4138,3.87264e-05,-0.401479,1.43079,-3.64479,0.0672187,-0.0149593,-0.0436819,0.00264119,97,380,-0.00164011,-0.084707,71.5566,80.6165,71.5251,80.6871,6.8477e-05,6.77662e-05,0.000237995
-17.6673,13.5764,-297.635,0.00059326,0.00287769,0.0017605,-1.13756e-05,-1.0994e-05,1.16545e-05,4.7132e-07,-2.28409e-05,0.793582,2.30801e-05,-0.412214,1.52348,-4.03232,0.0590695,-0.00263923,-0.0306764,0.00255226,104,380,-0.00337149,-0.0869462,72.4356,81.3425,72.404,81.4152,6.64695e-05,6.54899e-05,0.000231379
-17.3856,13.5638,-297.645,0.000569479,0.00292085,0.00185504,8.83617e-06,-1.67111e-05,1.66139e-05,1.70193e-05,-2.48942e-05,0.457669,3.65111e-05,-0.394461,1.58218,-4.04601,0.0554229,0.00703398,-0.0208516,0.00245859,111,380,-0.00474358,-0.0884118,73.3462,82.0679,73.3146,82.1415,6.39154e-05,6.3068e-05,0.000223558
-17.1021,13.5509,-297.649,0.000598765,0.00292211,0.0018699,1.91582e-05,-2.42526e-05,1.83686e-05,2.58874e-05,-3.09818e-05,0.351161,4.93161e-05,-0.408664,1.57589,-3.81365,0.0540367,0.0131538,-0.0135917,0.00234231,118,380,-0.00409701,-0.0880545,74.3405,82.8049,74.3079,82.8789,6.07299e-05,6.02467e-05,0.000212476
-16.8178,13.5381,-297.651,0.000663498,0.00287869,0.00185753,1.98464e-05,-3.25602e-05,1.73342e-05,2.50611e-05,-3.77748e-05,0.292217,5.47875e-05,-0.394023,1.51812,-3.49078,0.0541822,0.0159371,-0.00900125,0.0022435,125,380,-0.0023316,-0.0876948,75.3724,83.5382,75.3381,83.6102,5.7687e-05,5.75816e-05,0.000201903
-16.5328,13.5253,-297.65,0.000736499,0.00284041,0.00183992,1.32062e-05,-4.10712e-05,1.5593e-05,1.73669e-05,-4.52319e-05,0.260755,5.59738e-05,-0.389943,1.49119,-3.30919,0.054963,0.0160597,-0.00708318,0.00215972,132,380,-0.000319302,-0.0871624,76.4392,84.2691,76.403,84.3395,5.55318e-05,5.50694e-05,0.000194022
-16.248,13.5124,-297.649,0.000769367,0.00286035,0.00188728,5.30963e-06,-4.87095e-05,1.5187e-05,9.28654e-06,-5.26864e-05,0.256112,5.78911e-05,-0.370756,1.51852,-3.46732,0.0540132,0.0150088,-0.00508825,0.00215031,139,380,0.000123386,-0.0877835,77.4858,85.0037,77.4483,85.0746,5.54405e-05,5.49617e-05,0.00019342
-15.964,13.4991,-297.651,0.000761001,0.00290401,0.00208407,-4.14254e-06,-5.64953e-05,1.4498e-05,-3.95794e-07,-6.02421e-05,0.2529,6.00452e-05,-0.329629,1.56735,-3.59534,0.0516292,0.0122417,-0.00413497,0.00218083,146,380,-0.00164895,-0.087596,78.4932,85.7539,78.4544,85.8272,5.74241e-05,5.57302e-05,0.000200181
-15.6799,13.4857,-297.652,0.000770665,0.00289956,0.00230388,-1.54265e-05,-6.32886e-05,1.34384e-05,-1.19115e-05,-6.68035e-05,0.255832,6.1716e-05,-0.28308,1.58097,-3.55546,0.0458018,0.00841842,-0.00397124,0.00221581,153,380,-0.00312355,-0.0871883,79.5008,86.5133,79.4601,86.5867,5.91262e-05,5.64781e-05,0.000206167
-15.3951,13.4723,-297.65,0.000742122,0.00286721,0.00251112,-2.92612e-05,-6.7922e-05,1.20794e-05,-2.57975e-05,-7.13858e-05,0.27926,6.26089e-05,-0.249935,1.55675,-3.38597,0.0367965,0.00384505,-0.00418795,0.00226534,160,380,-0.00539825,-0.0861306,80.5431,87.271,80.5018,87.3437,6.05405e-05,5.73356e-05,0.000211514
-15.1095,13.4591,-297.646,0.000714329,0.00280598,0.00258826,-4.55518e-05,-7.01495e-05,1.13826e-05,-4.10928e-05,-7.46085e-05,0.373363,6.47238e-05,-0.235136,1.51454,-3.31634,0.0259411,-0.000712702,-0.00463531,0.00229041,167,380,-0.00657134,-0.0843351,81.6164,88.0194,81.5753,88.0905,6.10022e-05,5.77283e-05,0.000212886
-14.8237,13.446,-297.641,0.00067452,0.00272633,0.00253619,-6.26763e-05,-7.02324e-05,1.16853e-05,-5.41735e-05,-7.87352e-05,0.629044,6.97756e-05,-0.23086,1.4733,-3.39099,0.0128493,-0.00457939,-0.00459397,0.0023195,174,380,-0.00697093,-0.0814759,82.7025,88.7628,82.6629,88.8324,6.18691e-05,5.84384e-05,0.000215373
-14.5377,13.433,-297.635,0.000624889,0.00267652,0.00248237,-7.81598e-05,-6.82576e-05,1.25775e-05,-5.96918e-05,-8.67257e-05,0.972907,7.68612e-05,-0.221919,1.43596,-3.59301,-0.00135832,-0.00736376,-0.00308069,0.00235716,181,380,-0.00765286,-0.0802499,83.7905,89.5026,83.7527,89.5706,6.35281e-05,6.02781e-05,0.00021938
-14.2513,13.4199,-297.627,0.000610625,0.00268691,0.00250467,-8.92552e-05,-6.4704e-05,1.29358e-05,-5.91464e-05,-9.48128e-05,1.16501,8.29454e-05,-0.235259,1.39335,-3.66184,-0.0136181,-0.00890336,0.000115762,0.00238833,188,380,-0.00815179,-0.0811367,84.8993,90.2422,84.8617,90.3099,6.42524e-05,6.05723e-05,0.000221669
-13.9638,13.4067,-297.616,0.000629116,0.0027216,0.00268056,-9.30473e-05,-5.9492e-05,1.17875e-05,-5.57651e-05,-9.67742e-05,1.26457,8.4133e-05,-0.223683,1.36889,-3.64799,-0.0235951,-0.00887715,0.00463882,0.00236517,195,380,-0.00908522,-0.0824203,86.0625,90.9862,86.0231,91.0547,6.31299e-05,5.89992e-05,0.00021839
-13.6759,13.3934,-297.603,0.000645169,0.00280473,0.0029683,-9.01354e-05,-5.30848e-05,9.49145e-06,-5.07949e-05,-9.24253e-05,1.33406,8.01737e-05,-0.256548,1.40539,-3.57883,-0.0308665,-0.00696492,0.00854419,0.0023689,202,380,-0.0110218,-0.0854214,87.2463,91.7302,87.2043,91.8003,6.25438e-05,5.78573e-05,0.000216605
-13.3869,13.3801,-297.586,0.000621179,0.00286485,0.00322364,-8.20735e-05,-4.69018e-05,6.93736e-06,-4.55829e-05,-8.33924e-05,1.38292,7.23244e-05,-0.304093,1.43235,-3.39583,-0.034358,-0.00310349,0.0104225,0.00231503,209,380,-0.0136611,-0.0882125,88.484,92.4783,88.4408,92.5491,6.13582e-05,5.68207e-05,0.000212927
-13.0974,13.3665,-297.567,0.000562567,0.00288988,0.00325132,-7.00662e-05,-4.19279e-05,4.31479e-06,-4.12811e-05,-7.0713e-05,1.42201,6.15252e-05,-0.344056,1.45435,-3.34893,-0.0334519,0.00151247,0.0108733,0.00224229,216,380,-0.015299,-0.0895176,89.7414,93.2405,89.6995,93.3114,6.00091e-05,5.65424e-05,0.000207985
-12.8078,13.3528,-297.547,0.000511655,0.002896,0.00323353,-5.61175e-05,-3.87965e-05,1.07234e-06,-3.87304e-05,-5.61836e-05,1.5092,4.98059e-05,-0.403952,1.42654,-3.2538,-0.0290761,0.00570294,0.0112418,0.00220538,223,380,-0.0163709,-0.0904566,91.0025,94.0089,90.9621,94.0792,5.90694e-05,5.62636e-05,0.000203814
-12.5178,13.3391,-297.526,0.000441311,0.00289381,0.00303126,-4.03112e-05,-3.76535e-05,-4.19891e-06,-3.45782e-05,-4.33865e-05,-0.938651,3.97217e-05,-0.445805,1.44512,-3.27755,-0.0237066,0.00879014,0.0116384,0.00220123,230,380,-0.0164604,-0.0908413,92.2849,94.7767,92.248,94.8466,5.84528e-05,5.59903e-05,0.000200383
-12.2267,13.3255,-297.5,0.000370277,0.00286969,0.00278594,-2.42546e-05,-3.80105e-05,-1.19404e-05,-1.73529e-05,-4.49123e-05,-0.524098,3.92285e-05,-0.435937,1.47212,-3.34097,-0.0179986,0.0104009,0.0123322,0.00216396,237,380,-0.0162048,-0.0901816,93.6211,95.5401,93.588,95.6093,5.64805e-05,5.41864e-05,0.00019295
-11.9356,13.3121,-297.474,0.00034019,0.00284924,0.00256116,-1.0272e-05,-3.95994e-05,-2.0709e-05,4.39219e-07,-5.03106e-05,-0.477333,5.05316e-05,-0.385185,1.56046,-3.3798,-0.0119855,0.0102841,0.012185,0.00214624,244,380,-0.0151152,-0.0897507,94.958,96.2918,94.9273,96.3603,5.58562e-05,5.39947e-05,0.000190921
-11.6454,13.2989,-297.451,0.000407065,0.00283853,0.00253889,1.51263e-06,-4.1952e-05,-2.97245e-05,1.6602e-05,-5.70414e-05,-0.469743,6.69055e-05,-0.354198,1.61365,-3.22005,-0.00569976,0.00835542,0.0102056,0.00214002,251,380,-0.0132229,-0.0894633,96.2518,97.0315,96.2193,97.0997,5.57142e-05,5.44633e-05,0.000191195
-11.3555,13.2856,-297.428,0.000569591,0.00289769,0.0026012,1.09522e-05,-4.45792e-05,-3.84333e-05,3.06001e-05,-6.42271e-05,-0.472584,8.38263e-05,-0.347377,1.60449,-2.9688,0.000645125,0.00507671,0.00710553,0.00216499,258,380,-0.00969298,-0.0907238,97.5362,97.7733,97.4985,97.8434,5.69077e-05,5.5002e-05,0.000196164
-11.0639,13.272,-297.399,0.000655825,0.00293692,0.00268689,1.80778e-05,-4.71119e-05,-4.6019e-05,4.1876e-05,-7.091e-05,-0.477264,9.87485e-05,-0.360458,1.54764,-2.828,0.00620267,0.00105776,0.0046076,0.00219421,265,380,-0.0082051,-0.091483,98.9035,98.5273,98.8627,98.5988,5.78059e-05,5.48714e-05,0.000199517
-10.7671,13.2583,-297.353,0.000677886,0.00293659,0.00273842,2.18886e-05,-4.89972e-05,-5.22324e-05,4.9568e-05,-7.66766e-05,-0.487302,0.000110168,-0.345381,1.49885,-2.76571,0.00885955,-0.00350588,0.00403559,0.00218924,272,380,-0.00799169,-0.0911525,100.536,99.291,100.494,99.3627,5.81183e-05,5.40644e-05,0.000200975
-10.4678,13.2438,-297.298,0.00060034,0.00290991,0.00264405,2.08901e-05,-4.93925e-05,-5.669e-05,5.24472e-05,-8.09495e-05,-0.507942,0.000116401,-0.31472,1.45748,-2.76167,0.00757263,-0.00825074,0.00509906,0.00215579,279,380,-0.00912007,-0.0915815,102.301,100.094,102.262,100.164,5.74133e-05,5.40183e-05,0.000198729
-10.1704,13.2294,-297.249,0.000531427,0.00281734,0.00260479,1.44582e-05,-4.76829e-05,-5.89684e-05,5.00408e-05,-8.32656e-05,-0.54293,0.000116636,-0.296847,1.45185,-2.88159,0.00242746,-0.0126819,0.00697469,0.00220337,286,380,-0.0104018,-0.0908354,103.97,100.898,103.933,100.964,5.79744e-05,5.69201e-05,0.000200333
-9.87533,13.2153,-297.206,0.000513438,0.00277436,0.00255878,5.27842e-06,-4.39466e-05,-5.96179e-05,4.51646e-05,-8.38327e-05,-0.589636,0.000113376,-0.307128,1.47044,-2.99632,-0.00426955,-0.0162605,0.00864171,0.00230742,293,380,-0.0103995,-0.0900941,105.518,101.679,105.482,101.744,5.96469e-05,5.98334e-05,0.000205716
-9.586,13.2014,-297.182,0.000535956,0.00275676,0.00245502,-5.32855e-06,-3.88203e-05,-5.89303e-05,3.9189e-05,-8.33378e-05,-0.646965,0.000108383,-0.357975,1.46534,-3.17475,-0.007372,-0.0182558,0.0099861,0.00238504,300,380,-0.00897724,-0.0899094,106.77,102.452,106.734,102.516,6.19804e-05,6.1432e-05,0.000213838
-9.29681,13.1882,-297.157,0.000526265,0.00273821,0.00222929,-1.77086e-05,-3.29519e-05,-5.70226e-05,3.21995e-05,-8.286e-05,-0.718962,0.000102814,-0.401355,1.44488,-3.22336,-0.00600425,-0.01875,0.0121495,0.00240935,307,380,-0.00741474,-0.0892194,108.015,103.189,107.982,103.252,6.33144e-05,6.07923e-05,0.000218795
-9.00663,13.1749,-297.129,0.00049982,0.00270149,0.00219012,-2.90001e-05,-2.60031e-05,-5.4286e-05,2.68051e-05,-8.18082e-05,-0.799197,9.79999e-05,-0.397662,1.41667,-3.13324,-0.00299391,-0.0174811,0.0151912,0.00241992,314,380,-0.00769422,-0.0887611,109.314,103.93,109.282,103.992,6.45006e-05,5.95816e-05,0.000223063
-8.71572,13.1615,-297.098,0.000496096,0.0026537,0.00224494,-3.71796e-05,-1.82674e-05,-5.03965e-05,2.35525e-05,-7.89995e-05,-0.878137,9.30391e-05,-0.376872,1.42778,-3.01653,0.000528689,-0.0142709,0.0177199,0.00238716,321,380,-0.00809026,-0.0869254,110.654,104.679,110.621,104.74,6.38786e-05,5.90199e-05,0.000220944
-8.42375,13.1477,-297.062,0.000535536,0.00262259,0.00246027,-4.20994e-05,-1.04838e-05,-4.53601e-05,2.17441e-05,-7.43273e-05,-0.953065,8.72556e-05,-0.38896,1.49165,-2.91517,0.00610412,-0.0094471,0.0183985,0.0023327,328,380,-0.00865893,-0.0860706,112.052,105.442,112.017,105.502,6.2513e-05,5.86365e-05,0.000216518
-8.12939,13.1338,-297.019,0.000562387,0.00262384,0.00256739,-4.43392e-05,-3.39525e-06,-3.91352e-05,2.02991e-05,-6.80336e-05,-1.02638,8.01352e-05,-0.414553,1.58847,-3.05617,0.0146443,-0.00370723,0.0172276,0.00229365,335,380,-0.00872228,-0.0847878,113.578,106.213,113.541,106.274,6.14459e-05,5.69943e-05,0.000212969
-7.8323,13.1196,-296.965,0.00052896,0.00261833,0.00238585,-4.53858e-05,2.48174e-06,-3.24924e-05,1.89036e-05,-6.18077e-05,-1.10283,7.31159e-05,-0.493993,1.66799,-3.28675,0.0234274,0.00203604,0.0141403,0.00233501,342,380,-0.00812509,-0.0847362,115.247,106.998,115.212,107.059,6.24974e-05,5.55438e-05,0.000216608
-7.53438,13.1054,-296.908,0.000532626,0.00263028,0.0022426,-4.58481e-05,7.50747e-06,-2.63725e-05,1.83425e-05,-5.66831e-05,-1.18097,6.77432e-05,-0.519435,1.67304,-3.38824,0.0304645,0.00737041,0.0101999,0.00241292,349,380,-0.00695007,-0.086586,116.966,107.78,116.932,107.839,6.45403e-05,5.52794e-05,0.000223373
-7.23758,13.0912,-296.855,0.00053513,0.00264,0.00226034,-4.54495e-05,1.17111e-05,-2.08481e-05,1.8507e-05,-5.22455e-05,-1.25568,6.35532e-05,-0.472424,1.65043,-3.17918,0.0368064,0.0122769,0.0058774,0.00247418,356,380,-0.00701627,-0.0883777,118.63,108.565,118.596,108.624,6.61923e-05,5.52263e-05,0.000228889
-6.94234,13.0772,-296.805,0.000511926,0.0026569,0.00226359,-4.61398e-05,1.5051e-05,-1.60034e-05,1.89837e-05,-5.00725e-05,-1.32983,6.17915e-05,-0.415259,1.6312,-2.92541,0.0422455,0.0161644,0.000902476,0.00250762,363,380,-0.00761846,-0.0901734,120.214,109.339,120.18,109.397,6.70673e-05,5.53497e-05,0.000231761
-6.6488,13.0633,-296.761,0.000464401,0.00268455,0.00210623,-4.86867e-05,1.78145e-05,-1.23698e-05,2.00409e-05,-5.0913e-05,-1.39272,6.33571e-05,-0.366021,1.62638,-2.77679,0.0449612,0.0187633,-0.00461319,0.00247073,370,380,-0.00760758,-0.090766,121.708,110.107,121.676,110.166,6.59585e-05,5.47561e-05,0.000227914
-6.3559,13.0495,-296.718,0.000434093,0.00272268,0.00196009,-5.07326e-05,2.00742e-05,-1.06293e-05,2.16354e-05,-5.22938e-05,-1.42496,6.58341e-05,-0.361307,1.62301,-2.79376,0.0455092,0.0203446,-0.0100203,0.00236874,377,380,-0.00726596,-0.0914839,123.171,110.866,123.141,110.926,6.31009e-05,5.39858e-05,0.000218157
-6.0633,13.0356,-296.675,0.000449384,0.00276102,0.0018818,-5.03998e-05,2.20913e-05,-9.94856e-06,2.34319e-05,-5.17403e-05,-1.43686,6.6622e-05,-0.323114,1.59779,-2.79959,0.0430653,0.0220591,-0.0143532,0.00226278,384,380,-0.00629497,-0.0921465,124.622,111.632,124.592,111.693,6.00232e-05,5.38235e-05,0.000207729
-5.77129,13.0217,-296.634,0.000519379,0.00279234,0.00197477,-4.66006e-05,2.39862e-05,-9.27969e-06,2.51857e-05,-4.78002e-05,-1.44224,6.42111e-05,-0.270688,1.55482,-2.73626,0.036134,0.0244772,-0.0166995,0.00221867,391,380,-0.00524782,-0.0938342,126.047,112.4,126.015,112.461,5.81516e-05,5.42914e-05,0.000201282
-5.47983,13.0079,-296.594,0.000536441,0.00279754,0.00203501,-4.26228e-05,2.65554e-05,-7.67106e-06,2.73958e-05,-4.34632e-05,-1.46167,6.18893e-05,-0.248459,1.50324,-2.74466,0.0237932,0.0277559,-0.0165749,0.00227841,398,380,-0.00524213,-0.0945732,127.444,113.163,127.411,113.224,5.77182e-05,5.58703e-05,0.000199909
-5.18852,12.994,-296.554,0.000521544,0.00279511,0.00204806,-4.07303e-05,2.99459e-05,-4.63664e-06,3.02488e-05,-4.10332e-05,-1.50556,6.19671e-05,-0.245899,1.44807,-2.76217,0.00648297,0.0310581,-0.0146114,0.00236288,405,380,-0.00565186,-0.0939545,128.834,113.928,128.801,113.989,5.8541e-05,5.77093e-05,0.000202828
-4.89721,12.9802,-296.513,0.000502893,0.00277549,0.00194925,-3.88465e-05,3.39051e-05,-6.12478e-07,3.39103e-05,-3.88516e-05,-1.56238,6.30621e-05,-0.275905,1.41562,-2.82066,-0.0105181,0.0342499,-0.0122247,0.00240817,412,380,-0.00528341,-0.0915488,130.227,114.684,130.195,114.747,5.89134e-05,5.84641e-05,0.000204251
-4.60561,12.9663,-296.47,0.000490018,0.00274411,0.00175495,-3.63644e-05,3.73049e-05,4.00505e-06,3.7522e-05,-3.65815e-05,1.51664,6.41773e-05,-0.308723,1.39185,-2.86558,-0.0217479,0.0369394,-0.00999382,0.00241882,419,380,-0.00406167,-0.0889368,131.638,115.449,131.608,115.513,6.06255e-05,5.82514e-05,0.000210074
-4.31321,12.9523,-296.424,0.00049652,0.00268599,0.00157258,-3.18362e-05,3.97504e-05,7.8428e-06,4.05996e-05,-3.26853e-05,1.46294,6.35898e-05,-0.319737,1.41552,-2.91605,-0.0277305,0.0388267,-0.00710591,0.00247235,426,380,-0.00243615,-0.0864317,133.097,116.221,133.068,116.284,6.32949e-05,5.76655e-05,0.000219151
-4.01965,12.9381,-296.374,0.000506204,0.00264285,0.00146401,-2.33054e-05,4.09575e-05,1.08356e-05,4.27353e-05,-2.50832e-05,1.40817,5.9392e-05,-0.266916,1.46317,-2.84318,-0.0317991,0.039728,-0.00304048,0.00249472,433,380,-0.00134806,-0.0868516,134.623,117.003,134.596,117.063,6.38527e-05,5.71058e-05,0.000221091
-3.72604,12.9242,-296.322,0.000516722,0.00265602,0.00123793,-1.22753e-05,4.12173e-05,1.33595e-05,4.43682e-05,-1.54262e-05,1.33918,5.37674e-05,-0.257196,1.52813,-2.85011,-0.0352717,0.0393396,0.00204583,0.00250604,440,380,0.00056983,-0.0878897,136.157,117.77,136.131,117.83,6.39815e-05,5.68004e-05,0.000221583
-3.43177,12.9102,-296.267,0.000485552,0.00267681,0.00122221,-1.97372e-06,4.06913e-05,1.68073e-05,4.65169e-05,-7.79932e-06,1.23714,5.0867e-05,-0.257239,1.58995,-2.7971,-0.0350766,0.037763,0.00654511,0.00244495,447,380,-0.000118052,-0.0896603,137.733,118.539,137.708,118.598,6.25231e-05,5.64289e-05,0.00021647
-3.13704,12.8961,-296.21,0.000459701,0.00274312,0.00115548,4.17191e-06,3.85125e-05,2.07297e-05,4.82595e-05,-5.57509e-06,1.13128,5.12749e-05,-0.302456,1.61081,-2.88869,-0.0313841,0.0346121,0.00915616,0.00238202,454,380,-0.000326846,-0.0913286,139.339,119.309,139.315,119.37,6.14154e-05,5.55043e-05,0.000212483
-2.84186,12.8818,-296.151,0.000446866,0.00276769,0.00120879,7.38752e-06,3.51829e-05,2.35912e-05,4.86657e-05,-6.09528e-06,1.05158,5.19821e-05,-0.330171,1.60912,-2.99777,-0.0272869,0.030036,0.00986985,0.00238311,461,380,-0.00103708,-0.092058,140.976,120.094,140.952,120.156,6.21796e-05,5.47412e-05,0.000214952
-2.54614,12.8672,-296.089,0.000447622,0.00277825,0.00122439,1.30934e-05,3.11398e-05,2.53096e-05,4.89865e-05,-4.75334e-06,0.956631,5.15279e-05,-0.342565,1.57251,-3.06039,-0.0215185,0.0246143,0.00980837,0.00239802,468,380,-0.00110305,-0.0918292,142.649,120.891,142.624,120.954,6.30353e-05,5.49885e-05,0.000217724
-2.25019,12.8528,-296.025,0.000449106,0.00274968,0.00126038,2.05689e-05,2.66468e-05,2.62825e-05,5.00655e-05,-2.84979e-06,0.842956,5.15495e-05,-0.315605,1.54622,-3.04029,-0.013377,0.0192229,0.00943436,0.00238926,475,380,-0.00127056,-0.0913929,144.341,121.682,144.316,121.744,6.33783e-05,5.54722e-05,0.000218611
-1.95399,12.8384,-295.96,0.000444153,0.00274135,0.00141298,2.47595e-05,2.27151e-05,2.65743e-05,5.03313e-05,-2.85664e-06,0.766174,5.18187e-05,-0.287872,1.5131,-3.01725,-0.00556549,0.0141977,0.00782914,0.00238018,482,380,-0.00246313,-0.091641,146.054,122.473,146.029,122.534,6.35022e-05,5.51421e-05,0.000218764
-1.65779,12.8241,-295.894,0.000481573,0.0027403,0.00172177,2.46602e-05,1.9432e-05,2.51333e-05,4.7315e-05,-3.22281e-06,0.73358,4.90059e-05,-0.313778,1.53071,-2.99542,-0.00097057,0.00920979,0.00511428,0.0023397,489,380,-0.0036974,-0.0915042,147.776,123.257,147.747,123.318,6.25279e-05,5.36025e-05,0.000215237
-1.3598,12.8094,-295.82,0.000540352,0.00275293,0.00203541,2.0735e-05,1.66167e-05,2.29734e-05,4.17414e-05,-4.38968e-06,0.740702,4.41004e-05,-0.346344,1.57985,-3.08636,-0.000236534,0.00469412,0.00241957,0.00230554,496,380,-0.00442451,-0.0914485,149.607,124.059,149.574,124.121,6.16712e-05,5.18951e-05,0.000212052
-1.05901,12.7945,-295.736,0.00054925,0.00281966,0.00210546,1.45286e-05,1.42186e-05,2.25923e-05,3.69664e-05,-8.21929e-06,0.781968,4.16883e-05,-0.352966,1.58502,-3.26678,-0.00245289,0.00119288,0.00104447,0.00226719,503,380,-0.00470064,-0.091855,151.602,124.87,151.567,124.936,6.06891e-05,5.16064e-05,0.000208467
-0.756151,12.7797,-295.643,0.000484878,0.00278453,0.00203404,8.36908e-06,1.26373e-05,2.50085e-05,3.56026e-05,-1.45962e-05,0.827963,4.47242e-05,-0.345618,1.56773,-3.34166,-0.00467287,-0.0012485,0.00217578,0.00228506,510,380,-0.00575091,-0.0917422,153.72,125.68,153.688,125.743,6.11614e-05,5.49138e-05,0.000209871
-0.451491,12.7649,-295.543,0.000421013,0.00276873,0.00186855,4.12359e-06,1.18248e-05,2.91002e-05,3.73281e-05,-2.13797e-05,0.851177,5.14639e-05,-0.321167,1.5437,-3.3168,-0.00705911,-0.00298998,0.00551413,0.00237571,517,380,-0.00615076,-0.0923112,155.951,126.492,155.922,126.554,6.13401e-05,5.91718e-05,0.000210193
-0.14734,12.75,-295.444,0.000436946,0.00279148,0.00175195,1.49092e-06,1.16498e-05,3.41e-05,4.10466e-05,-2.79058e-05,0.859333,6.0075e-05,-0.287536,1.55454,-3.11319,-0.0104068,-0.00477346,0.00999527,0.00239585,524,380,-0.00490242,-0.0926881,158.166,127.301,158.137,127.364,6.22447e-05,5.97677e-05,0.000212947
0.153494,12.7353,-295.355,0.000504707,0.00280081,0.00177865,-6.6223e-06,1.20968e-05,4.20584e-05,4.58245e-05,-4.035e-05,0.894883,7.46795e-05,-0.297879,1.57521,-2.9671,-0.0144127,-0.00654068,0.014221,0.00240185,531,380,-0.00335054,-0.0931183,160.203,128.109,160.172,128.172,6.30543e-05,5.86753e-05,0.000215789
0.450549,12.721,-295.279,0.00055098,0.00282259,0.00175152,-1.49379e-05,1.21781e-05,5.22074e-05,5.25593e-05,-5.5319e-05,0.91244,9.34355e-05,-0.360731,1.57239,-3.03432,-0.015259,-0.008999,0.0199646,0.00240574,538,380,-0.00197112,-0.0937228,162.03,128.887,161.998,128.951,6.43633e-05,5.71779e-05,0.000220384
0.744727,12.7072,-295.212,0.000578848,0.00274482,0.00169808,-1.90063e-05,1.10488e-05,6.39825e-05,6.17449e-05,-6.97023e-05,0.900742,0.000113906,-0.42671,1.5414,-3.14652,-0.0135818,-0.0122617,0.0284474,0.00249124,545,380,-0.000784832,-0.0928205,163.698,129.648,163.666,129.708,6.6243e-05,5.6736e-05,0.00022675
1.03679,12.6928,-295.153,0.000509169,0.00272884,0.00161641,-1.68713e-05,8.49019e-06,7.77545e-05,7.45912e-05,-8.29723e-05,0.86623,0.000136518,-0.447993,1.47426,-3.31209,-0.0105782,-0.0162547,0.0410295,0.00255862,552,380,-0.00193634,-0.0930179,165.246,130.434,165.216,130.493,6.83064e-05,5.8449e-05,0.000232962
1.32723,12.6786,-295.098,0.000433867,0.00277318,0.00153192,-1.25858e-05,4.63265e-06,9.4684e-05,9.1098e-05,-9.90511e-05,0.830737,0.000164722,-0.416658,1.44412,-3.32075,-0.00432576,-0.0207196,0.0567827,0.00258092,559,380,-0.00323442,-0.0924937,166.706,131.212,166.679,131.274,7.00645e-05,6.12129e-05,0.00023753
1.6164,12.6645,-295.047,0.00035852,0.00288902,0.0014485,-9.98207e-06,-8.63534e-08,0.000113304,0.000108378,-0.000118446,0.807219,0.000196499,-0.378958,1.48555,-3.21331,0.00865833,-0.0251555,0.0733578,0.00266657,566,380,-0.00461338,-0.0932174,168.098,131.974,168.074,132.041,7.18414e-05,6.37796e-05,0.000242368
1.90504,12.6507,-294.997,0.000363927,0.00290902,0.0015963,3.05715e-06,-4.61907e-06,0.000131034,0.00013031,-0.000131871,0.770757,0.000227057,-0.411501,1.55304,-3.15148,0.0390192,-0.0282878,0.0906321,0.00274245,573,380,-0.00547665,-0.0928972,169.47,132.728,169.444,132.797,7.29886e-05,6.45912e-05,0.000245375
0,0,0,0,0,0,0,0,0,0,0,0,0,0,0,0,0,0,0,-1,580,380,0,0,0,0,0,0,0,0,0
0,0,0,0,0,0,0,0,0,0,0,0,0,0,0,0,0,0,0,-1,587,380,0,0,0,0,0,0,0,0,0
0,0,0,0,0,0,0,0,0,0,0,0,0,0,0,0,0,0,0,-1,594,380,0,0,0,0,0,0,0,0,0
0,0,0,0,0,0,0,0,0,0,0,0,0,0,0,0,0,0,0,-1,601,380,0,0,0,0,0,0,0,0,0
0,0,0,0,0,0,0,0,0,0,0,0,0,0,0,0,0,0,0,-1,62,387,0,0,0,0,0,0,0,0,0
0,0,0,0,0,0,0,0,0,0,0,0,0,0,0,0,0,0,0,-1,69,387,0,0,0,0,0,0,0,0,0
0,0,0,0,0,0,0,0,0,0,0,0,0,0,0,0,0,0,0,-1,76,387,0,0,0,0,0,0,0,0,0
-18.5347,13.3437,-297.633,0.000718346,0.00281887,0.0012722,-8.93752e-05,8.53252e-06,-1.29023e-05,1.02042e-05,-9.10469e-05,-1.44195,9.65543e-05,-0.421009,1.50901,-2.96175,0.0876981,-0.036935,-0.0913287,0.00273233,83,387,0.00370357,-0.0841485,68.5169,80.0217,68.4851,80.0936,6.98734e-05,6.97485e-05,0.000245129
-18.257,13.3313,-297.656,0.000730901,0.00282051,0.0014301,-6.18168e-05,7.58483e-06,-4.97213e-06,7.93924e-06,-6.21712e-05,-1.49964,6.64972e-05,-0.409517,1.45128,-3.36566,0.0707851,-0.0293779,-0.0669759,0.00270086,90,387,0.00277834,-0.0823428,69.2469,80.7328,69.2135,80.8064,7.07865e-05,6.88069e-05,0.000248422
-17.9772,13.3188,-297.672,0.000723056,0.00283501,0.00157599,-3.08983e-05,5.08058e-06,2.00356e-06,5.19181e-06,-3.10096e-05,1.51534,3.39049e-05,-0.437839,1.45106,-3.8122,0.0589884,-0.0180442,-0.0494764,0.00266445,97,387,0.00141503,-0.082262,70.0752,81.4493,70.041,81.5237,6.97606e-05,6.79301e-05,0.000243849
-17.6962,13.3063,-297.684,0.000691997,0.00290405,0.00160712,-4.46441e-06,-2.11302e-07,9.66118e-06,7.5546e-06,-1.22303e-05,0.893727,1.7293e-05,-0.418228,1.53992,-4.12014,0.0528828,-0.00639142,-0.0364228,0.00258494,104,387,0.000344362,-0.0847202,70.9548,82.1694,70.9212,82.2452,6.77377e-05,6.57691e-05,0.000237123
-17.4142,13.2935,-297.693,0.000626935,0.00295443,0.00165915,1.37227e-05,-8.09968e-06,1.60998e-05,2.22603e-05,-1.66373e-05,0.48759,3.38035e-05,-0.40419,1.56968,-4.14922,0.0508164,0.00301312,-0.0255558,0.00250028,111,387,-0.00171778,-0.0870895,71.8749,82.8955,71.8429,82.9719,6.49401e-05,6.39566e-05,0.000227974
-17.1306,13.2807,-297.697,0.000619171,0.0029437,0.00174619,2.25396e-05,-1.79015e-05,1.90835e-05,3.01228e-05,-2.54847e-05,0.378238,4.82134e-05,-0.405269,1.55477,-3.86633,0.0505958,0.00922139,-0.0167146,0.00240786,118,387,-0.00257329,-0.0870856,72.8758,83.6267,72.8433,83.7025,6.13375e-05,6.18445e-05,0.000214694
-16.8458,13.2679,-297.698,0.000658822,0.0028939,0.00180547,2.18492e-05,-2.87927e-05,1.87548e-05,2.80384e-05,-3.4982e-05,0.318756,5.46876e-05,-0.398913,1.50451,-3.59354,0.051512,0.0122876,-0.010498,0.00232142,125,387,-0.00201587,-0.0872337,73.9295,84.3596,73.8956,84.4327,5.8639e-05,5.98639e-05,0.000204328
-16.5602,13.2551,-297.695,0.000723379,0.00286225,0.00185784,1.41115e-05,-4.03546e-05,1.71064e-05,1.90385e-05,-4.52816e-05,0.28043,5.72274e-05,-0.369815,1.47862,-3.40423,0.0529198,0.0126549,-0.00718492,0.00223402,132,387,-0.000790717,-0.0870074,75.0203,85.0932,74.9843,85.1647,5.63933e-05,5.76598e-05,0.000195975
-16.2747,13.2422,-297.693,0.000763032,0.00286704,0.00198152,5.13459e-06,-5.12254e-05,1.64865e-05,9.60297e-06,-5.56938e-05,0.264674,6.10642e-05,-0.325106,1.50072,-3.53617,0.0527462,0.0115201,-0.00417695,0.00218766,139,387,-0.000792371,-0.0877214,76.1032,85.8252,76.0652,85.8964,5.57802e-05,5.64333e-05,0.000193735
-15.9901,13.229,-297.693,0.000755525,0.00290052,0.00225254,-5.14234e-06,-6.23195e-05,1.51644e-05,-1.36942e-06,-6.60925e-05,0.24385,6.54185e-05,-0.266962,1.53126,-3.57976,0.0510058,0.0087179,-0.00245479,0.00219133,146,387,-0.00314646,-0.0880515,77.1386,86.569,77.0988,86.6416,5.77037e-05,5.62578e-05,0.000200592
-15.7056,13.2158,-297.693,0.000758177,0.00291571,0.00248036,-1.69587e-05,-7.2293e-05,1.29742e-05,-1.40677e-05,-7.5184e-05,0.219245,6.92305e-05,-0.238358,1.54076,-3.5011,0.0455508,0.0049011,-0.00174531,0.00222769,153,387,-0.00487825,-0.0882264,78.165,87.3171,78.1235,87.3904,5.95376e-05,5.64711e-05,0.000207109
-15.4206,13.2026,-297.691,0.000713618,0.0029063,0.00265456,-3.111e-05,-7.99648e-05,1.01143e-05,-2.90989e-05,-8.1976e-05,0.196281,7.19819e-05,-0.242804,1.54592,-3.34842,0.0366114,0.000366883,-0.00174269,0.00226971,160,387,-0.00729577,-0.0873953,79.2138,88.0677,79.1722,88.1412,6.07276e-05,5.65752e-05,0.000212073
-15.135,13.1894,-297.687,0.000692845,0.00284614,0.00271465,-4.74784e-05,-8.49932e-05,7.87686e-06,-4.58916e-05,-8.658e-05,0.198786,7.50256e-05,-0.264078,1.52856,-3.3511,0.0256165,-0.00411993,-0.00241981,0.00229567,167,387,-0.00815,-0.0852357,80.2868,88.8107,80.2454,88.883,6.14028e-05,5.72425e-05,0.000214394
-14.8488,13.1765,-297.681,0.0006528,0.0027626,0.00267098,-6.45687e-05,-8.74581e-05,6.74489e-06,-6.2729e-05,-8.92977e-05,0.266275,7.94195e-05,-0.282327,1.50513,-3.45458,0.0122993,-0.00787887,-0.00298212,0.00233122,174,387,-0.00860775,-0.0818659,81.3903,89.5462,81.3503,89.6172,6.24163e-05,5.83682e-05,0.000217006
-14.5619,13.1635,-297.672,0.000581715,0.00271795,0.00255348,-7.99973e-05,-8.73257e-05,6.4722e-06,-7.62241e-05,-9.1099e-05,0.527821,8.46475e-05,-0.26395,1.46698,-3.62731,-0.00201415,-0.0105883,-0.00231126,0.0023328,181,387,-0.00930522,-0.0804005,82.5259,90.2816,82.4887,90.3515,6.28227e-05,5.99347e-05,0.000217058
-14.2743,13.1503,-297.66,0.000577665,0.00271787,0.00261151,-9.11605e-05,-8.4978e-05,5.82432e-06,-8.14754e-05,-9.46631e-05,1.02937,8.88067e-05,-0.238932,1.40057,-3.59309,-0.0142689,-0.0120591,-8.27167e-05,0.00236963,188,387,-0.00983054,-0.0813183,83.6924,91.0259,83.6549,91.095,6.38737e-05,6.03222e-05,0.000220013
-13.9859,13.1371,-297.646,0.000583101,0.00272646,0.00276963,-9.51564e-05,-8.02456e-05,3.78395e-06,-7.93403e-05,-9.60617e-05,1.33596,8.88885e-05,-0.234089,1.37163,-3.59008,-0.0243743,-0.0118629,0.00349397,0.00238623,195,387,-0.0109215,-0.0823083,84.8999,91.7702,84.8612,91.8389,6.41651e-05,6.03544e-05,0.000221105
-13.6968,13.1238,-297.63,0.000585194,0.00280231,0.00302367,-9.22092e-05,-7.37225e-05,9.68982e-07,-7.36718e-05,-9.22598e-05,1.51857,8.45131e-05,-0.268471,1.40272,-3.5361,-0.0318341,-0.00967306,0.00655691,0.00241152,202,387,-0.0129319,-0.0854219,86.144,92.5182,86.1032,92.588,6.40321e-05,5.94815e-05,0.000221028
-13.4066,13.1103,-297.609,0.000573406,0.00286866,0.00325004,-8.37855e-05,-6.67142e-05,-1.54186e-06,-6.6576e-05,-8.39237e-05,-1.48144,7.67349e-05,-0.335675,1.46562,-3.46427,-0.035604,-0.00542445,0.00801073,0.00237737,209,387,-0.0150284,-0.0874577,87.4388,93.2711,87.3967,93.3426,6.30407e-05,5.80601e-05,0.000218058
-13.1163,13.0967,-297.587,0.000555618,0.00287344,0.00332248,-7.11646e-05,-6.02219e-05,-3.60562e-06,-5.91407e-05,-7.22458e-05,-1.27946,6.66664e-05,-0.358248,1.49043,-3.37191,-0.0351181,-0.000516724,0.00865311,0.00230314,216,387,-0.0159698,-0.0873148,88.74,94.0354,88.6978,94.1073,6.15018e-05,5.70819e-05,0.000212716
-12.826,13.0831,-297.566,0.00052395,0.00286176,0.00330157,-5.64578e-05,-5.49664e-05,-5.77281e-06,-4.98913e-05,-6.15328e-05,-0.84963,5.66169e-05,-0.41333,1.44621,-3.2977,-0.030812,0.00386058,0.00976759,0.00221599,223,387,-0.0165162,-0.0875736,90.0335,94.8006,89.9923,94.8717,5.91364e-05,5.59443e-05,0.00020405
-12.5357,13.0695,-297.543,0.000480959,0.00283527,0.00317438,-3.99154e-05,-5.13169e-05,-9.68996e-06,-3.43737e-05,-5.68587e-05,-0.519507,4.95985e-05,-0.446624,1.44314,-3.28714,-0.0252382,0.00703882,0.0113428,0.00217604,230,387,-0.0164887,-0.0872428,91.332,95.563,91.2929,95.633,5.74559e-05,5.45599e-05,0.000197315
-12.2447,13.0559,-297.519,0.000407331,0.00281489,0.00297097,-2.31633e-05,-4.92458e-05,-1.58909e-05,-1.56475e-05,-5.67616e-05,-0.441788,5.07794e-05,-0.445615,1.46801,-3.33475,-0.0194104,0.00861159,0.013442,0.00212517,237,387,-0.0166385,-0.0872616,92.658,96.3206,92.6224,96.3895,5.49269e-05,5.30584e-05,0.00018805
-11.9539,13.0427,-297.494,0.000360306,0.00280487,0.00276529,-8.51399e-06,-4.88213e-05,-2.33041e-05,2.14228e-06,-5.94776e-05,-0.428883,6.05771e-05,-0.395851,1.54483,-3.31069,-0.0132728,0.00829798,0.0148023,0.00210432,244,387,-0.0161216,-0.0869682,93.9795,97.0641,93.9467,97.1327,5.37996e-05,5.32263e-05,0.000184538
-11.6637,13.0295,-297.47,0.0003906,0.00278565,0.00265437,3.7465e-06,-4.97085e-05,-3.1234e-05,1.81276e-05,-6.40896e-05,-0.431496,7.4819e-05,-0.351505,1.58731,-3.14127,-0.00654537,0.00595098,0.0142412,0.00212593,251,387,-0.0144404,-0.0869595,95.2718,97.8046,95.2389,97.8722,5.4323e-05,5.44302e-05,0.000186981
-11.3728,13.0163,-297.444,0.000532872,0.00282852,0.00266981,1.34631e-05,-5.15276e-05,-3.90235e-05,3.17494e-05,-6.9814e-05,-0.438213,8.99921e-05,-0.330678,1.58346,-2.90936,0.000779433,0.00194177,0.0121891,0.00219445,258,387,-0.0110411,-0.0884363,96.6057,98.5399,96.5687,98.6083,5.71188e-05,5.58239e-05,0.000196778
-11.0788,13.0029,-297.408,0.000652335,0.00289011,0.0028149,2.07754e-05,-5.37647e-05,-4.58214e-05,4.25701e-05,-7.55595e-05,-0.443976,0.000103624,-0.356398,1.52901,-2.80398,0.00746568,-0.00314726,0.0103461,0.00223175,265,387,-0.00920835,-0.0894219,98.0986,99.2894,98.0569,99.3601,5.85248e-05,5.56725e-05,0.000201739
-10.7813,12.9889,-297.36,0.000698417,0.00290659,0.00288535,2.44956e-05,-5.5791e-05,-5.152e-05,4.96654e-05,-8.09607e-05,-0.454441,0.000114203,-0.365401,1.48581,-2.78713,0.0110819,-0.00886472,0.010129,0.00222293,272,387,-0.0085796,-0.0903116,99.7693,100.065,99.7258,100.136,5.84599e-05,5.49106e-05,0.000202097
-10.4826,12.9744,-297.307,0.000632917,0.00285801,0.00278178,2.31044e-05,-5.6601e-05,-5.58753e-05,5.18832e-05,-8.53798e-05,-0.475618,0.000120047,-0.363147,1.44124,-2.78167,0.0104696,-0.0144945,0.0111871,0.00220822,279,387,-0.00932535,-0.0908755,101.501,100.873,101.461,100.941,5.7827e-05,5.58836e-05,0.000200171
-10.1872,12.9604,-297.264,0.000586568,0.00278459,0.00272797,1.60076e-05,-5.5426e-05,-5.83476e-05,4.87023e-05,-8.81207e-05,-0.51075,0.00012012,-0.366046,1.43442,-2.89013,0.00594909,-0.0193248,0.0125545,0.00230735,286,387,-0.00994513,-0.0902383,103.067,101.658,103.028,101.722,5.80974e-05,5.94892e-05,0.000201099
-9.89503,12.9466,-297.231,0.000580539,0.00275756,0.00272178,5.94033e-06,-5.22776e-05,-5.92091e-05,4.2809e-05,-8.91463e-05,-0.556933,0.000116602,-0.373897,1.46479,-2.93591,-0.000131601,-0.022746,0.013107,0.0024167,293,387,-0.00995848,-0.0895276,104.465,102.425,104.426,102.488,5.96689e-05,6.25101e-05,0.000206366
-9.6054,12.933,-297.205,0.000608026,0.00276489,0.0025637,-5.63406e-06,-4.76675e-05,-5.86867e-05,3.56857e-05,-8.89872e-05,-0.613454,0.00011121,-0.391617,1.48963,-3.02252,-0.00317945,-0.0242828,0.0129015,0.00247479,300,387,-0.00800778,-0.0893691,105.732,103.183,105.694,103.247,6.2199e-05,6.40107e-05,0.000215251
-9.31491,12.9196,-297.177,0.000590861,0.00275048,0.00231188,-1.89409e-05,-4.21277e-05,-5.71134e-05,2.77439e-05,-8.88124e-05,-0.685264,0.000105458,-0.386396,1.47432,-3.01271,-0.0025263,-0.0240781,0.0133282,0.00246972,307,387,-0.00643262,-0.0887511,107.044,103.925,107.008,103.989,6.33274e-05,6.3498e-05,0.000219294
-9.02355,12.9061,-297.145,0.000549587,0.00271599,0.0022454,-3.10027e-05,-3.54119e-05,-5.49887e-05,2.18256e-05,-8.82402e-05,-0.765363,0.000100938,-0.358052,1.44182,-2.97162,-0.000743979,-0.0218132,0.0145001,0.00241959,314,387,-0.00687503,-0.0884746,108.403,104.678,108.369,104.74,6.36287e-05,6.12048e-05,0.000220245
-8.73174,12.8927,-297.111,0.000541808,0.00265474,0.00233439,-3.95169e-05,-2.76951e-05,-5.17034e-05,1.84342e-05,-8.56462e-05,-0.842312,9.61973e-05,-0.313875,1.44853,-2.88844,0.00145889,-0.0170709,0.0152998,0.00237016,321,387,-0.00762665,-0.0868279,109.789,105.429,109.754,105.49,6.2654e-05,5.96357e-05,0.000216607
-8.4389,12.879,-297.072,0.00056185,0.00263229,0.0025754,-4.40505e-05,-1.95915e-05,-4.7096e-05,1.68369e-05,-8.0479e-05,-0.912428,9.00853e-05,-0.324676,1.49842,-2.84189,0.00563033,-0.0102754,0.0147037,0.00228837,328,387,-0.00887533,-0.0859627,111.233,106.189,111.196,106.249,6.06409e-05,5.83886e-05,0.000209858
-8.1434,12.8651,-297.025,0.000554665,0.00263633,0.00261302,-4.56421e-05,-1.17746e-05,-4.09735e-05,1.56265e-05,-7.30431e-05,-0.981351,8.19811e-05,-0.378078,1.57744,-2.99737,0.0129429,-0.00237732,0.0129199,0.0022434,335,387,-0.00927074,-0.0852213,112.818,106.957,112.78,107.019,5.99359e-05,5.66288e-05,0.000207465
-7.84585,12.8509,-296.97,0.000536801,0.00264441,0.00257363,-4.65198e-05,-4.74988e-06,-3.42385e-05,1.44707e-05,-6.57404e-05,-1.05926,7.4044e-05,-0.455379,1.63745,-3.17879,0.0208392,0.00554479,0.00983584,0.00230388,342,387,-0.00937218,-0.0854461,114.513,107.745,114.476,107.806,6.17672e-05,5.62118e-05,0.000213749
-7.54772,12.8367,-296.913,0.000527437,0.00264063,0.00251064,-4.73279e-05,1.45827e-06,-2.78015e-05,1.4051e-05,-5.99206e-05,-1.14549,6.8043e-05,-0.48612,1.61264,-3.27334,0.0271974,0.0128907,0.0061843,0.00238374,349,387,-0.00910182,-0.0867451,116.243,108.528,116.207,108.588,6.36655e-05,5.60337e-05,0.000220264
-7.25058,12.8227,-296.858,0.000517895,0.00261422,0.00255139,-4.73279e-05,6.67273e-06,-2.18126e-05,1.43827e-05,-5.50379e-05,-1.23104,6.34636e-05,-0.442797,1.58006,-3.09224,0.033251,0.019462,0.00234621,0.00243153,356,387,-0.00959515,-0.0875719,117.924,109.307,117.888,109.365,6.48457e-05,5.54164e-05,0.000224282
-6.95467,12.8087,-296.806,0.000506947,0.0026042,0.00256283,-4.8241e-05,1.07898e-05,-1.65965e-05,1.51359e-05,-5.25871e-05,-1.31468,6.15667e-05,-0.405188,1.57206,-2.96643,0.0387442,0.0244783,-0.0018286,0.0024618,363,387,-0.00990305,-0.0879793,119.544,110.083,119.508,110.14,6.56674e-05,5.50888e-05,0.000227115
-6.66035,12.7948,-296.759,0.000490344,0.00261708,0.00239151,-5.13672e-05,1.41465e-05,-1.27818e-05,1.65519e-05,-5.37726e-05,-1.38478,6.36828e-05,-0.390048,1.5828,-2.9275,0.0421779,0.0275321,-0.00636651,0.0024359,370,387,-0.00898553,-0.0877809,121.08,110.851,121.046,110.909,6.49835e-05,5.44492e-05,0.000224785
-6.36686,12.781,-296.714,0.000493573,0.00266539,0.00220069,-5.46166e-05,1.67748e-05,-1.09419e-05,1.84142e-05,-5.6256e-05,-1.42208,6.73775e-05,-0.368212,1.58498,-2.93353,0.0441531,0.0287917,-0.0109883,0.00236634,377,387,-0.00746258,-0.0879844,122.576,111.61,122.543,111.671,6.31039e-05,5.3825e-05,0.000218402
-6.07404,12.7672,-296.671,0.000514967,0.00271861,0.00202464,-5.56495e-05,1.88508e-05,-1.03356e-05,2.0258e-05,-5.70568e-05,-1.43547,6.94387e-05,-0.332678,1.57698,-2.9368,0.0434806,0.0293619,-0.0148473,0.00230444,384,387,-0.0056388,-0.0897807,124.039,112.37,124.007,112.431,6.1301e-05,5.37747e-05,0.000212249
-5.78188,12.7535,-296.629,0.000560514,0.00276142,0.00195326,-5.27763e-05,2.05838e-05,-9.99827e-06,2.1922e-05,-5.41145e-05,-1.43774,6.77883e-05,-0.27329,1.53809,-2.78465,0.0379418,0.0299519,-0.0169363,0.00227141,391,387,-0.00401438,-0.0928326,125.471,113.129,125.438,113.19,6.01666e-05,5.39166e-05,0.000208281
-5.49014,12.7398,-296.588,0.000577889,0.00277889,0.00201169,-4.9264e-05,2.2884e-05,-8.97838e-06,2.39845e-05,-5.03645e-05,-1.44883,6.57253e-05,-0.243933,1.49447,-2.78155,0.026352,0.0310215,-0.0166205,0.00227683,398,387,-0.00401957,-0.0947758,126.883,113.89,126.849,113.95,5.94955e-05,5.43798e-05,0.000205991
-5.19836,12.7259,-296.546,0.000568741,0.0027998,0.00202201,-4.78147e-05,2.60145e-05,-6.63152e-06,2.66054e-05,-4.84057e-05,-1.48192,6.58696e-05,-0.245677,1.43271,-2.88922,0.00976149,0.0321732,-0.0145669,0.00230945,405,387,-0.00429395,-0.0948868,128.299,114.655,128.266,114.716,5.98553e-05,5.53781e-05,0.000207166
-4.90637,12.7121,-296.503,0.000554946,0.00280048,0.00196299,-4.66261e-05,2.98671e-05,-3.04144e-06,2.99878e-05,-4.67468e-05,-1.53112,6.69804e-05,-0.272262,1.39506,-3.01902,-0.0064568,0.0335546,-0.0122097,0.00233945,412,387,-0.00410878,-0.0924629,129.73,115.414,129.696,115.478,6.03083e-05,5.63536e-05,0.000208791
-4.61389,12.6982,-296.458,0.000521993,0.0027906,0.0017075,-4.47172e-05,3.34922e-05,1.43313e-06,3.35184e-05,-4.47435e-05,1.55248,6.80088e-05,-0.307325,1.37617,-3.07262,-0.0174236,0.0347047,-0.00987412,0.00239513,419,387,-0.00295609,-0.0900388,131.188,116.18,131.158,116.245,6.20214e-05,5.70716e-05,0.000214682
-4.32074,12.6843,-296.409,0.00050549,0.00272389,0.00156341,-4.01498e-05,3.63781e-05,5.37373e-06,3.67536e-05,-4.05253e-05,1.50103,6.6952e-05,-0.310409,1.39314,-3.07195,-0.0243207,0.0354513,-0.00667045,0.00248267,426,387,-0.00218265,-0.0874754,132.689,116.949,132.66,117.013,6.36704e-05,5.78027e-05,0.000220442
-4.02635,12.6701,-296.356,0.00051692,0.00265088,0.00147095,-3.09547e-05,3.80764e-05,8.73587e-06,3.91648e-05,-3.20431e-05,1.44685,6.17706e-05,-0.262067,1.41569,-3.01841,-0.0301983,0.0357463,-0.00213254,0.00253418,433,387,-0.00114443,-0.087582,134.262,117.734,134.234,117.794,6.40021e-05,5.86746e-05,0.000221697
-3.73204,12.6562,-296.302,0.000542654,0.00263137,0.00135473,-1.88341e-05,3.88751e-05,1.18801e-05,4.12251e-05,-2.11841e-05,1.37551,5.4969e-05,-0.230766,1.46229,-3.00979,-0.03528,0.0354322,0.00338063,0.00257883,440,387,0.000389587,-0.0878442,135.837,118.5,135.81,118.558,6.41984e-05,5.92445e-05,0.000222539
-3.43696,12.6423,-296.244,0.000502257,0.00263988,0.00142064,-7.19766e-06,3.89794e-05,1.63482e-05,4.41812e-05,-1.23995e-05,1.26274,5.15126e-05,-0.238237,1.52357,-3.05898,-0.0358957,0.0346847,0.0082731,0.0025318,447,387,-0.00109324,-0.0886144,137.459,119.267,137.432,119.326,6.29484e-05,5.88736e-05,0.000218174
-3.14156,12.6284,-296.185,0.000452514,0.00269345,0.00139469,3.89088e-07,3.77866e-05,2.1608e-05,4.76632e-05,-9.4875e-06,1.14207,5.30471e-05,-0.276802,1.55136,-3.17834,-0.0324577,0.032897,0.0113712,0.00250271,454,387,-0.00217895,-0.0898724,139.103,120.033,139.077,120.093,6.37424e-05,5.7383e-05,0.000220722
-2.84531,12.6142,-296.122,0.000387717,0.00271565,0.00137828,4.58675e-06,3.56591e-05,2.57954e-05,5.02356e-05,-9.9898e-06,1.05645,5.5904e-05,-0.305132,1.55759,-3.26885,-0.0285626,0.0301064,0.0125113,0.00251768,461,387,-0.00368031,-0.090335,140.8,120.813,140.776,120.874,6.51473e-05,5.57299e-05,0.000225451
-2.54851,12.5997,-296.056,0.000346427,0.0027396,0.00132584,1.04922e-05,3.27239e-05,2.90009e-05,5.26663e-05,-9.45019e-06,0.968409,5.7972e-05,-0.301292,1.52828,-3.24619,-0.023061,0.0267481,0.0126284,0.00250082,468,387,-0.00432879,-0.0905772,142.533,121.607,142.51,121.669,6.5128e-05,5.56102e-05,0.000225206
-2.25136,12.5853,-295.988,0.000344533,0.00271621,0.00127046,1.80527e-05,2.90375e-05,3.15302e-05,5.55501e-05,-8.45994e-06,0.87163,6.02274e-05,-0.255793,1.52286,-3.18229,-0.0151335,0.0235131,0.0121477,0.00243526,475,387,-0.00392491,-0.0901007,144.294,122.4,144.272,122.461,6.37724e-05,5.6012e-05,0.000220228
-1.95383,12.5708,-295.918,0.000358569,0.00273755,0.00132323,2.28724e-05,2.55798e-05,3.32429e-05,5.74965e-05,-9.0443e-06,0.805748,6.25113e-05,-0.233526,1.52796,-3.18355,-0.00744006,0.0204378,0.0102953,0.00233041,482,387,-0.00394213,-0.0904591,146.083,123.198,146.06,123.26,6.17769e-05,5.52893e-05,0.000212926
-1.65696,12.5564,-295.849,0.000427004,0.00275441,0.00160572,2.35767e-05,2.25978e-05,3.32056e-05,5.62964e-05,-1.0122e-05,0.778029,6.19804e-05,-0.280068,1.56667,-3.15329,-0.00294536,0.0169634,0.00713713,0.00226854,489,387,-0.00423062,-0.0908632,147.846,123.985,147.819,124.047,6.05884e-05,5.33737e-05,0.000208517
-1.35907,12.5419,-295.776,0.000493625,0.00278112,0.00182036,1.99823e-05,1.97931e-05,3.22599e-05,5.21477e-05,-1.23724e-05,0.783932,5.93098e-05,-0.330843,1.60579,-3.18661,-0.00221191,0.0134909,0.00366323,0.00229339,496,387,-0.0040703,-0.0911497,149.673,124.78,149.642,124.844,6.13219e-05,5.20139e-05,0.000210828
-1.05894,12.5272,-295.694,0.000543922,0.00284668,0.00188576,1.38298e-05,1.71652e-05,3.26157e-05,4.81558e-05,-1.71608e-05,0.810942,5.86503e-05,-0.329885,1.58301,-3.2795,-0.00435968,0.0105034,0.00127782,0.00235483,503,387,-0.00328931,-0.0923718,151.633,125.587,151.6,125.653,6.26987e-05,5.31513e-05,0.00021553
-0.756818,12.5125,-295.603,0.000519691,0.00281098,0.00185172,7.93613e-06,1.50626e-05,3.52138e-05,4.6893e-05,-2.38943e-05,0.835821,6.23727e-05,-0.306231,1.55041,-3.30471,-0.00679169,0.00814525,0.00139151,0.00243317,510,387,-0.00359675,-0.0923753,153.713,126.395,153.681,126.459,6.41089e-05,5.75244e-05,0.000220278
-0.453581,12.498,-295.508,0.000507049,0.00275886,0.00177605,3.98402e-06,1.36347e-05,3.88336e-05,4.79416e-05,-3.03229e-05,0.84721,6.83491e-05,-0.277874,1.51551,-3.31903,-0.00968365,0.00616043,0.0039666,0.00250574,517,387,-0.0032975,-0.0918766,155.867,127.193,155.836,127.255,6.41706e-05,6.20846e-05,0.000220152
-0.150548,12.4833,-295.413,0.000497308,0.00273098,0.00164216,1.21218e-06,1.26585e-05,4.29076e-05,5.02229e-05,-3.63522e-05,0.851699,7.52964e-05,-0.271663,1.52336,-3.20412,-0.0134207,0.00409472,0.00790741,0.00247777,524,387,-0.00252263,-0.09107,158.018,128.003,157.988,128.064,6.30173e-05,6.31233e-05,0.000215543
0.149653,12.4685,-295.326,0.000526438,0.00271245,0.001623,-7.72856e-06,1.24843e-05,4.97975e-05,5.31905e-05,-4.84348e-05,0.885513,8.80423e-05,-0.303876,1.54544,-3.00646,-0.0176991,0.00185725,0.011473,0.00246009,531,387,-0.00159637,-0.0908455,160.018,128.815,159.988,128.876,6.36537e-05,6.18925e-05,0.000217538
0.445742,12.4543,-295.254,0.00057088,0.00271684,0.00160062,-1.72161e-05,1.21893e-05,5.82947e-05,5.76068e-05,-6.26336e-05,0.908929,0.000104162,-0.401177,1.53041,-3.01998,-0.0188415,-0.00126403,0.0167315,0.00246928,538,387,-0.000292056,-0.0915801,161.79,129.594,161.759,129.654,6.56676e-05,6.01351e-05,0.000224722
0.739468,12.4406,-295.189,0.000601297,0.00265426,0.00152824,-2.2348e-05,1.08257e-05,6.77225e-05,6.3963e-05,-7.54853e-05,0.905496,0.000120903,-0.470199,1.49804,-3.04514,-0.0176263,-0.0053953,0.0248653,0.00253623,545,387,0.00106945,-0.0912501,163.433,130.351,163.402,130.408,6.77158e-05,5.94043e-05,0.00023165
1.03143,12.4266,-295.129,0.000541255,0.00268013,0.00146147,-2.11862e-05,8.06924e-06,7.82586e-05,7.30555e-05,-8.61724e-05,0.877789,0.000138051,-0.498935,1.43728,-3.19689,-0.0145479,-0.0104156,0.0370497,0.00261262,552,387,2.12091e-05,-0.0919516,164.977,131.121,164.948,131.179,6.96849e-05,6.07635e-05,0.000237805
1.32217,12.4126,-295.073,0.00045514,0.00273971,0.00141115,-1.79627e-05,4.14729e-06,9.09015e-05,8.46636e-05,-9.8479e-05,0.845909,0.000158757,-0.469053,1.41859,-3.2643,-0.00703002,-0.0158772,0.0522916,0.00264075,559,387,-0.00180079,-0.091361,166.457,131.885,166.43,131.947,7.13587e-05,6.26978e-05,0.000242176
1.61159,12.3985,-295.021,0.000354326,0.0028557,0.00140933,-1.66667e-05,-2.49299e-07,0.000103681,9.55475e-05,-0.000112463,0.824902,0.000180341,-0.42749,1.46799,-3.17624,0.00812037,-0.0210879,0.0683497,0.00270532,566,387,-0.00440235,-0.0922229,167.864,132.651,167.84,132.718,7.3333e-05,6.48171e-05,0.000247582
1.90005,12.3849,-294.972,0.000348068,0.00288228,0.00169518,-6.07232e-06,-4.46981e-06,0.000114009,0.000108741,-0.000119283,0.788912,0.000197545,-0.468966,1.53625,-3.14601,0.0404764,-0.0245456,0.0855714,0.00277736,573,387,-0.00653466,-0.0922116,169.228,133.398,169.202,133.466,7.45455e-05,6.47314e-05,0.000250706
0,0,0,0,0,0,0,0,0,0,0,0,0,0,0,0,0,0,0,-1,580,387,0,0,0,0,0,0,0,0,0
0,0,0,0,0,0,0,0,0,0,0,0,0,0,0,0,0,0,0,-1,587,387,0,0,0,0,0,0,0,0,0
0,0,0,0,0,0,0,0,0,0,0,0,0,0,0,0,0,0,0,-1,594,387,0,0,0,0,0,0,0,0,0
0,0,0,0,0,0,0,0,0,0,0,0,0,0,0,0,0,0,0,-1,601,387,0,0,0,0,0,0,0,0,0
0,0,0,0,0,0,0,0,0,0,0,0,0,0,0,0,0,0,0,-1,62,394,0,0,0,0,0,0,0,0,0
0,0,0,0,0,0,0,0,0,0,0,0,0,0,0,0,0,0,0,-1,69,394,0,0,0,0,0,0,0,0,0
0,0,0,0,0,0,0,0,0,0,0,0,0,0,0,0,0,0,0,-1,76,394,0,0,0,0,0,0,0,0,0
-18.5649,13.0733,-297.686,0.000681522,0.00286627,0.00110879,-6.46719e-05,2.03255e-05,-1.51981e-05,2.29613e-05,-6.73077e-05,-1.39908,8.12589e-05,-0.495206,1.49817,-2.97659,0.070554,-0.0385547,-0.0904034,0.00262752,83,394,0.00412334,-0.0843465,66.9709,80.8618,66.9412,80.936,6.72745e-05,6.67849e-05,0.000238637
-18.2874,13.061,-297.709,0.000762407,0.00286598,0.00125661,-4.3967e-05,1.94547e-05,-6.34709e-06,2.00837e-05,-4.4596e-05,-1.47202,5.73394e-05,-0.492875,1.44998,-3.33462,0.0578298,-0.0329045,-0.0696413,0.00267876,90,394,0.00497015,-0.081687,67.6916,81.569,67.6583,81.6454,6.88866e-05,6.77793e-05,0.000244429
-18.0077,13.0485,-297.726,0.000810146,0.00286937,0.00141937,-1.78745e-05,1.59826e-05,1.64416e-06,1.60623e-05,-1.79541e-05,1.52239,2.94743e-05,-0.482854,1.4719,-3.63898,0.0489121,-0.0232856,-0.0543776,0.00270003,97,394,0.00485069,-0.0807935,68.517,82.2832,68.4813,82.3605,6.91394e-05,6.86175e-05,0.000244143
-17.7264,13.036,-297.738,0.000758026,0.00293304,0.00137969,4.98641e-06,9.39424e-06,1.04771e-05,1.78968e-05,-3.51611e-06,0.889064,1.98893e-05,-0.428821,1.55438,-3.90528,0.0450577,-0.0128387,-0.042147,0.00263535,104,394,0.00384452,-0.0832809,69.4059,82.9964,69.3718,83.0749,6.76983e-05,6.67557e-05,0.000238916
-17.4443,13.0234,-297.747,0.000665273,0.00297698,0.00144546,2.06439e-05,1.67169e-07,1.81883e-05,3.12775e-05,-1.04664e-05,0.529047,3.7619e-05,-0.419885,1.56248,-3.99665,0.0446846,-0.00396568,-0.030958,0.00256562,111,394,0.000986294,-0.0858971,70.3315,83.716,70.2997,83.7945,6.57993e-05,6.54176e-05,0.000232206
-17.1604,13.0107,-297.75,0.000640161,0.0029493,0.00158671,2.76498e-05,-1.10175e-05,2.22937e-05,3.78254e-05,-2.11931e-05,0.428194,5.17837e-05,-0.424808,1.53181,-3.82469,0.0457475,0.00235321,-0.0210483,0.00250055,118,394,-0.000727737,-0.085745,71.342,84.4426,71.31,84.5197,6.32905e-05,6.41083e-05,0.000222013
-16.8751,12.9977,-297.749,0.000677667,0.00289956,0.0017032,2.55608e-05,-2.36377e-05,2.26755e-05,3.44175e-05,-3.24945e-05,0.372364,5.79554e-05,-0.401301,1.47635,-3.61729,0.0476501,0.00596761,-0.0134692,0.00245023,125,394,-0.000681632,-0.0854184,72.4191,85.1797,72.3852,85.2545,6.15498e-05,6.30715e-05,0.000214513
-16.5891,12.9847,-297.745,0.000743904,0.00286295,0.00181172,1.68307e-05,-3.74426e-05,2.11432e-05,2.40952e-05,-4.4707e-05,0.330945,6.04691e-05,-0.363875,1.47301,-3.49423,0.0499487,0.00704033,-0.00879364,0.00239421,132,394,0.000136517,-0.084875,73.5291,85.92,73.4927,85.9934,6.04662e-05,6.17179e-05,0.000210069
-16.3032,12.9718,-297.742,0.00078842,0.00285698,0.0019982,6.77211e-06,-5.08393e-05,2.0257e-05,1.31817e-05,-5.72488e-05,0.306445,6.48523e-05,-0.311608,1.49139,-3.59094,0.0507831,0.00634403,-0.0048133,0.00234605,139,394,-0.000253298,-0.0858216,74.6302,86.6543,74.5913,86.7266,6.08457e-05,6.04205e-05,0.00021083
-16.0188,12.9588,-297.742,0.00079148,0.00287583,0.00232414,-4.43459e-06,-6.45814e-05,1.81551e-05,6.20577e-07,-6.96366e-05,0.271565,6.9949e-05,-0.283152,1.50332,-3.61908,0.0498445,0.00424616,-0.00220981,0.00234261,146,394,-0.00280226,-0.0871393,75.659,87.3895,75.6177,87.4616,6.25048e-05,5.97056e-05,0.000216446
-15.7342,12.9459,-297.742,0.000799226,0.00292113,0.00260874,-1.69303e-05,-7.72523e-05,1.46308e-05,-1.3569e-05,-8.06136e-05,0.225824,7.47584e-05,-0.271591,1.51472,-3.52442,0.0449246,0.00127592,-0.000774022,0.00235536,153,394,-0.00491223,-0.0887763,76.6888,88.123,76.6453,88.1959,6.31398e-05,5.92554e-05,0.000218184
-15.4494,12.9328,-297.741,0.000748778,0.00292587,0.00281639,-3.15701e-05,-8.76699e-05,1.00412e-05,-2.9827e-05,-8.9413e-05,0.171881,7.88505e-05,-0.267491,1.56399,-3.35033,0.0362632,-0.00235374,-0.000363914,0.00233086,160,394,-0.00775031,-0.0880221,77.7239,88.862,77.6802,88.9359,6.22585e-05,5.79591e-05,0.00021632
-15.1638,12.9197,-297.738,0.000715801,0.00287591,0.00282546,-4.82496e-05,-9.53962e-05,5.94029e-06,-4.75127e-05,-9.61331e-05,0.123427,8.32556e-05,-0.275101,1.58791,-3.30116,0.0253438,-0.00593698,-0.00110553,0.00228498,167,394,-0.00849428,-0.0856649,78.7949,89.5996,78.752,89.6729,6.09225e-05,5.70792e-05,0.000211988
-14.8772,12.9067,-297.73,0.000663486,0.00278547,0.00280826,-6.56202e-05,-0.000100256,3.03275e-06,-6.53566e-05,-0.00010052,0.0866814,8.83521e-05,-0.299313,1.57944,-3.40131,0.0120162,-0.00884916,-0.0021423,0.00226962,174,394,-0.00944597,-0.0816264,79.9149,90.337,79.8736,90.4092,6.09064e-05,5.68933e-05,0.000211291
-14.5895,12.8936,-297.719,0.000581405,0.00272007,0.00274425,-8.12704e-05,-0.000102085,1.18738e-06,-8.12028e-05,-0.000102152,0.0568008,9.34555e-05,-0.279768,1.5214,-3.50707,-0.00222737,-0.0109167,-0.00227787,0.00225917,181,394,-0.0108169,-0.0797122,81.0869,91.0763,81.0483,91.1468,6.05468e-05,5.78592e-05,0.000209661
-14.3005,12.8805,-297.703,0.000544835,0.00270842,0.00277868,-9.26526e-05,-0.000101154,-9.29649e-07,-9.25521e-05,-0.000101254,-0.107657,9.71959e-05,-0.246411,1.43092,-3.41483,-0.0144607,-0.0119945,-0.00107886,0.00229482,188,394,-0.0119374,-0.0802821,82.3249,91.819,82.2872,91.8884,6.17341e-05,5.86838e-05,0.000213225
-14.0104,12.8675,-297.684,0.000537536,0.00272595,0.00292497,-9.69749e-05,-9.73216e-05,-4.36849e-06,-9.27763e-05,-0.00010152,-0.765568,9.74429e-05,-0.232263,1.40066,-3.36091,-0.0248001,-0.0115473,0.00144836,0.00234824,195,394,-0.0132536,-0.0814303,83.6131,92.5494,83.5744,92.6187,6.31172e-05,6.01729e-05,0.000217814
-13.7191,12.8541,-297.661,0.000517923,0.00280588,0.00307142,-9.41656e-05,-9.12073e-05,-8.20499e-06,-8.43492e-05,-0.000101024,-0.874576,9.38046e-05,-0.271382,1.44201,-3.30689,-0.0326787,-0.00927447,0.00352507,0.00240505,202,394,-0.0149475,-0.0846031,84.9648,93.3019,84.9256,93.3726,6.40038e-05,5.9566e-05,0.000221122
-13.4274,12.8405,-297.636,0.000528398,0.00287057,0.00330544,-8.56413e-05,-8.39389e-05,-1.11729e-05,-7.35848e-05,-9.59953e-05,-0.823417,8.69829e-05,-0.344582,1.52776,-3.28008,-0.0370062,-0.00506349,0.0044183,0.00239309,209,394,-0.0165378,-0.0858365,86.3381,94.0611,86.2967,94.134,6.37247e-05,5.84948e-05,0.00022021
-13.1361,12.827,-297.611,0.000517681,0.00285785,0.00335033,-7.28305e-05,-7.65399e-05,-1.31026e-05,-6.1452e-05,-8.79184e-05,-0.715089,7.81231e-05,-0.378298,1.56593,-3.26305,-0.0371809,-0.000381009,0.00511299,0.00231357,216,394,-0.0170595,-0.0848425,87.6853,94.822,87.6438,94.8951,6.18538e-05,5.74546e-05,0.000213841
-12.8457,12.8134,-297.589,0.000493128,0.00281999,0.00333509,-5.78341e-05,-6.97508e-05,-1.44493e-05,-4.81629e-05,-7.9422e-05,-0.589839,6.92988e-05,-0.414985,1.52175,-3.26811,-0.0332856,0.00366664,0.00679444,0.00217968,223,394,-0.0174523,-0.0847638,88.9894,95.5823,88.9487,95.6536,5.77944e-05,5.54839e-05,0.00019969
-12.5556,12.8,-297.568,0.000474372,0.00276941,0.00329055,-4.09824e-05,-6.41544e-05,-1.70519e-05,-3.19528e-05,-7.3184e-05,-0.486996,6.35488e-05,-0.435062,1.49187,-3.31504,-0.0278666,0.00645856,0.00938821,0.0021001,230,394,-0.0174577,-0.0842957,90.2711,96.3392,90.2313,96.4082,5.45765e-05,5.32747e-05,0.000188129
-12.2656,12.7865,-297.546,0.000430255,0.00276895,0.00322879,-2.37622e-05,-6.01984e-05,-2.15715e-05,-1.37451e-05,-7.02155e-05,-0.434739,6.44517e-05,-0.440019,1.50459,-3.38614,-0.0221632,0.00757453,0.0127551,0.00202547,237,394,-0.0180128,-0.0851178,91.5524,97.0919,91.5143,97.1602,5.06309e-05,5.15629e-05,0.000174692
-11.9756,12.7733,-297.524,0.000377396,0.00277147,0.00305115,-8.42563e-06,-5.81293e-05,-2.73263e-05,3.65948e-06,-7.02145e-05,-0.416393,7.21139e-05,-0.378876,1.54839,-3.26831,-0.0159827,0.00676997,0.0155805,0.00202009,244,394,-0.0178685,-0.0851797,92.8303,97.8317,92.7949,97.9,4.97795e-05,5.19422e-05,0.000172057
-11.6854,12.7602,-297.501,0.000369653,0.00277045,0.00283377,4.23948e-06,-5.766e-05,-3.37536e-05,1.90849e-05,-7.25053e-05,-0.414353,8.36959e-05,-0.331945,1.58275,-3.09702,-0.0087401,0.00390146,0.0164949,0.002067,251,394,-0.0163136,-0.0856613,94.1204,98.5695,94.0868,98.6373,5.18104e-05,5.33675e-05,0.000179135
-11.3933,12.7471,-297.471,0.000456225,0.00280481,0.00275106,1.40852e-05,-5.85497e-05,-4.01626e-05,3.19156e-05,-7.63801e-05,-0.417816,9.63858e-05,-0.307281,1.57258,-2.89394,-0.000315375,-0.000718082,0.0156739,0.00215084,258,394,-0.013528,-0.0874345,95.5129,99.3036,95.4774,99.3716,5.55725e-05,5.536e-05,0.000191825
-11.0977,12.7337,-297.429,0.000586894,0.00284778,0.00291114,2.14829e-05,-6.02359e-05,-4.57325e-05,4.19501e-05,-8.07031e-05,-0.420808,0.000107974,-0.345139,1.52325,-2.81683,0.00763788,-0.00655802,0.0147192,0.00221129,265,394,-0.0115318,-0.088828,97.0872,100.051,97.0468,100.12,5.81158e-05,5.61329e-05,0.000200338
-10.8004,12.7198,-297.382,0.000662356,0.00287217,0.00300387,2.51281e-05,-6.1965e-05,-5.05295e-05,4.82864e-05,-8.51232e-05,-0.429744,0.000116995,-0.367487,1.46957,-2.81576,0.0124116,-0.0129632,0.0150372,0.00224952,272,394,-0.0103811,-0.0911477,98.7513,100.825,98.7081,100.893,5.87475e-05,5.67943e-05,0.000202716
-10.504,12.7056,-297.336,0.000653066,0.00283027,0.00300678,2.35734e-05,-6.26143e-05,-5.45569e-05,5.00031e-05,-8.90441e-05,-0.451126,0.00012199,-0.385977,1.41632,-2.82616,0.012853,-0.0189382,0.0162245,0.0022871,279,394,-0.0105665,-0.0921704,100.361,101.619,100.318,101.684,5.85625e-05,5.84949e-05,0.000202437
-10.2092,12.6917,-297.295,0.000648327,0.00277307,0.00291458,1.61437e-05,-6.12944e-05,-5.71204e-05,4.64312e-05,-9.15819e-05,-0.487546,0.000121636,-0.40157,1.40114,-2.92593,0.00954517,-0.0236462,0.0172672,0.00237382,286,394,-0.0098658,-0.0916312,101.895,102.396,101.853,102.458,5.8553e-05,6.11894e-05,0.000202673
-9.91819,12.6784,-297.266,0.000647639,0.00276111,0.00285516,5.52012e-06,-5.80616e-05,-5.81298e-05,3.99843e-05,-9.25257e-05,-0.53517,0.000117726,-0.423021,1.44479,-2.96123,0.00472007,-0.0264904,0.0170221,0.00244894,293,394,-0.00933412,-0.0905226,103.233,103.138,103.191,103.201,5.94434e-05,6.33305e-05,0.000206035
-9.62687,12.6646,-297.236,0.000671801,0.00278748,0.00257291,-6.61366e-06,-5.33582e-05,-5.77737e-05,3.23363e-05,-9.23081e-05,-0.593187,0.000112033,-0.424798,1.50246,-2.97442,0.00225671,-0.0273464,0.0156612,0.00249636,300,394,-0.00650377,-0.0894367,104.586,103.902,104.545,103.968,6.18351e-05,6.45374e-05,0.000214437
-9.33396,12.6512,-297.199,0.000658114,0.00279646,0.00231762,-2.03171e-05,-4.76754e-05,-5.65819e-05,2.42157e-05,-9.22082e-05,-0.666795,0.000106403,-0.389132,1.52195,-2.88423,0.00254922,-0.0263723,0.014761,0.00248453,307,394,-0.00482132,-0.0884625,106.023,104.652,105.985,104.719,6.29063e-05,6.4174e-05,0.000218081
-9.04039,12.6374,-297.16,0.000629217,0.0027602,0.00227854,-3.26175e-05,-4.09009e-05,-5.51058e-05,1.85021e-05,-9.20205e-05,-0.747889,0.000102531,-0.326178,1.5098,-2.83499,0.00328177,-0.0232438,0.0143881,0.00237706,314,394,-0.00516086,-0.0880831,107.497,105.421,107.46,105.486,6.23225e-05,6.09232e-05,0.000215859
-8.74661,12.6237,-297.12,0.000616617,0.00270653,0.00242347,-4.10625e-05,-3.31712e-05,-5.25412e-05,1.55723e-05,-8.9806e-05,-0.822876,9.85196e-05,-0.261398,1.48753,-2.81135,0.00413277,-0.0173966,0.0136223,0.00229183,321,394,-0.00648202,-0.0874694,108.987,106.181,108.949,106.244,6.03816e-05,5.79835e-05,0.000208874
-8.452,12.6099,-297.076,0.000602367,0.00269966,0.00267487,-4.50151e-05,-2.49638e-05,-4.85124e-05,1.45481e-05,-8.4527e-05,-0.887294,9.26616e-05,-0.277704,1.51822,-2.91859,0.00670692,-0.00927766,0.0117969,0.00222584,328,394,-0.00869127,-0.0876792,110.522,106.95,110.483,107.013,5.8712e-05,5.63455e-05,0.000203029
-8.15528,12.596,-297.024,0.000577499,0.00270416,0.002741,-4.59688e-05,-1.67945e-05,-4.26037e-05,1.36501e-05,-7.64135e-05,-0.950338,8.40738e-05,-0.340484,1.55058,-3.03963,0.0124558,4.79176e-05,0.00931583,0.00222265,335,394,-0.00976975,-0.0883383,112.171,107.721,112.132,107.783,5.88519e-05,5.5726e-05,0.000203278
-7.8578,12.582,-296.97,0.000565018,0.00271204,0.00281558,-4.68608e-05,-9.06264e-06,-3.57627e-05,1.24876e-05,-6.8411e-05,-1.02848,7.5434e-05,-0.392131,1.59152,-3.11692,0.0191042,0.00947065,0.00610087,0.00228413,342,394,-0.0106001,-0.0888111,113.863,108.5,113.824,108.562,6.11619e-05,5.71169e-05,0.000211186
-7.56024,12.568,-296.914,0.000547332,0.00270547,0.0027801,-4.82376e-05,-2.22809e-06,-2.89598e-05,1.17521e-05,-6.22178e-05,-1.12105,6.88503e-05,-0.410723,1.56322,-3.13328,0.0244804,0.0182294,0.0025378,0.002341,349,394,-0.0107228,-0.0894022,115.563,109.276,115.524,109.337,6.26112e-05,5.77742e-05,0.000216293
-7.26352,12.5541,-296.861,0.000504147,0.00267143,0.00272193,-4.87104e-05,3.46998e-06,-2.25089e-05,1.18377e-05,-5.70782e-05,-1.21488,6.38258e-05,-0.388697,1.54846,-3.0234,0.0298922,0.0259098,-0.00102638,0.00235772,356,394,-0.0112764,-0.0890205,117.221,110.048,117.184,110.107,6.24521e-05,5.68904e-05,0.000216033
-6.96779,12.5402,-296.81,0.000498899,0.00261694,0.00270552,-4.98463e-05,8.03198e-06,-1.69679e-05,1.26396e-05,-5.44539e-05,-1.30564,6.17516e-05,-0.36659,1.52602,-3.03164,0.0350629,0.0316459,-0.00459447,0.00235265,363,394,-0.0111697,-0.0877435,118.83,110.821,118.794,110.879,6.22811e-05,5.59969e-05,0.00021572
-6.67337,12.5263,-296.762,0.00052598,0.00259636,0.00256322,-5.35562e-05,1.17719e-05,-1.29901e-05,1.42602e-05,-5.60444e-05,-1.38154,6.43703e-05,-0.384298,1.5371,-3.05831,0.0388868,0.0349136,-0.00830672,0.00233035,370,394,-0.00934142,-0.086781,120.373,111.59,120.337,111.648,6.20898e-05,5.53573e-05,0.000215023
-6.37975,12.5126,-296.717,0.000562555,0.00261297,0.00238227,-5.80424e-05,1.46571e-05,-1.10799e-05,1.63082e-05,-5.96936e-05,-1.42286,6.93021e-05,-0.369317,1.53618,-3.04385,0.0420197,0.0358088,-0.0122107,0.00232744,377,394,-0.00701697,-0.0859845,121.877,112.352,121.841,112.411,6.22104e-05,5.49925e-05,0.000215373
-6.08695,12.4989,-296.674,0.00058354,0.00266114,0.00223149,-6.0577e-05,1.6759e-05,-1.05947e-05,1.81842e-05,-6.20021e-05,-1.43708,7.28175e-05,-0.336284,1.54414,-2.9572,0.0428957,0.0352969,-0.0155771,0.00234658,384,394,-0.00538941,-0.0880354,123.339,113.109,123.303,113.169,6.26437e-05,5.51219e-05,0.000216839
-5.79464,12.4852,-296.632,0.000586363,0.00272545,0.00207692,-5.8831e-05,1.82655e-05,-1.06486e-05,1.97093e-05,-6.02748e-05,-1.43604,7.21767e-05,-0.29193,1.53944,-2.78205,0.0386711,0.0341434,-0.0173734,0.00238953,391,394,-0.00423388,-0.0916272,124.777,113.866,124.742,113.926,6.36843e-05,5.57545e-05,0.000220307
-5.50257,12.4716,-296.59,0.000571948,0.00275717,0.00206845,-5.59036e-05,2.01084e-05,-1.02604e-05,2.14691e-05,-5.72643e-05,-1.43896,7.04949e-05,-0.265558,1.53646,-2.81242,0.027973,0.0330947,-0.0169202,0.00240279,398,394,-0.00456221,-0.0944464,126.205,114.623,126.171,114.682,6.38273e-05,5.56383e-05,0.000220743
-5.21038,12.4578,-296.547,0.000566197,0.00276366,0.00200561,-5.49039e-05,2.25309e-05,-8.60621e-06,2.34758e-05,-5.58489e-05,-1.46143,7.05784e-05,-0.260216,1.50397,-2.94171,0.012374,0.0321661,-0.0148871,0.00238184,405,394,-0.00420453,-0.0946779,127.644,115.384,127.61,115.443,6.34742e-05,5.56928e-05,0.000219413
-4.91786,12.444,-296.502,0.000567271,0.00274624,0.00194423,-5.43179e-05,2.55997e-05,-5.54471e-06,2.59826e-05,-5.47008e-05,-1.50186,7.1334e-05,-0.279736,1.44268,-3.10164,-0.00286021,0.0316855,-0.0126441,0.00238959,412,394,-0.00361813,-0.0921503,129.104,116.145,129.071,116.206,6.38948e-05,5.59615e-05,0.000220653
-4.62506,12.4302,-296.455,0.000516287,0.00273149,0.00163777,-5.28808e-05,2.86436e-05,-1.33447e-06,2.86654e-05,-5.29026e-05,-1.55443,7.16719e-05,-0.276231,1.38489,-3.07574,-0.0135834,0.0311953,-0.010242,0.00240777,419,394,-0.00254034,-0.0897116,130.579,116.909,130.55,116.971,6.41736e-05,5.73358e-05,0.000221595
-4.3315,12.4162,-296.405,0.000461604,0.00268661,0.00151996,-4.82721e-05,3.1108e-05,2.63633e-06,3.11955e-05,-4.83596e-05,1.53763,6.94291e-05,-0.252338,1.36833,-2.96712,-0.0214095,0.0306854,-0.00682073,0.00245662,426,394,-0.00293498,-0.0873321,132.101,117.68,132.074,117.742,6.39334e-05,5.88939e-05,0.00022105
-4.03688,12.4021,-296.351,0.000469925,0.00261379,0.00149143,-3.86407e-05,3.25089e-05,6.28703e-06,3.30601e-05,-3.9192e-05,1.48334,6.26473e-05,-0.236146,1.37463,-2.99716,-0.0288937,0.0303071,-0.00206233,0.00252695,433,394,-0.00243544,-0.0870616,133.688,118.465,133.661,118.523,6.33923e-05,6.07903e-05,0.000219468
-3.74168,12.3884,-296.294,0.00049964,0.0025794,0.0014908,-2.58084e-05,3.31586e-05,9.91629e-06,3.47815e-05,-2.74313e-05,1.40857,5.40031e-05,-0.219878,1.41925,-3.08425,-0.0352965,0.0300716,0.00344817,0.00256856,440,394,-0.00162587,-0.0868164,135.313,119.223,135.286,119.28,6.30049e-05,6.13881e-05,0.000218342
-3.44588,12.3748,-296.234,0.000499339,0.00258473,0.0016387,-1.31357e-05,3.33522e-05,1.51432e-05,3.78499e-05,-1.76334e-05,1.28209,4.91016e-05,-0.272527,1.50397,-3.26631,-0.0366143,0.0301721,0.00821876,0.00254342,447,394,-0.00268262,-0.0870172,136.978,119.979,136.949,120.036,6.27672e-05,6.14874e-05,0.00021742
-3.14996,12.3611,-296.173,0.000446539,0.00262314,0.00157374,-4.29226e-06,3.28294e-05,2.14278e-05,4.26174e-05,-1.40803e-05,1.14231,5.11327e-05,-0.327113,1.54149,-3.50936,-0.0334601,0.0298576,0.0113729,0.00256229,454,394,-0.00354297,-0.0879672,138.652,120.734,138.625,120.792,6.58073e-05,6.05863e-05,0.000227702
-2.85262,12.3472,-296.106,0.000336143,0.00267352,0.00143517,6.51591e-07,3.18179e-05,2.67491e-05,4.71919e-05,-1.47225e-05,1.04915,5.60233e-05,-0.313433,1.55765,-3.51513,-0.0296967,0.0290101,0.0126257,0.00257106,461,394,-0.00533778,-0.0892905,140.408,121.502,140.385,121.561,6.697e-05,5.90126e-05,0.000231623
-2.55508,12.3329,-296.037,0.000256771,0.00273062,0.00136559,6.28325e-06,3.01062e-05,3.12718e-05,5.16583e-05,-1.52688e-05,0.967366,6.07493e-05,-0.287065,1.51276,-3.34073,-0.0242515,0.0278479,0.0127332,0.00254441,468,394,-0.0068669,-0.0908175,142.182,122.288,142.162,122.349,6.65033e-05,5.70519e-05,0.000229917
-2.25676,12.3183,-295.965,0.000240455,0.0027418,0.00131376,1.344e-05,2.75962e-05,3.51267e-05,5.63508e-05,-1.53146e-05,0.884818,6.53677e-05,-0.226253,1.50105,-3.20498,-0.0163297,0.0269407,0.0120858,0.00246127,475,394,-0.00688141,-0.0907614,144.009,123.09,143.99,123.152,6.45704e-05,5.61952e-05,0.000222941
-1.95784,12.3037,-295.89,0.000273195,0.00276843,0.00138301,1.86304e-05,2.50871e-05,3.80007e-05,5.99963e-05,-1.62788e-05,0.827774,6.95789e-05,-0.213287,1.51428,-3.21848,-0.0085935,0.0259508,0.010106,0.00233495,482,394,-0.0065478,-0.0910139,145.878,123.895,145.857,123.958,6.20153e-05,5.50614e-05,0.000213647
-1.65959,12.2893,-295.816,0.000365577,0.00277542,0.0016356,2.01194e-05,2.28914e-05,3.91572e-05,6.06872e-05,-1.76764e-05,0.803089,7.11907e-05,-0.266072,1.55669,-3.23828,-0.00402514,0.0241371,0.00670186,0.00231513,489,394,-0.00600881,-0.0912244,147.721,124.689,147.695,124.753,6.18864e-05,5.35418e-05,0.000212899
-1.3612,12.275,-295.741,0.000454021,0.00278388,0.00177188,1.70789e-05,2.05397e-05,3.92967e-05,5.81441e-05,-2.05255e-05,0.807401,7.06786e-05,-0.313197,1.58307,-3.21852,-0.0031444,0.0218043,0.0027196,0.00238027,496,394,-0.00471894,-0.0911083,149.578,125.477,149.548,125.54,6.35909e-05,5.30329e-05,0.00021863
-1.06145,12.2605,-295.661,0.000531881,0.00282474,0.00179599,1.13897e-05,1.80273e-05,4.02896e-05,5.51345e-05,-2.57176e-05,0.826492,7.15481e-05,-0.295492,1.55298,-3.20889,-0.00510614,0.0192915,-0.000354597,0.00247497,503,394,-0.00293886,-0.0925417,151.519,126.275,151.487,126.34,6.56873e-05,5.46974e-05,0.000225942
-0.760158,12.2459,-295.573,0.00052709,0.00280809,0.00171756,6.41155e-06,1.55772e-05,4.30292e-05,5.4267e-05,-3.22782e-05,0.838451,7.57524e-05,-0.282665,1.50281,-3.24607,-0.00777413,0.0168845,-0.00102298,0.00256653,510,394,-0.00245406,-0.092675,153.553,127.085,153.522,127.149,6.73036e-05,5.98009e-05,0.000231699
-0.458076,12.2313,-295.482,0.000552758,0.00276272,0.00169706,3.50486e-06,1.34824e-05,4.6227e-05,5.49891e-05,-3.80018e-05,0.83915,8.09791e-05,-0.274117,1.47385,-3.36056,-0.0112807,0.0144609,0.000892727,0.00261,517,394,-0.00157564,-0.0918128,155.643,127.89,155.612,127.952,6.7143e-05,6.42563e-05,0.000230801
-0.156238,12.2165,-295.391,0.000552679,0.00271536,0.00159713,1.32742e-06,1.14404e-05,4.9474e-05,5.61157e-05,-4.33478e-05,0.836324,8.63742e-05,-0.288859,1.47398,-3.32908,-0.0155673,0.0119163,0.00425536,0.00256979,524,394,-0.000781043,-0.0907691,157.727,128.71,157.696,128.77,6.54287e-05,6.5527e-05,0.00022409
0.143304,12.2018,-295.307,0.000547111,0.00267587,0.00160055,-7.24535e-06,1.02055e-05,5.52831e-05,5.74475e-05,-5.44874e-05,0.863668,9.69498e-05,-0.309418,1.49492,-3.06725,-0.0204754,0.00900404,0.0071715,0.00254835,531,394,-0.000877829,-0.0903853,159.689,129.521,159.658,129.58,6.52495e-05,6.43935e-05,0.000222869
0.439453,12.1877,-295.234,0.000565096,0.00266138,0.0015326,-1.66041e-05,8.97898e-06,6.20825e-05,5.9574e-05,-6.71991e-05,0.886997,0.000109855,-0.397021,1.48671,-2.91388,-0.0225998,0.0050407,0.0118879,0.00254026,538,394,8.99055e-05,-0.0910318,161.465,130.3,161.434,130.358,6.69742e-05,6.24453e-05,0.00022893
0.73353,12.1742,-295.168,0.000581659,0.00263478,0.00142191,-2.17077e-05,6.84014e-06,6.91499e-05,6.31739e-05,-7.80415e-05,0.887179,0.000122522,-0.475075,1.4714,-2.94241,-0.022666,-4.61387e-05,0.0194915,0.00257193,545,394,0.00134254,-0.0909535,163.129,131.046,163.099,131.102,6.88762e-05,6.16596e-05,0.000235297
1.0265,12.1605,-295.104,0.000511942,0.00265802,0.00136369,-2.08703e-05,3.42851e-06,7.65292e-05,6.87667e-05,-8.62085e-05,0.864119,0.000134495,-0.51765,1.42814,-3.14607,-0.0205094,-0.00603902,0.0308654,0.00264006,552,394,-3.35939e-06,-0.0912356,164.733,131.799,164.706,131.857,7.06858e-05,6.26803e-05,0.000240984
1.31862,12.1469,-295.043,0.000436424,0.00271591,0.0014089,-1.84447e-05,-9.33891e-07,8.51089e-05,7.58687e-05,-9.52473e-05,0.836654,0.000148507,-0.487914,1.43001,-3.27666,-0.0132414,-0.0123472,0.0450014,0.00268597,559,394,-0.00222116,-0.0903849,166.296,132.549,166.27,132.61,7.25951e-05,6.44161e-05,0.000246277
1.60909,12.1327,-294.988,0.000351709,0.00282983,0.0014224,-1.87044e-05,-5.37636e-06,9.27375e-05,8.09362e-05,-0.000105017,0.821266,0.00016149,-0.422993,1.48787,-3.24676,0.00181267,-0.0182697,0.0599263,0.00274998,566,394,-0.00453249,-0.0918213,167.768,133.321,167.744,133.387,7.46991e-05,6.54969e-05,0.000252039
1.89826,12.1189,-294.936,0.000360185,0.002863,0.00176716,-1.22223e-05,-9.71161e-06,9.71165e-05,8.61577e-05,-0.000108092,0.791861,0.000168582,-0.438941,1.54938,-3.22437,0.0330999,-0.0224135,0.0764774,0.00282323,573,394,-0.00672539,-0.0928219,169.175,134.081,169.147,134.148,7.60783e-05,6.47958e-05,0.000255813
0,0,0,0,0,0,0,0,0,0,0,0,0,0,0,0,0,0,0,-1,580,394,0,0,0,0,0,0,0,0,0
0,0,0,0,0,0,0,0,0,0,0,0,0,0,0,0,0,0,0,-1,587,394,0,0,0,0,0,0,0,0,0
0,0,0,0,0,0,0,0,0,0,0,0,0,0,0,0,0,0,0,-1,594,394,0,0,0,0,0,0,0,0,0
0,0,0,0,0,0,0,0,0,0,0,0,0,0,0,0,0,0,0,-1,601,394,0,0,0,0,0,0,0,0,0
0,0,0,0,0,0,0,0,0,0,0,0,0,0,0,0,0,0,0,-1,62,401,0,0,0,0,0,0,0,0,0
0,0,0,0,0,0,0,0,0,0,0,0,0,0,0,0,0,0,0,-1,69,401,0,0,0,0,0,0,0,0,0
0,0,0,0,0,0,0,0,0,0,0,0,0,0,0,0,0,0,0,-1,76,401,0,0,0,0,0,0,0,0,0
-18.5936,12.803,-297.734,0.000642674,0.00293279,0.000891429,-4.08512e-05,2.88395e-05,-1.60791e-05,3.23704e-05,-4.43821e-05,-1.35463,6.67404e-05,-0.516222,1.54856,-2.85309,0.056825,-0.0383153,-0.0862041,0.00255824,83,401,0.00490609,-0.0855916,65.4986,81.6961,65.4714,81.7725,6.38245e-05,6.4452e-05,0.000228791
-18.3163,12.7907,-297.759,0.000735994,0.00288388,0.000917442,-2.5827e-05,2.85143e-05,-6.18445e-06,2.92093e-05,-2.65219e-05,-1.4589,4.82833e-05,-0.506446,1.50314,-3.04241,0.0466643,-0.0345888,-0.0698081,0.00265519,90,401,0.00709004,-0.0826337,66.2078,82.3996,66.1776,82.476,6.68084e-05,6.67302e-05,0.000238651
-18.0371,12.7782,-297.777,0.000799932,0.00286153,0.00102947,-4.03773e-06,2.4653e-05,2.98092e-06,2.49595e-05,-4.34417e-06,1.46836,2.73912e-05,-0.487542,1.51696,-3.23399,0.0394637,-0.0269272,-0.057529,0.00268177,97,401,0.00780361,-0.0811761,67.0064,83.1099,66.9737,83.1865,6.81129e-05,6.79028e-05,0.000242356
-17.7561,12.7657,-297.79,0.000787883,0.00290413,0.00110241,1.54093e-05,1.73313e-05,1.30991e-05,2.95046e-05,3.23605e-06,0.822014,2.8027e-05,-0.409172,1.56004,-3.42704,0.0370309,-0.0180459,-0.0468886,0.00260262,104,401,0.00686375,-0.083581,67.8812,83.8223,67.8483,83.8989,6.66542e-05,6.59934e-05,0.000237177
-17.4742,12.7532,-297.799,0.000703719,0.002939,0.00122297,2.85535e-05,7.31085e-06,2.2137e-05,4.24853e-05,-6.62104e-06,0.56172,4.61534e-05,-0.365174,1.54071,-3.52258,0.0378084,-0.010118,-0.0361137,0.00256387,111,401,0.00378653,-0.0853426,68.7957,84.5374,68.7644,84.6142,6.61613e-05,6.5352e-05,0.000234958
-17.1904,12.7405,-297.803,0.000678689,0.00294264,0.00135541,3.38564e-05,-4.77312e-06,2.7483e-05,4.81329e-05,-1.90496e-05,0.4791,5.99715e-05,-0.353958,1.49947,-3.50715,0.0398321,-0.00408554,-0.0257565,0.0025366,118,401,0.00213026,-0.084869,69.8006,85.2595,69.769,85.3369,6.51177e-05,6.49049e-05,0.000229387
-16.9049,12.7275,-297.802,0.000713118,0.00292504,0.00147053,3.06519e-05,-1.86922e-05,2.87748e-05,4.38836e-05,-3.1924e-05,0.431005,6.59231e-05,-0.329084,1.47445,-3.46492,0.0426447,-0.000262911,-0.0172722,0.00253876,125,401,0.00210324,-0.0838195,70.8855,85.9934,70.8521,86.0709,6.48084e-05,6.51197e-05,0.000226348
-16.6186,12.7146,-297.798,0.000788556,0.00287687,0.00162138,2.12558e-05,-3.43191e-05,2.75596e-05,3.2605e-05,-4.56683e-05,0.390641,6.81006e-05,-0.322855,1.48303,-3.49076,0.0459434,0.001282,-0.0114925,0.00254086,132,401,0.00281287,-0.0829443,72.0083,86.7313,71.9717,86.807,6.50139e-05,6.53287e-05,0.000226123
-16.3326,12.7016,-297.794,0.000841928,0.00285503,0.00195496,1.03413e-05,-4.98675e-05,2.65183e-05,2.03554e-05,-5.98816e-05,0.361074,7.2243e-05,-0.317815,1.48386,-3.60781,0.0478448,0.000941254,-0.00677427,0.00256835,139,401,0.00146014,-0.0836852,73.115,87.4652,73.0748,87.5392,6.63002e-05,6.51447e-05,0.000229488
-16.0483,12.6887,-297.795,0.000856403,0.00286855,0.00236753,-1.68913e-06,-6.58894e-05,2.37264e-05,6.12765e-06,-7.37061e-05,0.318256,7.69532e-05,-0.331437,1.45952,-3.66073,0.0478212,-0.000403954,-0.00336015,0.00258376,146,401,-0.00151492,-0.0855074,74.1341,88.1968,74.0906,88.2697,6.69955e-05,6.46005e-05,0.000231203
-15.7635,12.676,-297.794,0.000836574,0.0029064,0.0026982,-1.48365e-05,-8.09145e-05,1.89289e-05,-9.79823e-06,-8.59528e-05,0.260137,8.14967e-05,-0.308054,1.49607,-3.52673,0.0437013,-0.00240849,-0.00114165,0.00252033,153,401,-0.00467876,-0.0877061,75.1733,88.9195,75.1281,88.9925,6.51517e-05,6.29345e-05,0.000224398
-15.4788,12.663,-297.794,0.000799511,0.00291711,0.00300176,-3.00045e-05,-9.37829e-05,1.26167e-05,-2.75994e-05,-9.61881e-05,0.188372,8.57854e-05,-0.297091,1.56653,-3.33866,0.0356976,-0.00499205,-0.000199774,0.00241898,160,401,-0.00796555,-0.0872285,76.2028,89.6518,76.1564,89.7258,6.304e-05,6.01505e-05,0.000218132
-15.1932,12.6501,-297.79,0.000748705,0.00288929,0.00298427,-4.7149e-05,-0.000104035,6.51128e-06,-4.64132e-05,-0.000104771,0.112523,9.09305e-05,-0.292701,1.62177,-3.26459,0.0252236,-0.00749722,-0.000852648,0.00228857,167,401,-0.00895557,-0.0854271,77.274,90.3825,77.2291,90.4566,5.98997e-05,5.73303e-05,0.000207791
-14.9066,12.6371,-297.783,0.000677813,0.0027939,0.00299332,-6.50199e-05,-0.0001112,1.52207e-06,-6.49698e-05,-0.00011125,0.0329116,9.67978e-05,-0.316357,1.63368,-3.34622,0.0122537,-0.00940728,-0.00219005,0.00220732,174,401,-0.0105676,-0.0813498,78.3909,91.1179,78.3478,91.1907,5.8726e-05,5.54522e-05,0.000203776
-14.6182,12.624,-297.77,0.000591859,0.00272022,0.00295924,-8.1051e-05,-0.000114915,-2.3498e-06,-8.08888e-05,-0.000115077,-0.0689498,0.000102358,-0.292078,1.56968,-3.37758,-0.00163505,-0.0106605,-0.00292998,0.00221164,181,401,-0.012259,-0.0791938,79.595,91.858,79.5547,91.9289,5.87131e-05,5.65441e-05,0.000203995
-14.3281,12.6108,-297.751,0.000555124,0.00271719,0.00304252,-9.2737e-05,-0.000115287,-6.4228e-06,-9.10359e-05,-0.000116988,-0.258906,0.000106412,-0.272656,1.48164,-3.30362,-0.0138237,-0.0112055,-0.00257089,0.00225642,188,401,-0.0137679,-0.0795093,80.8882,92.5994,80.8482,92.6698,6.01445e-05,5.7719e-05,0.000208653
-14.0364,12.5977,-297.727,0.000547841,0.00274087,0.0031601,-9.75183e-05,-0.000112297,-1.17349e-05,-9.104e-05,-0.000118775,-0.504418,0.000107622,-0.241153,1.45297,-3.16453,-0.0245055,-0.0104873,-0.000942511,0.00232768,195,401,-0.014852,-0.0805508,82.2581,93.3354,82.2174,93.4061,6.16466e-05,5.95238e-05,0.000213561
-13.743,12.5843,-297.697,0.000530009,0.00281392,0.00319507,-9.51273e-05,-0.000106595,-1.70956e-05,-8.28296e-05,-0.000118893,-0.623593,0.000105586,-0.276568,1.48804,-3.1117,-0.0329619,-0.00818454,0.000246351,0.00237548,202,401,-0.0156033,-0.0833976,83.7099,94.0921,83.6694,94.1641,6.31958e-05,5.93163e-05,0.000218761
-13.4499,12.5707,-297.668,0.000524997,0.00283901,0.0032951,-8.6899e-05,-9.92125e-05,-2.10242e-05,-7.11485e-05,-0.000114963,-0.64296,0.000100495,-0.336028,1.55045,-3.09651,-0.0381183,-0.00418863,0.000590506,0.00235297,209,401,-0.0164821,-0.0841973,85.1485,94.8523,85.1074,94.9249,6.27038e-05,5.86391e-05,0.000216893
-13.1579,12.5573,-297.641,0.000508861,0.00282507,0.00325376,-7.45141e-05,-9.12259e-05,-2.32836e-05,-5.81324e-05,-0.000107608,-0.613119,9.32913e-05,-0.384086,1.58581,-3.15998,-0.0392368,6.12126e-05,0.00129795,0.00229369,216,401,-0.0164614,-0.0834017,86.5299,95.6056,86.4894,95.6781,6.11533e-05,5.77413e-05,0.000211246
-12.8672,12.5439,-297.618,0.000472437,0.00280841,0.00315565,-5.99744e-05,-8.33227e-05,-2.42457e-05,-4.47387e-05,-9.85584e-05,-0.561032,8.54747e-05,-0.412954,1.55175,-3.21989,-0.036117,0.00359148,0.00345334,0.00217725,223,401,-0.016519,-0.0837912,87.8482,96.3594,87.8094,96.4308,5.63978e-05,5.59284e-05,0.000194972
-12.5774,12.5305,-297.598,0.000471617,0.00278432,0.00317628,-4.34315e-05,-7.62721e-05,-2.57331e-05,-2.93261e-05,-9.03775e-05,-0.501416,7.98604e-05,-0.430153,1.52729,-3.31568,-0.0312416,0.00587832,0.00697339,0.00209439,230,401,-0.0166252,-0.0839717,89.1193,97.1096,89.0804,97.1795,5.23906e-05,5.36089e-05,0.000181165
-12.288,12.5172,-297.578,0.000446147,0.00279752,0.00326234,-2.61174e-05,-7.08913e-05,-2.8616e-05,-1.21718e-05,-8.48369e-05,-0.453464,7.94534e-05,-0.435102,1.53529,-3.35874,-0.0259606,0.00648966,0.0115103,0.00203745,237,401,-0.0178937,-0.0851452,90.369,97.8559,90.3301,97.9254,4.92165e-05,5.2227e-05,0.000170406
-11.9983,12.504,-297.557,0.000392482,0.0028192,0.00319584,-1.0309e-05,-6.75272e-05,-3.26513e-05,4.4937e-06,-8.233e-05,-0.425643,8.46663e-05,-0.383673,1.56327,-3.23228,-0.0199317,0.00526672,0.0157187,0.00203067,244,401,-0.018652,-0.0854265,91.6284,98.5946,91.5914,98.6651,4.90341e-05,5.2451e-05,0.00017006
-11.7078,12.4908,-297.533,0.00036442,0.00282279,0.00298137,2.51744e-06,-6.5874e-05,-3.73924e-05,1.89926e-05,-8.23491e-05,-0.415011,9.33066e-05,-0.343179,1.57215,-3.11491,-0.0122782,0.00212936,0.0180386,0.00205754,251,401,-0.0176183,-0.0857273,92.9342,99.3339,92.8995,99.4042,5.09483e-05,5.31312e-05,0.000176685
-11.4151,12.4777,-297.501,0.000403118,0.00283123,0.00286258,1.22767e-05,-6.58623e-05,-4.21396e-05,3.06717e-05,-8.42573e-05,-0.411593,0.000103075,-0.310284,1.56105,-2.97654,-0.00283919,-0.00261737,0.0184801,0.00211642,258,401,-0.0157095,-0.0870475,94.3538,100.07,94.3189,100.14,5.39441e-05,5.45311e-05,0.000186731
-11.1198,12.4645,-297.461,0.000512934,0.00283725,0.00293378,1.9656e-05,-6.68483e-05,-4.62111e-05,3.96985e-05,-8.68908e-05,-0.40923,0.00011214,-0.330799,1.52325,-2.87602,0.00633731,-0.00850636,0.0184894,0.00214298,265,401,-0.0135206,-0.0885957,95.9118,100.81,95.8732,100.879,5.6224e-05,5.49514e-05,0.000194132
-10.8228,12.4508,-297.415,0.000631465,0.00284885,0.00308019,2.33467e-05,-6.79037e-05,-4.99346e-05,4.53612e-05,-8.99181e-05,-0.415232,0.000119255,-0.353608,1.47985,-2.84883,0.012352,-0.0148023,0.0194051,0.00221156,272,401,-0.0117263,-0.0916571,97.5558,101.576,97.5129,101.642,5.70787e-05,5.63589e-05,0.000196846
-10.5272,12.4368,-297.372,0.000678063,0.00280649,0.00317276,2.19886e-05,-6.78894e-05,-5.35759e-05,4.69773e-05,-9.28782e-05,-0.436422,0.000123274,-0.388539,1.4247,-2.82253,0.0140811,-0.0203407,0.0207648,0.00229988,279,401,-0.0112193,-0.0927905,99.1269,102.363,99.0822,102.427,5.78157e-05,5.88234e-05,0.000199712
-10.2342,12.4231,-297.337,0.000695012,0.00278626,0.00306432,1.46382e-05,-6.59501e-05,-5.62059e-05,4.35013e-05,-9.48132e-05,-0.474408,0.000122501,-0.434783,1.413,-2.94768,0.0123795,-0.0242683,0.0215764,0.00238779,286,401,-0.00986746,-0.0919264,100.564,103.129,100.52,103.192,5.87761e-05,6.14498e-05,0.000203146
-9.94206,12.4097,-297.304,0.000671403,0.00279864,0.00293902,3.9011e-06,-6.2264e-05,-5.73622e-05,3.70369e-05,-9.53999e-05,-0.523831,0.000118348,-0.46425,1.4738,-2.99185,0.00937922,-0.026077,0.0207831,0.0024567,293,401,-0.00939859,-0.0902687,101.961,103.874,101.918,103.939,5.96948e-05,6.34675e-05,0.000206759
-9.64877,12.3959,-297.267,0.000669464,0.0028306,0.00258796,-8.27167e-06,-5.71328e-05,-5.72284e-05,2.95227e-05,-9.49272e-05,-0.58366,0.000112629,-0.45189,1.53905,-2.93317,0.00801393,-0.0259677,0.0186313,0.00247626,300,401,-0.00668135,-0.0886979,103.414,104.641,103.373,104.709,6.18995e-05,6.39745e-05,0.000214503
-9.35344,12.3824,-297.223,0.000662909,0.00283195,0.00246811,-2.1853e-05,-5.10653e-05,-5.64499e-05,2.18498e-05,-9.47681e-05,-0.658802,0.000107374,-0.402451,1.59591,-2.814,0.00833222,-0.0241174,0.0167601,0.00247932,307,401,-0.00584495,-0.0873429,104.978,105.389,104.939,105.458,6.33368e-05,6.40423e-05,0.000219252
-9.05709,12.3685,-297.175,0.000638138,0.00279103,0.00246283,-3.39323e-05,-4.41183e-05,-5.56125e-05,1.68199e-05,-9.48706e-05,-0.739736,0.000104303,-0.32401,1.60425,-2.73826,0.00837721,-0.020195,0.0151532,0.00239339,314,401,-0.0063265,-0.0865944,106.598,106.165,106.559,106.233,6.27752e-05,6.10741e-05,0.000216974
-8.76074,12.3548,-297.126,0.000619402,0.00276264,0.00258405,-4.19586e-05,-3.64055e-05,-5.3786e-05,1.46755e-05,-9.30397e-05,-0.811186,0.000101179,-0.273181,1.58235,-2.84003,0.00815984,-0.0136254,0.0130013,0.00233123,321,401,-0.00766524,-0.0876546,108.221,106.934,108.181,107,6.1448e-05,5.8635e-05,0.000211934
-8.46428,12.3408,-297.076,0.000595308,0.00274978,0.00274835,-4.51881e-05,-2.83383e-05,-5.03623e-05,1.42989e-05,-8.78253e-05,-0.868274,9.57786e-05,-0.28024,1.5838,-3.0738,0.00933789,-0.00487995,0.00999171,0.00230399,328,401,-0.0094766,-0.0890721,109.853,107.715,109.813,107.778,6.06674e-05,5.82339e-05,0.000209073
-8.16637,12.3269,-297.021,0.000591885,0.00273126,0.0028365,-4.5566e-05,-2.02289e-05,-4.47375e-05,1.35992e-05,-7.93941e-05,-0.923373,8.69946e-05,-0.315723,1.55965,-3.12164,0.0135293,0.00497509,0.00671631,0.00237125,335,401,-0.0101794,-0.0900268,111.565,108.488,111.525,108.55,6.23181e-05,6.09193e-05,0.000214262
-7.86862,12.313,-296.966,0.000601334,0.00273441,0.00298062,-4.6569e-05,-1.23032e-05,-3.77465e-05,1.20167e-05,-7.08889e-05,-0.998442,7.75982e-05,-0.320273,1.56614,-3.09076,0.0188158,0.0149327,0.0031696,0.00240721,342,401,-0.0109879,-0.0906849,113.273,109.262,113.232,109.323,6.40365e-05,6.18118e-05,0.000220352
-7.5714,12.2992,-296.911,0.000571333,0.00273278,0.00292885,-4.85084e-05,-5.32966e-06,-3.04915e-05,1.04418e-05,-6.42799e-05,-1.09345,7.00866e-05,-0.323704,1.55916,-3.00371,0.0230964,0.0241019,-0.00051098,0.00244545,349,401,-0.0112786,-0.0905303,114.955,110.029,114.914,110.09,6.52786e-05,6.22476e-05,0.000224644
-7.27494,12.2854,-296.859,0.000531611,0.00273375,0.00286237,-4.9381e-05,4.11506e-07,-2.35546e-05,9.78831e-06,-5.87578e-05,-1.19194,6.4214e-05,-0.339694,1.54936,-2.9794,0.0276678,0.0318578,-0.00398345,0.00238207,356,401,-0.0116917,-0.0897027,116.599,110.795,116.56,110.857,6.28873e-05,5.87903e-05,0.000217291
-6.97963,12.2716,-296.809,0.000501412,0.00266286,0.00276025,-5.06723e-05,5.05453e-06,-1.76889e-05,1.01951e-05,-5.58129e-05,-1.28797,6.15471e-05,-0.338626,1.52432,-3.09718,0.0322467,0.0373474,-0.00716074,0.00231718,363,401,-0.0115443,-0.0880414,118.185,111.564,118.148,111.624,6.08699e-05,5.66353e-05,0.000210954
-6.68531,12.2579,-296.762,0.000537443,0.00261337,0.00260049,-5.4878e-05,8.91614e-06,-1.35156e-05,1.16614e-05,-5.76233e-05,-1.3704,6.42527e-05,-0.378358,1.52612,-3.1418,0.0361183,0.0400628,-0.010234,0.00228469,370,401,-0.00933964,-0.0868536,119.723,112.33,119.686,112.388,6.06899e-05,5.61349e-05,0.000210286
-6.39183,12.2442,-296.717,0.000610992,0.00258111,0.00252791,-6.05613e-05,1.19558e-05,-1.14192e-05,1.37115e-05,-6.2317e-05,-1.41824,7.01845e-05,-0.374327,1.51938,-3.10598,0.0399681,0.0401194,-0.0135058,0.0023226,377,401,-0.00686567,-0.085781,121.22,113.09,121.182,113.148,6.20393e-05,5.67657e-05,0.000214735
-6.09932,12.2306,-296.675,0.000627797,0.00260532,0.00241966,-6.46932e-05,1.40655e-05,-1.087e-05,1.55382e-05,-6.61659e-05,-1.43613,7.51496e-05,-0.337874,1.52211,-2.92811,0.0419674,0.0383079,-0.0163463,0.0024095,384,401,-0.00563674,-0.0876048,122.667,113.845,122.629,113.902,6.43243e-05,5.71392e-05,0.000222501
-5.80721,12.2171,-296.634,0.000595704,0.00269002,0.00218501,-6.431e-05,1.5404e-05,-1.11677e-05,1.6939e-05,-6.5845e-05,-1.4342,7.57486e-05,-0.298818,1.53413,-2.77812,0.038801,0.0353899,-0.0177966,0.00250294,391,401,-0.00476426,-0.0910709,124.093,114.596,124.057,114.655,6.67502e-05,5.81333e-05,0.000230778
-5.51522,12.2035,-296.592,0.000549068,0.00274215,0.00209057,-6.22333e-05,1.6828e-05,-1.12841e-05,1.8407e-05,-6.38123e-05,-1.43177,7.47357e-05,-0.288645,1.54381,-2.87709,0.0289416,0.0323386,-0.0172087,0.00253268,398,401,-0.00526789,-0.0937315,125.516,115.349,125.482,115.408,6.74353e-05,5.77497e-05,0.000233077
-5.22292,12.1899,-296.548,0.000516801,0.00273273,0.00186303,-6.17821e-05,1.84735e-05,-1.02582e-05,1.97639e-05,-6.30726e-05,-1.44566,7.49355e-05,-0.271326,1.52636,-3.00389,0.0144184,0.0295553,-0.0152547,0.00254764,405,401,-0.00434005,-0.0935823,126.958,116.102,126.927,116.161,6.8079e-05,5.80897e-05,0.000235093
-4.93004,12.1762,-296.502,0.000529793,0.00268026,0.00182674,-6.17812e-05,2.05762e-05,-7.79239e-06,2.1307e-05,-6.2512e-05,-1.47729,7.54565e-05,-0.248793,1.47295,-3.00559,0.000159613,0.0274908,-0.0131558,0.00252401,412,401,-0.00363133,-0.0914379,128.438,116.862,128.407,116.919,6.75582e-05,5.84401e-05,0.000233069
-4.63708,12.1625,-296.455,0.000506824,0.00261415,0.00160085,-6.08384e-05,2.27921e-05,-3.97093e-06,2.29802e-05,-6.10265e-05,-1.52346,7.51979e-05,-0.22517,1.40869,-2.93159,-0.01041,0.0257058,-0.0107633,0.0024852,419,401,-0.00241038,-0.0886749,129.923,117.624,129.895,117.681,6.64252e-05,5.95619e-05,0.000229046
-4.34361,12.1487,-296.406,0.000430867,0.00258479,0.00153054,-5.62901e-05,2.4626e-05,-1.29797e-07,2.46262e-05,-5.62903e-05,-1.56919,7.18419e-05,-0.203783,1.37256,-2.78672,-0.019098,0.024342,-0.00731429,0.00243007,426,401,-0.00370265,-0.0865701,131.441,118.389,131.414,118.447,6.48118e-05,5.9641e-05,0.000223692
-4.04924,12.1347,-296.352,0.000408521,0.0025405,0.00155324,-4.6465e-05,2.56793e-05,3.577e-06,2.58562e-05,-4.66419e-05,1.52138,6.36396e-05,-0.216251,1.35905,-2.84025,-0.0279038,0.0237103,-0.00264745,0.00244943,433,401,-0.00436024,-0.0861253,133.013,119.166,132.988,119.222,6.34355e-05,6.07614e-05,0.000219218
-3.75374,12.121,-296.294,0.000430965,0.00252977,0.00171056,-3.32215e-05,2.62195e-05,7.32795e-06,2.71096e-05,-3.41116e-05,1.44993,5.31346e-05,-0.254695,1.37467,-3.05805,-0.0352454,0.023969,0.00248256,0.00247385,440,401,-0.00489589,-0.0857138,134.656,119.928,134.629,119.983,6.26254e-05,6.13211e-05,0.000216603
-3.45755,12.1074,-296.233,0.000459826,0.00255188,0.00186923,-1.97571e-05,2.65711e-05,1.28012e-05,2.9873e-05,-2.30589e-05,1.31837,4.59668e-05,-0.33512,1.44187,-3.40519,-0.0371181,0.0252073,0.00675595,0.00249012,447,401,-0.00530331,-0.0858037,136.344,120.682,136.314,120.738,6.40692e-05,6.1885e-05,0.000221489
-3.1613,12.0938,-296.171,0.000412693,0.00259682,0.00180037,-9.79155e-06,2.68039e-05,1.95921e-05,3.53139e-05,-1.83016e-05,1.16102,4.72051e-05,-0.368983,1.49526,-3.66382,-0.0343288,0.0266063,0.00961868,0.00253584,454,401,-0.00600102,-0.0871315,138.036,121.435,138.008,121.492,6.65674e-05,6.16051e-05,0.000230038
-2.86374,12.0799,-296.103,0.000295542,0.00267044,0.001601,-4.15436e-06,2.70312e-05,2.56789e-05,4.14807e-05,-1.86038e-05,1.05826,5.32771e-05,-0.325078,1.52681,-3.65254,-0.0307249,0.0278117,0.0107749,0.00252989,461,401,-0.00754357,-0.0888547,139.804,122.202,139.781,122.262,6.66315e-05,6.0105e-05,0.000230275
-2.56579,12.0659,-296.033,0.000192976,0.00276067,0.00148917,1.06045e-06,2.67693e-05,3.12374e-05,4.76938e-05,-1.9864e-05,0.980592,6.01387e-05,-0.278951,1.50292,-3.40118,-0.025284,0.0288252,0.010837,0.00249938,468,401,-0.00938385,-0.0911387,141.601,122.974,141.581,123.037,6.57036e-05,5.76696e-05,0.00022703
-2.26664,12.0515,-295.958,0.000172413,0.00279521,0.00149751,7.57369e-06,2.578e-05,3.61379e-05,5.39437e-05,-2.059e-05,0.908782,6.66676e-05,-0.223959,1.49371,-3.2209,-0.0173044,0.0300404,0.0101967,0.00244575,475,401,-0.00997224,-0.0920777,143.475,123.77,143.455,123.833,6.43245e-05,5.6566e-05,0.000222024
-1.96653,12.037,-295.879,0.000244206,0.00280244,0.00168339,1.29497e-05,2.45239e-05,3.99362e-05,5.90901e-05,-2.16165e-05,0.857351,7.23618e-05,-0.203389,1.50714,-3.21683,-0.00939149,0.0308197,0.00842538,0.00238867,482,401,-0.00948553,-0.0926134,145.413,124.573,145.391,124.636,6.32119e-05,5.5543e-05,0.000217844
-1.66642,12.0225,-295.799,0.000328647,0.00278851,0.00182491,1.5184e-05,2.33779e-05,4.21263e-05,6.16061e-05,-2.30441e-05,0.833873,7.58023e-05,-0.243074,1.53686,-3.27751,-0.00454643,0.0303879,0.00517023,0.00239059,489,401,-0.00832157,-0.0922413,147.36,125.379,147.334,125.442,6.36559e-05,5.44467e-05,0.000219038
-1.36641,12.008,-295.718,0.000408483,0.00276758,0.00177666,1.28878e-05,2.17042e-05,4.33184e-05,6.08381e-05,-2.62461e-05,0.836105,7.73751e-05,-0.286731,1.55343,-3.26648,-0.0033311,0.0289836,0.00112582,0.00243312,496,401,-0.00588778,-0.0910889,149.308,126.181,149.28,126.244,6.49698e-05,5.38827e-05,0.000223332
-1.0659,11.9936,-295.634,0.000481776,0.00278348,0.00171789,7.95182e-06,1.95345e-05,4.49674e-05,5.9082e-05,-3.15957e-05,0.84944,7.97227e-05,-0.28353,1.54423,-3.19512,-0.0049426,0.0267646,-0.00217491,0.00251871,503,401,-0.00359753,-0.0915496,151.293,126.981,151.263,127.044,6.69657e-05,5.59945e-05,0.000230264
-0.764603,11.979,-295.547,0.000502121,0.00277461,0.00160652,4.26731e-06,1.69622e-05,4.79417e-05,5.89749e-05,-3.77453e-05,0.851215,8.4432e-05,-0.292036,1.48873,-3.26032,-0.00775514,0.0240908,-0.00318391,0.00258056,510,401,-0.00224229,-0.09134,153.329,127.787,153.299,127.851,6.82374e-05,6.01549e-05,0.000234814
-0.462675,11.9645,-295.456,0.00053914,0.00272633,0.00163082,2.92546e-06,1.4378e-05,5.08892e-05,5.98621e-05,-4.25586e-05,0.841425,8.91199e-05,-0.287829,1.41959,-3.33859,-0.0117237,0.0209674,-0.00166507,0.00263281,517,401,-0.00139421,-0.0904114,155.412,128.595,155.381,128.656,6.84595e-05,6.433e-05,0.000235318
-0.161576,11.9499,-295.368,0.000554551,0.00270367,0.00156886,1.93549e-06,1.14277e-05,5.34864e-05,6.03781e-05,-4.7015e-05,0.82965,9.32449e-05,-0.299719,1.40032,-3.32877,-0.0164295,0.0176682,0.00119635,0.00261874,524,401,-0.000503579,-0.0899189,157.456,129.406,157.425,129.467,6.70302e-05,6.61006e-05,0.000229487
0.138177,11.9356,-295.283,0.000538686,0.00266864,0.0015785,-5.23706e-06,9.17853e-06,5.82705e-05,6.06853e-05,-5.67439e-05,0.846933,0.000101716,-0.301573,1.43455,-3.1396,-0.0220344,0.0139095,0.00355855,0.00260768,531,401,-0.000919923,-0.0901136,159.431,130.2,159.401,130.259,6.69931e-05,6.59796e-05,0.00022861
0.434835,11.9218,-295.208,0.000562842,0.00264703,0.00147839,-1.33857e-05,7.00447e-06,6.34695e-05,6.10925e-05,-6.74737e-05,0.865033,0.000111387,-0.358212,1.4366,-2.96286,-0.0254321,0.00897498,0.00772032,0.0026204,538,401,0.000431057,-0.0909617,161.238,130.967,161.208,131.023,6.85733e-05,6.47671e-05,0.000234129
0.730053,11.9082,-295.138,0.000583283,0.00266397,0.00134874,-1.76414e-05,4.12871e-06,6.83996e-05,6.2504e-05,-7.60166e-05,0.864306,0.000120152,-0.430626,1.44437,-2.9697,-0.0271621,0.0028155,0.0146866,0.0026207,545,401,0.00187793,-0.0914295,162.969,131.717,162.94,131.774,6.99577e-05,6.39019e-05,0.000238606
1.02443,11.8946,-295.069,0.000530959,0.00271352,0.00125423,-1.67001e-05,1.94872e-07,7.30263e-05,6.52606e-05,-8.17659e-05,0.842981,0.000127596,-0.477793,1.41602,-3.16123,-0.0264953,-0.00425132,0.0250811,0.00266838,552,401,0.0012109,-0.091741,164.658,132.473,164.63,132.533,7.14803e-05,6.45011e-05,0.00024343
1.31816,11.881,-295.002,0.000453619,0.00277241,0.00133434,-1.50242e-05,-4.44902e-06,7.82094e-05,6.86514e-05,-8.81246e-05,0.819151,0.000136121,-0.467334,1.42486,-3.31718,-0.0206348,-0.0115934,0.0379299,0.0027151,559,401,-0.00130348,-0.091023,166.317,133.223,166.291,133.286,7.33789e-05,6.54829e-05,0.000248763
1.61006,11.8669,-294.941,0.000386096,0.00285486,0.00142061,-1.71935e-05,-8.90817e-06,8.19188e-05,6.89727e-05,-9.50743e-05,0.810662,0.000142667,-0.405038,1.49571,-3.25892,-0.00754088,-0.0187325,0.051612,0.0027808,566,401,-0.00367114,-0.0925598,167.875,133.998,167.85,134.064,7.57525e-05,6.55284e-05,0.000255593
1.89948,11.8532,-294.888,0.000410375,0.00286421,0.00175667,-1.59134e-05,-1.34291e-05,8.241e-05,6.77481e-05,-9.70906e-05,0.792934,0.000143506,-0.4038,1.55247,-3.15246,0.0202992,-0.0247111,0.0673951,0.00284416,573,401,-0.00539769,-0.0940633,169.301,134.753,169.272,134.819,7.71811e-05,6.47449e-05,0.000259753
0,0,0,0,0,0,0,0,0,0,0,0,0,0,0,0,0,0,0,-1,580,401,0,0,0,0,0,0,0,0,0
0,0,0,0,0,0,0,0,0,0,0,0,0,0,0,0,0,0,0,-1,587,401,0,0,0,0,0,0,0,0,0
0,0,0,0,0,0,0,0,0,0,0,0,0,0,0,0,0,0,0,-1,594,401,0,0,0,0,0,0,0,0,0
0,0,0,0,0,0,0,0,0,0,0,0,0,0,0,0,0,0,0,-1,601,401,0,0,0,0,0,0,0,0,0
0,0,0,0,0,0,0,0,0,0,0,0,0,0,0,0,0,0,0,-1,62,408,0,0,0,0,0,0,0,0,0
0,0,0,0,0,0,0,0,0,0,0,0,0,0,0,0,0,0,0,-1,69,408,0,0,0,0,0,0,0,0,0
0,0,0,0,0,0,0,0,0,0,0,0,0,0,0,0,0,0,0,-1,76,408,0,0,0,0,0,0,0,0,0
-18.621,12.5326,-297.779,0.000649702,0.00299185,0.0007604,-1.79585e-05,3.36932e-05,-1.54691e-05,3.79717e-05,-2.2237e-05,-1.30096,5.27324e-05,-0.43709,1.62967,-2.60974,0.0465118,-0.0339073,-0.0785106,0.00257198,83,408,0.0061055,-0.0867749,64.0904,82.5292,64.0638,82.6075,6.47717e-05,6.51644e-05,0.000231183
-18.3437,12.5202,-297.803,0.000711616,0.00291724,0.000696466,-7.72688e-06,3.37185e-05,-4.73356e-06,3.42523e-05,-8.26063e-06,-1.45851,3.90436e-05,-0.425057,1.60171,-2.75522,0.0377814,-0.031708,-0.0666389,0.00266306,90,408,0.00826807,-0.084046,64.7963,83.2347,64.7683,83.3116,6.66828e-05,6.71995e-05,0.000238081
-18.065,12.5078,-297.823,0.000764732,0.00288058,0.000853571,1.0177e-05,2.97847e-05,5.67499e-06,3.13087e-05,8.65293e-06,1.30843,2.80035e-05,-0.414471,1.58948,-2.91749,0.0315764,-0.0258029,-0.0575948,0.00268512,97,408,0.00834439,-0.0828557,65.5683,83.9424,65.5378,84.0184,6.78217e-05,6.81083e-05,0.000241764
-17.7845,12.4953,-297.838,0.000742337,0.00289754,0.000989639,2.64471e-05,2.22416e-05,1.71329e-05,4.16058e-05,7.08288e-06,0.724337,3.85554e-05,-0.353611,1.56947,-3.07816,0.030016,-0.0186304,-0.048963,0.00258591,104,408,0.00664612,-0.0852449,66.4189,84.6561,66.3882,84.7309,6.6149e-05,6.58275e-05,0.000235802
-17.5028,12.4827,-297.848,0.000689069,0.00291145,0.00118253,3.72289e-05,1.20267e-05,2.74941e-05,5.4872e-05,-5.61642e-06,0.570522,5.78849e-05,-0.306593,1.54074,-3.17083,0.0314917,-0.0120847,-0.0391779,0.00255684,111,408,0.00376139,-0.0862261,67.3234,85.3708,67.2929,85.4454,6.644e-05,6.53552e-05,0.000236028
-17.2193,12.4701,-297.853,0.000676614,0.00293175,0.00129232,4.10509e-05,-3.28836e-07,3.41423e-05,6.0283e-05,-1.95609e-05,0.512992,7.20824e-05,-0.297522,1.5232,-3.25561,0.0341395,-0.00695842,-0.0289993,0.00255284,118,408,0.00259328,-0.0854516,68.3097,86.0867,68.2787,86.163,6.63964e-05,6.55427e-05,0.000233751
-16.9339,12.4572,-297.852,0.000736824,0.00293606,0.00142375,3.7105e-05,-1.48805e-05,3.64884e-05,5.59121e-05,-3.36876e-05,0.475912,7.83872e-05,-0.292426,1.51246,-3.36273,0.037661,-0.00363232,-0.0201649,0.00258348,125,408,0.00306348,-0.083787,69.3916,86.8135,69.3578,86.8915,6.66769e-05,6.63496e-05,0.000233157
-16.6474,12.4444,-297.847,0.000844241,0.00292136,0.00154568,2.74101e-05,-3.16378e-05,3.57793e-05,4.42738e-05,-4.85015e-05,0.440448,8.03736e-05,-0.303204,1.49736,-3.45432,0.0418335,-0.0023066,-0.0137049,0.00264408,132,408,0.00477604,-0.0826846,70.5255,87.5396,70.4878,87.6178,6.76911e-05,6.74511e-05,0.000235997
-16.3615,12.4315,-297.844,0.000902232,0.00288919,0.00192252,1.59116e-05,-4.87107e-05,3.47022e-05,3.10162e-05,-6.38153e-05,0.410532,8.37479e-05,-0.343604,1.46721,-3.53086,0.0446629,-0.00284667,-0.00859788,0.00273315,139,408,0.00319557,-0.0832543,71.6222,88.271,71.5804,88.3469,6.96718e-05,6.80467e-05,0.000241969
-16.0774,12.4187,-297.846,0.000897266,0.00292638,0.00230321,3.20407e-06,-6.63675e-05,3.12841e-05,1.52023e-05,-7.83657e-05,0.366224,8.69692e-05,-0.355231,1.43032,-3.56347,0.0453961,-0.00395318,-0.0046663,0.00273422,146,408,-2.24328e-05,-0.0855432,72.6296,88.9973,72.5853,89.0731,6.92659e-05,6.75695e-05,0.000239856
-15.7929,12.406,-297.847,0.000870637,0.00296616,0.002703,-1.05448e-05,-8.31006e-05,2.527e-05,-2.6112e-06,-9.10342e-05,0.304209,8.97571e-05,-0.339257,1.46941,-3.45091,0.0420383,-0.00542724,-0.00185425,0.00262739,153,408,-0.00391787,-0.0880685,73.6553,89.715,73.609,89.7906,6.66924e-05,6.4776e-05,0.000230399
-15.5088,12.3931,-297.848,0.000805565,0.00296539,0.00302814,-2.62283e-05,-9.78548e-05,1.72884e-05,-2.22737e-05,-0.000101809,0.224871,9.27016e-05,-0.331191,1.53417,-3.29352,0.0348176,-0.00732231,-0.000442262,0.00251427,160,408,-0.00806144,-0.0877149,74.6547,90.4409,74.6078,90.5168,6.41335e-05,6.17306e-05,0.000221935
-15.2231,12.3803,-297.844,0.000759883,0.00292094,0.0031225,-4.38897e-05,-0.00011015,9.176e-06,-4.26424e-05,-0.000111397,0.135097,9.73525e-05,-0.298681,1.62333,-3.18569,0.0249976,-0.00900154,-0.000964326,0.00231782,167,408,-0.00980775,-0.0857171,75.726,91.1624,75.6797,91.2378,5.88162e-05,5.80311e-05,0.000203853
-14.9362,12.3674,-297.836,0.0006807,0.00280908,0.0031638,-6.23839e-05,-0.000119313,1.92759e-06,-6.23187e-05,-0.000119378,0.0338081,0.000103418,-0.306441,1.65938,-3.21165,0.0126191,-0.0101317,-0.00247512,0.00219853,174,408,-0.0118623,-0.0812866,76.8604,91.8936,76.816,91.9671,5.69704e-05,5.55871e-05,0.000197669
-14.6471,12.3542,-297.821,0.000616103,0.00273233,0.0031967,-7.88841e-05,-0.000124771,-4.29868e-06,-7.84849e-05,-0.00012517,-0.092607,0.00010956,-0.283721,1.59767,-3.20973,-0.00073557,-0.0107147,-0.00361285,0.0021996,181,408,-0.0135519,-0.0788588,78.0977,92.64,78.0549,92.7116,5.72092e-05,5.59291e-05,0.000199098
-14.3559,12.3409,-297.799,0.000579232,0.00274942,0.00327673,-9.09489e-05,-0.000126367,-1.06921e-05,-8.79715e-05,-0.000129345,-0.271588,0.000114413,-0.259028,1.50524,-3.14302,-0.0128477,-0.0107742,-0.00383925,0.00223369,188,408,-0.015035,-0.0786547,79.4394,93.3849,79.397,93.4576,5.82871e-05,5.71262e-05,0.000203156
-14.0627,12.3277,-297.771,0.00056786,0.0027694,0.00332752,-9.63826e-05,-0.000124162,-1.81756e-05,-8.73972e-05,-0.000133148,-0.459133,0.000117175,-0.233285,1.47866,-3.0673,-0.0239257,-0.00977096,-0.00291094,0.00229191,195,408,-0.0156872,-0.079931,80.8834,94.1318,80.8408,94.2044,5.98977e-05,5.86796e-05,0.000208405
-13.7677,12.3142,-297.736,0.000597316,0.00283007,0.00342066,-9.47662e-05,-0.000118888,-2.5337e-05,-7.87658e-05,-0.000134888,-0.563261,0.000117364,-0.252366,1.51337,-3.03152,-0.0330737,-0.00737965,-0.00244642,0.00231615,202,408,-0.0157269,-0.0829626,82.4172,94.8887,82.3732,94.9618,6.15972e-05,5.88314e-05,0.000214014
-13.4732,12.3007,-297.702,0.000549446,0.00285212,0.00334636,-8.73096e-05,-0.000111582,-3.04554e-05,-6.66615e-05,-0.000132231,-0.595793,0.000114516,-0.300112,1.53978,-3.01085,-0.0392149,-0.00357491,-0.00251577,0.00229441,209,408,-0.0162862,-0.0841854,83.921,95.6463,83.8787,95.7194,6.12429e-05,5.80946e-05,0.000212213
-13.1805,12.2874,-297.674,0.000502722,0.00284539,0.00319694,-7.59174e-05,-0.000103349,-3.32288e-05,-5.36851e-05,-0.000125582,-0.589663,0.000109137,-0.34172,1.55476,-3.07416,-0.0414312,0.000256521,-0.00176357,0.0022272,216,408,-0.016189,-0.0842807,85.3394,96.3967,85.2995,96.4693,5.93452e-05,5.67196e-05,0.000205333
-12.8893,12.2741,-297.649,0.000445713,0.00286116,0.00303847,-6.24666e-05,-9.4817e-05,-3.40258e-05,-4.0967e-05,-0.000116317,-0.563519,0.00010219,-0.364242,1.5304,-3.19139,-0.0393525,0.00328814,0.000800759,0.00213267,223,408,-0.0163132,-0.0853247,86.6762,97.1428,86.639,97.2153,5.48214e-05,5.49367e-05,0.000189711
-12.5995,12.2609,-297.629,0.000433219,0.00286609,0.00305811,-4.68335e-05,-8.68591e-05,-3.45936e-05,-2.6881e-05,-0.000106812,-0.523164,9.62295e-05,-0.387973,1.5219,-3.35707,-0.0353084,0.0051182,0.0050928,0.00206853,230,408,-0.0167337,-0.0862185,87.9436,97.8824,87.9066,97.9544,5.12419e-05,5.29384e-05,0.000177302
-12.3104,12.2478,-297.611,0.000416022,0.00289202,0.00320811,-2.98676e-05,-8.05042e-05,-3.59889e-05,-1.11835e-05,-9.91884e-05,-0.478862,9.40964e-05,-0.401804,1.55649,-3.38991,-0.0307032,0.0053487,0.0106099,0.00203062,237,408,-0.0183061,-0.0872827,89.1781,98.62,89.1403,98.6924,4.92517e-05,5.21936e-05,0.000170795
-12.0208,12.2346,-297.59,0.000383003,0.00291811,0.00324979,-1.38974e-05,-7.62269e-05,-3.83845e-05,4.38081e-06,-9.45051e-05,-0.444418,9.67699e-05,-0.381912,1.59756,-3.25077,-0.024993,0.00397378,0.0159689,0.00203421,244,408,-0.0194003,-0.0874351,90.4371,99.3576,90.3999,99.4312,4.97882e-05,5.25277e-05,0.000173027
-11.7299,12.2214,-297.564,0.000382046,0.00290506,0.00316365,-1.23414e-06,-7.3705e-05,-4.14052e-05,1.75522e-05,-9.24913e-05,-0.425943,0.000102402,-0.361675,1.57625,-3.1083,-0.0170096,0.00100328,0.0194537,0.00206181,251,408,-0.0186761,-0.0872714,91.7626,100.1,91.726,100.173,5.10592e-05,5.27578e-05,0.000177521
-11.4372,12.2082,-297.533,0.000396685,0.00288064,0.00308158,8.17019e-06,-7.30118e-05,-4.44374e-05,2.77649e-05,-9.26064e-05,-0.415302,0.00010917,-0.331264,1.54249,-2.98226,-0.00666749,-0.00328659,0.0209434,0.00211336,258,408,-0.0176059,-0.0876696,93.1813,100.839,93.1449,100.911,5.27434e-05,5.33874e-05,0.000183212
-11.1424,12.1951,-297.494,0.00046365,0.00284483,0.00303666,1.54806e-05,-7.33676e-05,-4.7084e-05,3.57899e-05,-9.36769e-05,-0.407229,0.000115797,-0.336726,1.51673,-2.90196,0.00362286,-0.00850717,0.0217095,0.0021043,265,408,-0.0155436,-0.0889934,94.7088,101.576,94.6709,101.645,5.4082e-05,5.3553e-05,0.000187505
-10.8464,12.1818,-297.451,0.000582137,0.00283948,0.00311266,1.94085e-05,-7.36449e-05,-4.99372e-05,4.11347e-05,-9.53711e-05,-0.410369,0.000121288,-0.340359,1.49275,-2.87948,0.0108263,-0.0139347,0.0230184,0.00213098,272,408,-0.0131925,-0.0919845,96.2991,102.328,96.2574,102.393,5.50116e-05,5.45221e-05,0.000190265
-10.5517,12.168,-297.411,0.000654877,0.0028329,0.00319528,1.86011e-05,-7.27889e-05,-5.34081e-05,4.31945e-05,-9.73823e-05,-0.431535,0.000124722,-0.386059,1.45868,-2.90996,0.0139768,-0.0183619,0.0243629,0.00223782,279,408,-0.0119968,-0.0938613,97.8271,103.098,97.7829,103.161,5.67832e-05,5.70615e-05,0.000196595
-10.2583,12.1543,-297.375,0.000710286,0.00282999,0.00317395,1.16829e-05,-7.01373e-05,-5.62486e-05,4.03252e-05,-9.87796e-05,-0.470988,0.000123963,-0.4208,1.43656,-2.97409,0.0141507,-0.0210041,0.0248265,0.00233311,286,408,-0.0103864,-0.0936742,99.2853,103.864,99.2396,103.927,5.87681e-05,5.99748e-05,0.000203344
-9.96437,12.1407,-297.337,0.000694608,0.00282974,0.00309237,1.23131e-06,-6.60048e-05,-5.77043e-05,3.43961e-05,-9.91696e-05,-0.521638,0.00012012,-0.447725,1.48567,-2.99256,0.0133125,-0.0214975,0.0235365,0.00241738,293,408,-0.0100408,-0.0916776,100.77,104.622,100.726,104.687,6.05577e-05,6.25319e-05,0.000209509
-9.6693,12.1268,-297.295,0.000689197,0.00284157,0.00280268,-1.04956e-05,-6.04861e-05,-5.79619e-05,2.76308e-05,-9.86125e-05,-0.581828,0.000114946,-0.419417,1.56751,-2.84335,0.0134444,-0.0203077,0.0208178,0.00242855,300,408,-0.00783357,-0.0884991,102.315,105.392,102.272,105.461,6.23305e-05,6.28143e-05,0.000215657
-9.37145,12.1131,-297.242,0.0006665,0.00280534,0.00273473,-2.34684e-05,-5.40127e-05,-5.7734e-05,2.09793e-05,-9.84604e-05,-0.656097,0.000110455,-0.377573,1.63087,-2.73652,0.0141799,-0.0176205,0.0182019,0.00242186,307,408,-0.00775059,-0.0862473,104.01,106.16,103.968,106.229,6.29126e-05,6.23849e-05,0.000217378
-9.07255,12.0992,-297.186,0.000620493,0.00274822,0.00261801,-3.48686e-05,-4.68409e-05,-5.76367e-05,1.70919e-05,-9.88015e-05,-0.733653,0.000108363,-0.324667,1.64127,-2.71322,0.0139476,-0.0131724,0.0155688,0.00238221,314,408,-0.00789221,-0.0853301,105.761,106.936,105.721,107.002,6.20463e-05,6.13467e-05,0.00021389
-8.77351,12.0855,-297.128,0.000579624,0.0027359,0.00263334,-4.22183e-05,-3.91255e-05,-5.66353e-05,1.59846e-05,-9.73283e-05,-0.799047,0.000106226,-0.295709,1.61256,-2.85941,0.0130481,-0.00640185,0.0122148,0.00234711,321,408,-0.00900617,-0.0875822,107.524,107.707,107.485,107.771,6.01567e-05,6.07408e-05,0.00020719
-8.47506,12.0717,-297.072,0.000544607,0.00272517,0.00263398,-4.47385e-05,-3.12668e-05,-5.38371e-05,1.62542e-05,-9.22594e-05,-0.847633,0.000101369,-0.297067,1.57855,-3.08116,0.0131205,0.00223999,0.00815674,0.00237101,328,408,-0.00985611,-0.0894016,109.26,108.48,109.222,108.542,6.03823e-05,6.12864e-05,0.000207807
-8.17603,12.0578,-297.013,0.000554065,0.00266778,0.00269804,-4.46963e-05,-2.33816e-05,-4.84764e-05,1.55951e-05,-8.3673e-05,-0.8936,9.24622e-05,-0.318895,1.54318,-3.06472,0.015922,0.0117703,0.0041659,0.00252138,335,408,-0.0100171,-0.0894452,111.032,109.261,110.994,109.319,6.49149e-05,6.60899e-05,0.00022245
-7.87771,12.0439,-296.956,0.000560495,0.00269999,0.00275368,-4.58906e-05,-1.55129e-05,-4.12501e-05,1.32559e-05,-7.46594e-05,-0.961802,8.2094e-05,-0.292737,1.56479,-2.98228,0.0199541,0.0213022,0.000302658,0.00260781,342,408,-0.0102557,-0.0902379,112.77,110.032,112.731,110.092,6.97427e-05,6.6387e-05,0.000238731
-7.58051,12.0301,-296.901,0.000551032,0.00269684,0.0028334,-4.83396e-05,-8.58949e-06,-3.34184e-05,1.04175e-05,-6.73465e-05,-1.05367,7.3114e-05,-0.27868,1.57394,-2.82356,0.0231511,0.0298338,-0.00344005,0.002648,349,408,-0.0110245,-0.0898483,114.452,110.799,114.413,110.859,7.07744e-05,6.67537e-05,0.000242216
-7.2845,12.0165,-296.85,0.00052248,0.00272083,0.00287546,-4.95516e-05,-2.96587e-06,-2.59047e-05,8.57819e-06,-6.10956e-05,-1.15158,6.58054e-05,-0.310903,1.55833,-2.79864,0.0267374,0.0366205,-0.0067574,0.00246282,356,408,-0.0119987,-0.089408,116.074,111.557,116.035,111.619,6.59334e-05,6.06448e-05,0.000227141
-6.9897,12.0029,-296.802,0.000488763,0.00268131,0.00275707,-5.09829e-05,1.58433e-06,-1.96065e-05,8.09159e-06,-5.74902e-05,-1.25034,6.19337e-05,-0.342499,1.54524,-3.01541,0.0304755,0.0408944,-0.00952102,0.00227872,363,408,-0.0118485,-0.0883921,117.633,112.318,117.596,112.379,6.07181e-05,5.62941e-05,0.000210213
-6.69557,11.9893,-296.756,0.000531567,0.00262035,0.00256378,-5.57094e-05,5.36784e-06,-1.50583e-05,8.87861e-06,-5.92201e-05,-1.34174,6.41221e-05,-0.393509,1.543,-3.10136,0.0340251,0.042286,-0.0119506,0.00224349,370,408,-0.00921988,-0.0873326,119.161,113.079,119.124,113.137,5.99201e-05,5.59307e-05,0.000207469
-6.40229,11.9757,-296.712,0.000601213,0.00255869,0.00249092,-6.26146e-05,8.40312e-06,-1.25387e-05,1.05519e-05,-6.47634e-05,-1.40107,7.06329e-05,-0.382172,1.52694,-3.01847,0.038131,0.0410113,-0.0145752,0.00229982,377,408,-0.00682149,-0.0861018,120.648,113.839,120.61,113.895,6.14462e-05,5.73701e-05,0.000212538
-6.10993,11.9621,-296.67,0.000625719,0.00256843,0.002455,-6.83446e-05,1.04599e-05,-1.16826e-05,1.21553e-05,-7.00401e-05,-1.42668,7.68422e-05,-0.343174,1.52763,-2.85025,0.0407636,0.037702,-0.0167888,0.00238832,384,408,-0.00591854,-0.0873386,122.088,114.592,122.049,114.647,6.36066e-05,5.80424e-05,0.000219977
-5.81801,11.9487,-296.63,0.000578244,0.00265918,0.00218487,-6.93571e-05,1.17066e-05,-1.20722e-05,1.34663e-05,-7.11167e-05,-1.42606,7.87185e-05,-0.295598,1.53283,-2.79585,0.0383109,0.0330346,-0.0177572,0.00250095,391,408,-0.00515131,-0.0898914,123.503,115.336,123.468,115.394,6.65057e-05,5.89905e-05,0.00022996
-5.5261,11.9353,-296.588,0.000498334,0.00270898,0.00197562,-6.81869e-05,1.28054e-05,-1.26112e-05,1.47236e-05,-7.01051e-05,-1.41985,7.85093e-05,-0.282949,1.52758,-2.97283,0.0292298,0.0281132,-0.0169789,0.00257534,398,408,-0.00562426,-0.0920018,124.92,116.082,124.888,116.141,6.84773e-05,5.95277e-05,0.000236602
-5.23376,11.9218,-296.545,0.000446867,0.00270173,0.00168577,-6.82524e-05,1.37677e-05,-1.22028e-05,1.55446e-05,-7.00294e-05,-1.42619,7.89579e-05,-0.248246,1.47488,-3.09743,0.0158692,0.0237161,-0.0151326,0.00260407,405,408,-0.0047145,-0.0915483,126.363,116.831,126.336,116.89,6.94683e-05,6.06157e-05,0.000239872
-4.94076,11.9082,-296.498,0.000439704,0.00264966,0.00160933,-6.8712e-05,1.49207e-05,-1.03934e-05,1.61929e-05,-6.99843e-05,-1.44899,7.93301e-05,-0.194041,1.42039,-2.98891,0.00264022,0.0204467,-0.0131771,0.00259774,412,408,-0.0042338,-0.0901145,127.849,117.591,127.823,117.648,6.94986e-05,6.21758e-05,0.000239717
-4.64767,11.8945,-296.45,0.000431775,0.00256409,0.00150646,-6.81405e-05,1.63672e-05,-7.13814e-06,1.69659e-05,-6.87392e-05,-1.48712,7.86075e-05,-0.161656,1.37215,-2.78228,-0.00776971,0.0179352,-0.010849,0.00255617,419,408,-0.00354531,-0.0879029,129.344,118.35,129.318,118.405,6.82316e-05,6.23566e-05,0.000235159
-4.35427,11.881,-296.401,0.000378295,0.00253634,0.00157346,-6.35877e-05,1.77639e-05,-3.68522e-06,1.79305e-05,-6.37543e-05,-1.52562,7.4359e-05,-0.160179,1.34766,-2.58864,-0.0171685,0.0163798,-0.0075276,0.00244839,426,408,-0.00529517,-0.0862938,130.859,119.101,130.834,119.156,6.53909e-05,5.97958e-05,0.000225458
-4.06014,11.8674,-296.349,0.000340025,0.00250286,0.00169975,-5.36256e-05,1.87872e-05,-2.34706e-07,1.8788e-05,-5.36264e-05,-1.56756,6.5087e-05,-0.216042,1.3321,-2.64491,-0.0269126,0.0161509,-0.00321498,0.00237401,433,408,-0.00711189,-0.0856296,132.42,119.859,132.395,119.913,6.32332e-05,5.9063e-05,0.000218255
-3.76451,11.8538,-296.29,0.00035474,0.00249211,0.00195032,-4.01477e-05,1.95774e-05,3.31651e-06,1.9761e-05,-4.03313e-05,1.51549,5.3048e-05,-0.320181,1.33745,-2.93963,-0.03484,0.0175327,0.00121602,0.00243753,440,408,-0.00851459,-0.0849157,134.071,120.617,134.044,120.671,6.414e-05,5.90158e-05,0.000221604
-3.46841,11.8403,-296.229,0.000381822,0.00251514,0.00198782,-2.61801e-05,2.03187e-05,8.65167e-06,2.18763e-05,-2.77377e-05,1.39267,4.30668e-05,-0.408768,1.38841,-3.30473,-0.0371507,0.0204544,0.0047181,0.00253103,447,408,-0.00806935,-0.0843496,135.753,121.368,135.724,121.423,6.69983e-05,6.02921e-05,0.00023144
-3.17257,11.8267,-296.168,0.000363955,0.00256598,0.00194209,-1.5422e-05,2.14128e-05,1.5586e-05,2.71226e-05,-2.11319e-05,1.21964,4.18968e-05,-0.428973,1.43534,-3.50658,-0.0348065,0.0240107,0.00709943,0.00255932,454,408,-0.0081882,-0.0849967,137.423,122.122,137.396,122.179,6.79689e-05,6.05914e-05,0.000234742
-2.87514,11.8127,-296.101,0.000291396,0.00263731,0.00176611,-9.36043e-06,2.29061e-05,2.22221e-05,3.42337e-05,-2.06881e-05,1.09938,4.80435e-05,-0.394633,1.45638,-3.60541,-0.0315044,0.0275427,0.00809141,0.00253942,461,408,-0.00877015,-0.086459,139.185,122.897,139.161,122.957,6.75797e-05,6.09348e-05,0.000233317
-2.57728,11.7988,-296.032,0.000225782,0.00272927,0.00166257,-4.79791e-06,2.40982e-05,2.86703e-05,4.17552e-05,-2.24549e-05,1.01879,5.64387e-05,-0.311464,1.47085,-3.29072,-0.0262046,0.0308195,0.00815794,0.00245269,468,408,-0.00974135,-0.0888924,140.978,123.671,140.956,123.734,6.50401e-05,5.89552e-05,0.000224445
-2.27746,11.7845,-295.954,0.000208202,0.00278986,0.00168552,7.99171e-07,2.46747e-05,3.44749e-05,4.92202e-05,-2.37463e-05,0.952074,6.44617e-05,-0.249868,1.49069,-3.11142,-0.0182783,0.0339678,0.00770034,0.00240841,475,408,-0.0103976,-0.0911109,142.89,124.46,142.868,124.524,6.38092e-05,5.75559e-05,0.000219962
-1.97635,11.7702,-295.872,0.000291675,0.00279558,0.00187822,6.0987e-06,2.46791e-05,3.91088e-05,5.55859e-05,-2.48082e-05,0.902011,7.13038e-05,-0.219021,1.50181,-3.14442,-0.0101748,0.0361884,0.00639251,0.00243093,482,408,-0.0096859,-0.0928894,144.885,125.263,144.86,125.325,6.44957e-05,5.64573e-05,0.000222154
-1.67439,11.7556,-295.785,0.000356494,0.00277501,0.00196812,8.89819e-06,2.45192e-05,4.22809e-05,5.9705e-05,-2.62875e-05,0.876733,7.63231e-05,-0.22932,1.53644,-3.25811,-0.00490117,0.0367634,0.00356501,0.00247941,489,408,-0.00864693,-0.0929312,146.937,126.074,146.909,126.135,6.60055e-05,5.55111e-05,0.000227129
-1.37226,11.7411,-295.697,0.000410027,0.00273728,0.00188657,7.39947e-06,2.34746e-05,4.45249e-05,6.06816e-05,-2.98075e-05,0.874696,7.98719e-05,-0.247804,1.55553,-3.26565,-0.00319246,0.0358751,-0.000185966,0.00250779,496,408,-0.0066159,-0.0912691,149.004,126.88,148.975,126.941,6.69979e-05,5.46682e-05,0.000230311
-1.07003,11.7268,-295.607,0.000433771,0.00272569,0.00175054,3.472e-06,2.16951e-05,4.68448e-05,6.03063e-05,-3.51392e-05,0.881451,8.36105e-05,-0.260667,1.56811,-3.18292,-0.00435215,0.033478,-0.00323626,0.00253351,503,408,-0.00498155,-0.0904437,151.086,127.678,151.057,127.74,6.77424e-05,5.59169e-05,0.000232657
-0.767734,11.7125,-295.516,0.00043707,0.00269834,0.00153112,1.43403e-06,1.91674e-05,5.00921e-05,6.11714e-05,-4.057e-05,0.872995,8.87108e-05,-0.294383,1.49931,-3.22971,-0.00715384,0.0299855,-0.0040885,0.00257173,510,408,-0.00325682,-0.0892305,153.18,128.475,153.153,128.535,6.84866e-05,5.94679e-05,0.000235311
-0.465708,11.6982,-295.425,0.000467164,0.00266694,0.00153238,2.1218e-06,1.63443e-05,5.28938e-05,6.26028e-05,-4.41367e-05,0.852219,9.2899e-05,-0.310023,1.38962,-3.29821,-0.0112261,0.0255735,-0.00259744,0.00263183,517,408,-0.00243317,-0.0883234,155.27,129.273,155.242,129.333,6.91729e-05,6.3504e-05,0.000237501
-0.164422,11.6837,-295.336,0.000496767,0.00268316,0.00149352,2.84356e-06,1.27122e-05,5.50226e-05,6.30213e-05,-4.74655e-05,0.830118,9.6e-05,-0.327998,1.34051,-3.3073,-0.0159567,0.0209417,1.69202e-05,0.00262025,524,408,-0.00139243,-0.0887938,157.327,130.083,157.298,130.144,6.81582e-05,6.51269e-05,0.000233063
0.135432,11.6693,-295.25,0.00048948,0.00269026,0.00157315,-2.02722e-06,9.65098e-06,5.89289e-05,6.30294e-05,-5.54056e-05,0.834781,0.000102639,-0.323863,1.36408,-3.23964,-0.0220761,0.0157471,0.00214158,0.0026057,531,408,-0.00213353,-0.0899863,159.31,130.885,159.282,130.945,6.78682e-05,6.44279e-05,0.0002312
0.433364,11.6554,-295.171,0.000525489,0.002686,0.00152297,-8.07928e-06,6.70398e-06,6.28094e-05,6.25552e-05,-6.39305e-05,0.843971,0.000109542,-0.338231,1.39376,-3.04947,-0.0267528,0.00933146,0.00608193,0.00258951,538,408,-0.000855639,-0.0913673,161.193,131.661,161.164,131.719,6.83039e-05,6.30582e-05,0.000232612
0.729764,11.6417,-295.096,0.000533838,0.00271527,0.00143776,-1.09296e-05,3.26381e-06,6.607e-05,6.26172e-05,-7.0283e-05,0.838899,0.000115159,-0.381538,1.42696,-3.01327,-0.0301886,0.00166894,0.0127691,0.00259468,545,408,-4.77793e-05,-0.0924574,162.995,132.423,162.966,132.482,6.96145e-05,6.25768e-05,0.000236812
1.0256,11.6281,-295.022,0.000491894,0.002783,0.00134072,-9.78707e-06,-1.03645e-06,6.86415e-05,6.33691e-05,-7.41926e-05,0.817226,0.000119255,-0.407331,1.42001,-3.13097,-0.0311701,-0.0068019,0.0225853,0.00266145,552,408,-0.000455254,-0.0933261,164.771,133.178,164.744,133.24,7.14741e-05,6.40864e-05,0.000242814
1.32033,11.6146,-294.952,0.000428572,0.00283651,0.00136177,-9.22335e-06,-5.98353e-06,7.13976e-05,6.38126e-05,-7.90194e-05,0.796741,0.00012393,-0.420035,1.44302,-3.23018,-0.0271665,-0.0154395,0.0346568,0.00272473,559,408,-0.00220662,-0.0930796,166.491,133.928,166.465,133.992,7.38141e-05,6.49006e-05,0.000249823
1.61282,11.6007,-294.888,0.000408596,0.00287907,0.00140572,-1.41334e-05,-1.07606e-05,7.25812e-05,6.01538e-05,-8.50478e-05,0.797013,0.000126363,-0.379883,1.51758,-3.1825,-0.0168226,-0.0240454,0.0477372,0.00279511,566,408,-0.00304931,-0.0947596,168.088,134.697,168.062,134.763,7.64298e-05,6.4628e-05,0.000257798
1.90264,11.587,-294.834,0.000452551,0.00287527,0.00160312,-1.92928e-05,-1.59544e-05,7.10157e-05,5.34117e-05,-8.86589e-05,0.797148,0.000124293,-0.366888,1.57503,-3.08357,0.00665138,-0.0322025,0.0633283,0.00285053,573,408,-0.00328935,-0.0956512,169.539,135.457,169.51,135.521,7.75742e-05,6.42445e-05,0.000261483
0,0,0,0,0,0,0,0,0,0,0,0,0,0,0,0,0,0,0,-1,580,408,0,0,0,0,0,0,0,0,0
0,0,0,0,0,0,0,0,0,0,0,0,0,0,0,0,0,0,0,-1,587,408,0,0,0,0,0,0,0,0,0
0,0,0,0,0,0,0,0,0,0,0,0,0,0,0,0,0,0,0,-1,594,408,0,0,0,0,0,0,0,0,0
0,0,0,0,0,0,0,0,0,0,0,0,0,0,0,0,0,0,0,-1,601,408,0,0,0,0,0,0,0,0,0
0,0,0,0,0,0,0,0,0,0,0,0,0,0,0,0,0,0,0,-1,62,415,0,0,0,0,0,0,0,0,0
0,0,0,0,0,0,0,0,0,0,0,0,0,0,0,0,0,0,0,-1,69,415,0,0,0,0,0,0,0,0,0
0,0,0,0,0,0,0,0,0,0,0,0,0,0,0,0,0,0,0,-1,76,415,0,0,0,0,0,0,0,0,0
-18.6483,12.2617,-297.824,0.000649565,0.00299874,0.000642449,8.55898e-07,3.41687e-05,-1.36368e-05,3.9039e-05,-4.0144e-06,-1.22777,4.11932e-05,-0.353827,1.63864,-2.61693,0.0384709,-0.0254068,-0.066508,0.00259789,83,415,0.00708345,-0.0864011,62.6845,83.3833,62.6586,83.4623,6.70212e-05,6.57519e-05,0.00023833
-18.3712,12.2494,-297.848,0.000682444,0.00290723,0.000527367,7.94993e-06,3.44157e-05,-2.40689e-06,3.46328e-05,7.73282e-06,-1.48084,3.14868e-05,-0.33678,1.62128,-2.72019,0.030434,-0.0249941,-0.0593669,0.0026359,90,415,0.00896634,-0.08351,63.3825,84.0822,63.3565,84.159,6.76507e-05,6.67256e-05,0.000240569
-18.0926,12.2372,-297.869,0.000697695,0.00286509,0.000674109,2.29805e-05,3.09086e-05,9.10944e-06,3.68791e-05,1.701e-05,0.990622,3.19702e-05,-0.342775,1.62378,-2.8506,0.0248033,-0.021116,-0.0537911,0.00260107,97,415,0.00817957,-0.0833425,64.1445,84.7804,64.1171,84.8551,6.69634e-05,6.62738e-05,0.000238336
-17.8122,12.2248,-297.884,0.000687023,0.00287613,0.000921877,3.68086e-05,2.39213e-05,2.17824e-05,5.30804e-05,7.6495e-06,0.64159,4.96991e-05,-0.328582,1.58639,-2.9314,0.0238764,-0.0160343,-0.0474871,0.00254574,104,415,0.00585521,-0.085658,64.9906,85.4878,64.962,85.5611,6.49422e-05,6.51623e-05,0.000230783
-17.5307,12.2122,-297.895,0.000664995,0.00287943,0.00113051,4.57883e-05,1.43702e-05,3.33323e-05,6.69278e-05,-6.76935e-06,0.565192,7.05565e-05,-0.301916,1.55077,-2.99722,0.0258727,-0.0113926,-0.0391316,0.00253642,111,415,0.00362323,-0.0861087,65.884,86.1983,65.8547,86.2712,6.54988e-05,6.51135e-05,0.000231783
-17.2473,12.1995,-297.9,0.000676959,0.00289029,0.00128054,4.86484e-05,2.59281e-06,4.12477e-05,7.2861e-05,-2.16198e-05,0.530809,8.57402e-05,-0.307862,1.53392,-3.10483,0.0289711,-0.00778245,-0.0296506,0.00255809,118,415,0.00272548,-0.0855702,66.8684,86.9164,66.8376,86.9903,6.58432e-05,6.57171e-05,0.000231351
-16.9616,12.1867,-297.899,0.000746134,0.00292433,0.00143503,4.45295e-05,-1.17202e-05,4.4776e-05,6.92809e-05,-3.64716e-05,0.504977,9.3042e-05,-0.314526,1.51254,-3.24631,0.0330541,-0.00555313,-0.0209468,0.00258706,125,415,0.0032138,-0.0836541,67.9604,87.637,67.9263,87.7144,6.6383e-05,6.65114e-05,0.000232353
-16.6745,12.174,-297.892,0.000855942,0.00292599,0.0014986,3.50001e-05,-2.87199e-05,4.48261e-05,5.8135e-05,-5.18547e-05,0.476447,9.53056e-05,-0.354523,1.48357,-3.36735,0.0379705,-0.00498884,-0.0142129,0.00264072,132,415,0.00546938,-0.0814691,69.1192,88.3553,69.0814,88.4347,6.74047e-05,6.72429e-05,0.000235659
-16.3884,12.1612,-297.888,0.000914878,0.00292142,0.00184766,2.33224e-05,-4.64844e-05,4.394e-05,4.45347e-05,-6.76967e-05,0.449758,9.78827e-05,-0.397972,1.4431,-3.3897,0.0416156,-0.00618285,-0.00906565,0.00272307,139,415,0.00414227,-0.080887,70.2306,89.079,70.1886,89.1586,6.88534e-05,6.76569e-05,0.000240414
-16.1039,12.1484,-297.889,0.000922429,0.00297652,0.00220714,1.02058e-05,-6.49223e-05,4.01191e-05,2.76018e-05,-8.23182e-05,0.409139,9.90469e-05,-0.3658,1.41682,-3.36539,0.0430062,-0.00751762,-0.00495847,0.00273127,146,415,0.00139721,-0.0828775,71.2555,89.7998,71.2108,89.8805,6.86283e-05,6.71116e-05,0.000238666
-15.8195,12.1359,-297.89,0.000876932,0.00301549,0.00255149,-3.99232e-06,-8.26267e-05,3.31164e-05,8.09607e-06,-9.47151e-05,0.35,9.90117e-05,-0.343348,1.43112,-3.25919,0.0403387,-0.00889588,-0.0018554,0.00264904,153,415,-0.00251853,-0.0855564,72.2731,90.5111,72.2273,90.5914,6.62512e-05,6.47716e-05,0.000229539
-15.5355,12.123,-297.892,0.000815686,0.00301772,0.00287991,-2.01658e-05,-9.86444e-05,2.36861e-05,-1.35712e-05,-0.000105239,0.271543,9.91526e-05,-0.311996,1.49872,-3.1269,0.0339251,-0.0104751,-0.0001846,0.00254709,160,415,-0.00661674,-0.0861241,73.2632,91.2376,73.2168,91.3174,6.36518e-05,6.21258e-05,0.000219772
-15.2496,12.1102,-297.888,0.000777249,0.00297655,0.00304062,-3.83811e-05,-0.000112451,1.37682e-05,-3.59047e-05,-0.000114928,0.177963,0.000101839,-0.278249,1.59804,-3.0675,0.0248646,-0.0116395,-0.00067574,0.0023081,167,415,-0.00874357,-0.0852426,74.3471,91.9615,74.3008,92.04,5.69533e-05,5.75213e-05,0.000196853
-14.9626,12.0972,-297.88,0.00069659,0.00288192,0.00314967,-5.75139e-05,-0.000123227,4.37118e-06,-5.72244e-05,-0.000123516,0.0661311,0.000107064,-0.277249,1.64106,-3.04333,0.0132102,-0.0122739,-0.00233246,0.00219304,174,415,-0.0114089,-0.08187,75.4814,92.6952,75.4365,92.7718,5.50517e-05,5.53719e-05,0.000190513
-14.6737,12.0841,-297.865,0.000625472,0.00281337,0.00318172,-7.45273e-05,-0.000130231,-4.24681e-06,-7.42054e-05,-0.000130553,-0.0756562,0.000113414,-0.268497,1.59028,-3.09971,0.000504675,-0.0124175,-0.00377637,0.00220128,181,415,-0.0132628,-0.0797287,76.7097,93.4355,76.6666,93.5104,5.63202e-05,5.621e-05,0.00019578
-14.3823,12.0709,-297.843,0.000597244,0.00282288,0.00330933,-8.70574e-05,-0.000133002,-1.30605e-05,-8.36043e-05,-0.000136456,-0.258478,0.00011917,-0.249152,1.51683,-3.12577,-0.011502,-0.0121214,-0.00444759,0.00224903,188,415,-0.0149044,-0.0793683,78.0591,94.1752,78.0158,94.2509,5.81864e-05,5.76563e-05,0.000202926
-14.0887,12.0577,-297.813,0.00060086,0.00285203,0.00342611,-9.3331e-05,-0.000131644,-2.2767e-05,-8.27333e-05,-0.000142241,-0.435656,0.000123731,-0.235882,1.49245,-3.17729,-0.0229747,-0.0108461,-0.00409413,0.00227849,195,415,-0.0157187,-0.0807805,79.5241,94.9204,79.4798,94.9963,5.98323e-05,5.82387e-05,0.000208592
-13.7933,12.0443,-297.778,0.000629058,0.00286974,0.00351501,-9.28732e-05,-0.000126972,-3.17486e-05,-7.38858e-05,-0.00014596,-0.538988,0.000126408,-0.24576,1.52128,-3.1833,-0.0328653,-0.00832549,-0.00424221,0.00231053,202,415,-0.0157172,-0.0833075,81.0733,95.6747,81.0276,95.7493,6.14453e-05,5.85664e-05,0.000213733
-13.4979,12.0309,-297.741,0.000565564,0.00287985,0.00333649,-8.67384e-05,-0.000120066,-3.80904e-05,-6.18263e-05,-0.000144978,-0.579201,0.000126007,-0.270123,1.54144,-3.12293,-0.0401162,-0.00462321,-0.00465532,0.0022705,209,415,-0.0158293,-0.0845663,82.6266,96.4303,82.5839,96.5044,6.0289e-05,5.74645e-05,0.000209407
-13.204,12.0175,-297.709,0.00050277,0.00287778,0.00312988,-7.69298e-05,-0.000112051,-4.1486e-05,-4.94408e-05,-0.00013954,-0.585187,0.000122543,-0.303482,1.53187,-3.13949,-0.043588,-0.00105851,-0.0038536,0.00218463,216,415,-0.0156863,-0.0849626,84.0965,97.1832,84.057,97.2568,5.79972e-05,5.57868e-05,0.000201206
-12.912,12.0042,-297.682,0.000451203,0.00291334,0.00301468,-6.51386e-05,-0.000103375,-4.22945e-05,-3.78421e-05,-0.000130672,-0.573128,0.000116457,-0.341056,1.49523,-3.276,-0.0427802,0.00162997,-0.000968746,0.00209045,223,415,-0.0160392,-0.0864933,85.4768,97.9278,85.4395,98.0018,5.41596e-05,5.37486e-05,0.000187618
-12.6217,11.9912,-297.66,0.000420509,0.0029419,0.00301679,-5.09046e-05,-9.5019e-05,-4.21714e-05,-2.53704e-05,-0.000120553,-0.544444,0.000110083,-0.366546,1.50816,-3.36345,-0.0398047,0.00315451,0.00391654,0.00204188,230,415,-0.0167919,-0.0876948,86.7706,98.6608,86.7341,98.7353,5.16272e-05,5.22445e-05,0.000178803
-12.3324,11.9782,-297.641,0.000387493,0.00296306,0.00312158,-3.4631e-05,-8.82009e-05,-4.2309e-05,-1.13411e-05,-0.000111491,-0.503204,0.000106275,-0.390371,1.55153,-3.38232,-0.0360449,0.00322354,0.0101591,0.00202826,237,415,-0.0183938,-0.0884989,88.0125,99.3916,87.9761,99.4665,5.14848e-05,5.21169e-05,0.0001786
-12.0424,11.965,-297.62,0.000383875,0.00296704,0.00325098,-1.88633e-05,-8.34892e-05,-4.32995e-05,2.85124e-06,-0.000105204,-0.464845,0.000106658,-0.397462,1.59343,-3.2387,-0.0307557,0.00196887,0.0162954,0.00204229,244,415,-0.0194327,-0.0885173,89.2881,100.128,89.2508,100.203,5.25069e-05,5.27206e-05,0.000182322
-11.7511,11.9518,-297.593,0.000404091,0.00294027,0.00327314,-6.76434e-06,-8.05263e-05,-4.48045e-05,1.43861e-05,-0.000101677,-0.441048,0.00010958,-0.399418,1.57189,-3.10974,-0.0225049,-0.000460303,0.0205776,0.00207725,251,415,-0.019011,-0.0878746,90.6355,100.868,90.5974,100.942,5.25384e-05,5.27228e-05,0.000182677
-11.4582,11.9387,-297.561,0.000406149,0.00289838,0.00324764,2.07379e-06,-7.93791e-05,-4.63732e-05,2.30654e-05,-0.000100371,-0.425069,0.000113672,-0.375837,1.52423,-3.00279,-0.0113001,-0.00387185,0.0227726,0.00212265,258,415,-0.0186591,-0.0872874,92.0607,101.607,92.0227,101.68,5.30043e-05,5.29675e-05,0.000184374
-11.1634,11.9256,-297.523,0.000435699,0.00285574,0.00320376,9.38753e-06,-7.91814e-05,-4.79834e-05,3.03987e-05,-0.000100193,-0.412733,0.000118357,-0.375751,1.50061,-2.95031,3.3443e-05,-0.00796494,0.0239758,0.00211954,265,415,-0.017518,-0.0883641,93.5876,102.348,93.5492,102.417,5.37916e-05,5.34048e-05,0.00018687
-10.8675,11.9123,-297.48,0.000523076,0.00284623,0.00317509,1.38082e-05,-7.86715e-05,-5.04302e-05,3.59885e-05,-0.000100852,-0.414359,0.000122865,-0.381433,1.50767,-2.98363,0.00838796,-0.0121042,0.0253753,0.0021044,272,415,-0.0151223,-0.0913795,95.1705,103.097,95.13,103.163,5.51115e-05,5.42297e-05,0.000190897
-10.5726,11.8987,-297.44,0.000600511,0.00286916,0.00317472,1.3828e-05,-7.69365e-05,-5.41032e-05,3.90624e-05,-0.000102171,-0.436417,0.000126316,-0.411744,1.50729,-2.98596,0.013035,-0.0150815,0.0264374,0.00219181,279,415,-0.013199,-0.0938644,96.7062,103.859,96.6636,103.924,5.73353e-05,5.54779e-05,0.000198502
-10.2785,11.8851,-297.401,0.000697376,0.00288905,0.00315105,7.64546e-06,-7.36323e-05,-5.74006e-05,3.73368e-05,-0.000103324,-0.477365,0.000126205,-0.427903,1.51045,-2.99763,0.0152109,-0.0162802,0.0264009,0.00224987,286,415,-0.0105689,-0.0942028,98.2047,104.619,98.1595,104.685,5.83509e-05,5.72127e-05,0.000202153
-9.98389,11.8715,-297.361,0.000701606,0.00289745,0.00308614,-2.17928e-06,-6.91155e-05,-5.94055e-05,3.25371e-05,-0.000103832,-0.528868,0.000123362,-0.432753,1.5478,-2.96464,0.0166872,-0.0154343,0.024597,0.00232306,293,415,-0.0098659,-0.0922888,99.7231,105.377,99.678,105.445,5.98089e-05,6.00143e-05,0.000206997
-9.68764,11.8576,-297.315,0.000693626,0.00286769,0.00289458,-1.3029e-05,-6.33218e-05,-6.02994e-05,2.71573e-05,-0.000103508,-0.587849,0.000119425,-0.405936,1.62507,-2.79837,0.0185366,-0.0132325,0.0214341,0.0023615,300,415,-0.00844451,-0.0888212,101.329,106.151,101.285,106.221,6.17281e-05,6.10654e-05,0.000213326
-9.3883,11.8438,-297.258,0.000652845,0.00280429,0.00287658,-2.49332e-05,-5.65272e-05,-6.07991e-05,2.20876e-05,-0.000103548,-0.658297,0.000116177,-0.380052,1.66011,-2.68167,0.0200192,-0.00982011,0.0182691,0.00237715,307,415,-0.00917866,-0.086776,103.101,106.925,103.058,106.993,6.17395e-05,6.14196e-05,0.000213135
-9.08756,11.83,-297.195,0.000596986,0.00273591,0.0027613,-3.53331e-05,-4.9213e-05,-6.1489e-05,1.96063e-05,-0.000104152,-0.729204,0.000115214,-0.346904,1.63228,-2.63326,0.0199075,-0.005054,0.0148457,0.00236178,314,415,-0.00956473,-0.0857574,104.948,107.701,104.908,107.767,6.07884e-05,6.10893e-05,0.000209374
-8.78605,11.8162,-297.13,0.000554796,0.00272348,0.00272097,-4.19394e-05,-4.16031e-05,-6.12331e-05,1.94621e-05,-0.000103005,-0.786771,0.000113989,-0.321915,1.58692,-2.71427,0.0187046,0.00158241,0.0104954,0.00233362,321,415,-0.0102757,-0.0875248,106.84,108.479,106.801,108.542,5.95059e-05,6.06708e-05,0.000204735
-8.48474,11.8023,-297.064,0.00052409,0.0026808,0.00253528,-4.39653e-05,-3.41718e-05,-5.89772e-05,2.01116e-05,-9.82487e-05,-0.826817,0.000109696,-0.322892,1.55064,-2.96729,0.0179393,0.00969539,0.00555355,0.00236914,328,415,-0.00956986,-0.0886448,108.725,109.261,108.689,109.321,6.09526e-05,6.11948e-05,0.000209423
-8.18433,11.7885,-297.001,0.000511805,0.00264507,0.0024926,-4.37965e-05,-2.67712e-05,-5.38285e-05,1.92135e-05,-8.97813e-05,-0.863821,0.000100771,-0.332902,1.5511,-2.99323,0.0194663,0.0184258,0.000961871,0.00257592,335,415,-0.00947732,-0.088619,110.569,110.04,110.534,110.098,6.76652e-05,6.5701e-05,0.000230904
-7.88575,11.7747,-296.943,0.000483241,0.00269173,0.00248377,-4.53119e-05,-1.91819e-05,-4.63187e-05,1.58792e-05,-8.0373e-05,-0.922861,8.93768e-05,-0.33022,1.57213,-2.97412,0.022277,0.0270051,-0.00311596,0.00259685,342,415,-0.0101221,-0.0898497,112.32,110.806,112.286,110.866,6.9598e-05,6.52121e-05,0.000237917
-7.58854,11.761,-296.888,0.000481899,0.00270608,0.00270227,-4.81333e-05,-1.24308e-05,-3.77951e-05,1.15167e-05,-7.20809e-05,-1.00603,7.84756e-05,-0.32426,1.59019,-2.84548,0.0244079,0.0343566,-0.00675084,0.0026878,349,415,-0.0117444,-0.0891198,114.006,111.572,113.969,111.633,7.16021e-05,6.68172e-05,0.000244833
-7.29263,11.7476,-296.837,0.000443948,0.00272044,0.00284507,-4.9543e-05,-6.96259e-06,-2.96221e-05,8.22655e-06,-6.47321e-05,-1.09699,6.92131e-05,-0.341939,1.58857,-2.7826,0.0269459,0.0396302,-0.00976055,0.0025629,356,415,-0.013713,-0.0889326,115.623,112.321,115.587,112.382,6.81591e-05,6.18336e-05,0.000234589
-6.99848,11.7341,-296.792,0.000448538,0.00269409,0.00286512,-5.11793e-05,-2.47067e-06,-2.28244e-05,6.55296e-06,-6.02029e-05,-1.19431,6.37325e-05,-0.374982,1.57859,-2.98749,0.029644,0.0421914,-0.0120028,0.00229486,363,415,-0.0136595,-0.0881513,117.15,113.074,117.114,113.135,6.14077e-05,5.58588e-05,0.000212321
-6.70453,11.7207,-296.746,0.00050475,0.00263507,0.00268081,-5.65038e-05,1.39578e-06,-1.78358e-05,6.44903e-06,-6.15571e-05,-1.29471,6.50219e-05,-0.422038,1.57368,-3.08409,0.0325917,0.0419061,-0.013765,0.00222099,370,415,-0.0107694,-0.0874166,118.67,113.83,118.633,113.888,5.93886e-05,5.53495e-05,0.000205492
-6.41133,11.7071,-296.702,0.000572042,0.0025745,0.00255522,-6.45575e-05,4.67945e-06,-1.48649e-05,7.73595e-06,-6.7614e-05,-1.368,7.17953e-05,-0.392867,1.55058,-2.98699,0.0365208,0.0391494,-0.0157193,0.00225715,377,415,-0.00804372,-0.0866214,120.153,114.586,120.115,114.642,6.02448e-05,5.69194e-05,0.000208334
-6.11914,11.6938,-296.661,0.000584255,0.0025716,0.00242501,-7.16811e-05,7.06119e-06,-1.37034e-05,9.37781e-06,-7.39978e-05,-1.40332,7.91047e-05,-0.351801,1.53543,-2.84602,0.0392134,0.0344121,-0.0172032,0.00233547,384,415,-0.00673396,-0.0876868,121.582,115.332,121.545,115.387,6.20671e-05,5.77305e-05,0.000214621
-5.82756,11.6804,-296.621,0.000559645,0.00264157,0.00216802,-7.39396e-05,8.70102e-06,-1.42204e-05,1.10795e-05,-7.63181e-05,-1.40507,8.24184e-05,-0.280955,1.51873,-2.7786,0.0370372,0.0282275,-0.0175269,0.00243962,391,415,-0.00546547,-0.0894501,122.98,116.073,122.946,116.13,6.44233e-05,5.86304e-05,0.000222888
-5.53592,11.6671,-296.581,0.000459445,0.00270015,0.00185054,-7.36768e-05,9.93113e-06,-1.51886e-05,1.26049e-05,-7.63506e-05,-1.39655,8.33708e-05,-0.283332,1.50328,-2.96646,0.0285929,0.0217172,-0.0164294,0.00253916,398,415,-0.0056376,-0.0909388,124.382,116.813,124.353,116.872,6.7082e-05,5.98791e-05,0.000231865
-5.24357,11.6537,-296.537,0.000397274,0.00269875,0.00155644,-7.4339e-05,1.06854e-05,-1.54297e-05,1.33989e-05,-7.70525e-05,-1.39671,8.4552e-05,-0.258952,1.46964,-3.11367,0.0163985,0.0160005,-0.0146193,0.00258233,405,415,-0.00497944,-0.0909282,125.827,117.559,125.801,117.619,6.87061e-05,6.13324e-05,0.000237235
-4.95034,11.6402,-296.49,0.000383032,0.00266868,0.00149364,-7.52804e-05,1.12747e-05,-1.43298e-05,1.35854e-05,-7.75912e-05,-1.41092,8.52001e-05,-0.200109,1.43453,-3.01221,0.00417056,0.0118462,-0.0127469,0.00256263,412,415,-0.00481337,-0.0905289,127.325,118.316,127.301,118.373,6.85678e-05,6.21905e-05,0.00023647
-4.65685,11.6267,-296.441,0.000384579,0.00259609,0.00149379,-7.50048e-05,1.22463e-05,-1.17687e-05,1.38059e-05,-7.65644e-05,-1.43905,8.43193e-05,-0.174075,1.38357,-2.84661,-0.00601304,0.00901177,-0.0104381,0.00250744,419,415,-0.00466393,-0.0887365,128.843,119.072,128.819,119.127,6.68561e-05,6.14051e-05,0.000230379
-4.36303,11.6132,-296.39,0.000350422,0.00256472,0.00161429,-7.04198e-05,1.3402e-05,-8.8617e-06,1.43287e-05,-7.13464e-05,-1.46661,7.94853e-05,-0.178557,1.3477,-2.71208,-0.0158076,0.00771345,-0.00722158,0.00241748,426,415,-0.00632705,-0.0874442,130.383,119.823,130.359,119.878,6.44019e-05,5.93883e-05,0.000221988
-4.06847,11.5998,-296.336,0.000320937,0.00253519,0.00177819,-6.04431e-05,1.45349e-05,-5.76198e-06,1.49751e-05,-6.08834e-05,-1.49454,6.959e-05,-0.247175,1.31579,-2.74551,-0.0259429,0.00833015,-0.00330925,0.00234607,433,415,-0.00819272,-0.0863759,131.969,120.572,131.944,120.627,6.26238e-05,5.7253e-05,0.000216035
-3.77255,11.5863,-296.277,0.000320409,0.00252,0.00195435,-4.69762e-05,1.56555e-05,-2.37566e-06,1.57455e-05,-4.70662e-05,-1.53294,5.66059e-05,-0.338611,1.30753,-2.90028,-0.0339681,0.011188,0.000356641,0.0024489,440,415,-0.0094289,-0.085523,133.636,121.327,133.61,121.381,6.52436e-05,5.72209e-05,0.000225232
-3.4763,11.5727,-296.215,0.000373039,0.0025181,0.00202325,-3.28312e-05,1.67679e-05,2.89018e-06,1.69358e-05,-3.29991e-05,1.51279,4.39844e-05,-0.378224,1.35005,-3.08836,-0.0366074,0.0160471,0.0030534,0.00255479,447,415,-0.00854703,-0.0844849,135.327,122.081,135.299,122.137,6.81137e-05,6.00775e-05,0.000235122
-3.18037,11.5591,-296.154,0.000387311,0.00254197,0.00205963,-2.15688e-05,1.85695e-05,9.99374e-06,2.09201e-05,-2.39194e-05,1.33979,3.88611e-05,-0.372723,1.37227,-3.18742,-0.0348491,0.0219466,0.00493914,0.00255335,454,415,-0.00842423,-0.0844475,137.005,122.841,136.975,122.898,6.81366e-05,6.11553e-05,0.000235125
-2.8831,11.5453,-296.087,0.000339378,0.00259017,0.00195839,-1.51862e-05,2.1151e-05,1.72125e-05,2.80097e-05,-2.20449e-05,1.19161,4.3451e-05,-0.367538,1.38246,-3.33441,-0.031963,0.0279298,0.00580188,0.00251474,461,415,-0.00890207,-0.0854125,138.759,123.608,138.732,123.667,6.68831e-05,6.15886e-05,0.000230662
-2.5851,11.5314,-296.017,0.000301617,0.00267762,0.00188152,-1.1194e-05,2.36299e-05,2.45191e-05,3.62905e-05,-2.38546e-05,1.09415,5.24571e-05,-0.327234,1.40224,-3.18975,-0.0268732,0.0334854,0.0059617,0.00241994,468,415,-0.00934808,-0.0873462,140.562,124.381,140.537,124.443,6.39599e-05,6.00933e-05,0.000220401
-2.28491,11.5172,-295.939,0.000279258,0.00271978,0.00190416,-6.46973e-06,2.55902e-05,3.11535e-05,4.4596e-05,-2.54755e-05,1.02301,6.14321e-05,-0.300805,1.46757,-3.1282,-0.019113,0.0384586,0.00579359,0.00240952,475,415,-0.0101012,-0.0893188,142.495,125.173,142.469,125.235,6.37723e-05,5.97044e-05,0.000219585
-1.98324,11.503,-295.854,0.000337573,0.00271631,0.0019971,-1.37259e-06,2.67412e-05,3.65187e-05,5.1815e-05,-2.64464e-05,0.969119,6.89531e-05,-0.275205,1.50277,-3.22186,-0.010886,0.0419796,0.0050055,0.00248768,482,415,-0.00930914,-0.091808,144.522,125.975,144.494,126.034,6.59183e-05,5.97268e-05,0.000226979
-1.68005,11.4886,-295.763,0.000388091,0.0026992,0.00204843,1.86175e-06,2.74725e-05,4.05581e-05,5.71987e-05,-2.78645e-05,0.93831,7.51128e-05,-0.268365,1.54307,-3.29823,-0.00515862,0.0434134,0.00263408,0.00255964,489,415,-0.00836379,-0.092375,146.643,126.781,146.613,126.839,6.8031e-05,5.87302e-05,0.000234138
-1.37595,11.4743,-295.668,0.000432773,0.00268362,0.00202977,1.25937e-06,2.70396e-05,4.36898e-05,5.97012e-05,-3.14021e-05,0.928847,8.01565e-05,-0.259164,1.5592,-3.26327,-0.00300896,0.0428781,-0.000733653,0.00255963,496,415,-0.00702737,-0.0911885,148.824,127.58,148.793,127.638,6.83506e-05,5.64708e-05,0.000234949
-1.07167,11.4601,-295.571,0.000416782,0.00268676,0.0018674,-1.39337e-06,2.56755e-05,4.65269e-05,6.05966e-05,-3.63144e-05,0.926939,8.4801e-05,-0.264314,1.57882,-3.18449,-0.00382624,0.0401323,-0.00337786,0.00253424,503,415,-0.00620452,-0.0898338,151.023,128.376,150.994,128.436,6.79567e-05,5.56547e-05,0.000233085
-0.767738,11.446,-295.474,0.000366804,0.00265888,0.00159593,-1.53367e-06,2.32385e-05,4.99454e-05,6.23107e-05,-4.06059e-05,0.906942,8.97866e-05,-0.295822,1.51315,-3.18048,-0.00659039,0.0356413,-0.00391046,0.00254253,510,415,-0.00544388,-0.0881057,153.211,129.169,153.185,129.229,6.77585e-05,5.77843e-05,0.000232154
-0.465108,11.4319,-295.381,0.000329476,0.00264332,0.00150245,1.4173e-06,2.02329e-05,5.2634e-05,6.42932e-05,-4.26431e-05,0.873834,9.32401e-05,-0.313944,1.39002,-3.23249,-0.0104608,0.0298425,-0.00237952,0.00259826,517,415,-0.00566098,-0.0871024,155.336,129.961,155.312,130.021,6.85301e-05,6.127e-05,0.000234525
-0.163748,11.4174,-295.291,0.000344036,0.00266921,0.00149625,4.07279e-06,1.59377e-05,5.45303e-05,6.48573e-05,-4.48468e-05,0.839581,9.55319e-05,-0.319197,1.33986,-3.23776,-0.0148043,0.0237907,-4.36557e-07,0.00260892,524,415,-0.00526001,-0.0885014,157.399,130.77,157.374,130.83,6.85521e-05,6.3045e-05,0.000233831
0.136615,11.4032,-295.204,0.000369919,0.00268699,0.00167297,1.98227e-06,1.20532e-05,5.78764e-05,6.51127e-05,-5.10773e-05,0.828791,0.000100868,-0.310379,1.37218,-3.24956,-0.0212357,0.0169865,0.0019643,0.0025909,531,415,-0.00586444,-0.0901076,159.416,131.57,159.389,131.629,6.86511e-05,6.19983e-05,0.000233555
0.435631,11.3893,-295.12,0.000443401,0.00270217,0.00165319,-1.47902e-06,8.24574e-06,6.10125e-05,6.45893e-05,-5.78226e-05,0.825162,0.000106066,-0.302639,1.42674,-3.13877,-0.0270624,0.00897211,0.00580261,0.00256667,538,415,-0.00387169,-0.0919638,161.365,132.349,161.337,132.407,6.86177e-05,6.08615e-05,0.000233364
0.733406,11.3755,-295.04,0.000470428,0.00275411,0.00153732,-2.59854e-06,4.10968e-06,6.34697e-05,6.43138e-05,-6.28027e-05,0.811797,0.000110089,-0.299106,1.46295,-3.09606,-0.0319787,-0.000195754,0.0123555,0.00258726,545,415,-0.00239664,-0.0935565,163.249,133.117,163.221,133.177,6.98146e-05,6.00851e-05,0.000237134
1.0296,11.3618,-294.965,0.000464829,0.0028344,0.00143318,-1.20055e-06,-6.99227e-07,6.51947e-05,6.42453e-05,-6.61451e-05,0.787321,0.000112925,-0.308058,1.45073,-3.12794,-0.0343489,-0.00994814,0.0217975,0.00266715,552,415,-0.0018538,-0.0951949,165.049,133.879,165.022,133.942,7.21373e-05,6.1406e-05,0.000244539
1.32429,11.3482,-294.894,0.000435274,0.00287714,0.00135447,-1.9622e-06,-6.15852e-06,6.70463e-05,6.30188e-05,-7.11395e-05,0.769756,0.000116255,-0.342856,1.47292,-3.13486,-0.0320983,-0.0196083,0.0333711,0.00273646,559,415,-0.00205042,-0.095388,166.77,134.639,166.745,134.704,7.45698e-05,6.22628e-05,0.000251881
1.61672,11.3346,-294.831,0.000461971,0.00289453,0.00137235,-1.00254e-05,-1.15015e-05,6.74483e-05,5.66889e-05,-7.82158e-05,0.779927,0.000117326,-0.369971,1.53171,-3.10011,-0.0242874,-0.0291618,0.0461808,0.00278747,566,415,-0.00150192,-0.0967221,168.368,135.4,168.341,135.464,7.62092e-05,6.27463e-05,0.00025684
1.90669,11.3209,-294.776,0.000479175,0.00287632,0.00138721,-2.20508e-05,-1.74217e-05,6.5478e-05,4.57826e-05,-8.52551e-05,0.803065,0.000115185,-0.367308,1.5977,-2.97665,-0.00442321,-0.0386665,0.0618661,0.00279963,573,415,-0.00112545,-0.0967752,169.828,136.16,169.801,136.224,7.62009e-05,6.24375e-05,0.000256891
0,0,0,0,0,0,0,0,0,0,0,0,0,0,0,0,0,0,0,-1,580,415,0,0,0,0,0,0,0,0,0
0,0,0,0,0,0,0,0,0,0,0,0,0,0,0,0,0,0,0,-1,587,415,0,0,0,0,0,0,0,0,0
0,0,0,0,0,0,0,0,0,0,0,0,0,0,0,0,0,0,0,-1,594,415,0,0,0,0,0,0,0,0,0
0,0,0,0,0,0,0,0,0,0,0,0,0,0,0,0,0,0,0,-1,601,415,0,0,0,0,0,0,0,0,0
0,0,0,0,0,0,0,0,0,0,0,0,0,0,0,0,0,0,0,-1,62,422,0,0,0,0,0,0,0,0,0
0,0,0,0,0,0,0,0,0,0,0,0,0,0,0,0,0,0,0,-1,69,422,0,0,0,0,0,0,0,0,0
0,0,0,0,0,0,0,0,0,0,0,0,0,0,0,0,0,0,0,-1,76,422,0,0,0,0,0,0,0,0,0
-18.6763,11.9909,-297.87,0.000687015,0.00300152,0.000547363,1.39122e-05,3.0444e-05,-9.07517e-06,3.44535e-05,9.90279e-06,-1.15478,3.07233e-05,-0.322004,1.61135,-2.88887,0.0325109,-0.0183738,-0.0507572,0.00264399,83,422,0.00879649,-0.0859471,61.2515,84.2319,61.2251,84.3114,6.94407e-05,6.48962e-05,0.000246989
-18.3993,11.9786,-297.895,0.000699816,0.00293028,0.000434808,1.96205e-05,3.08999e-05,1.7842e-06,3.11754e-05,1.9345e-05,1.4176,2.72588e-05,-0.324604,1.62798,-2.92249,0.0247143,-0.0191749,-0.0486967,0.0026345,90,422,0.0101343,-0.0839781,61.9364,84.9276,61.9105,85.0051,6.92296e-05,6.51614e-05,0.000245453
-18.1206,11.9664,-297.916,0.000695115,0.00290344,0.000587205,3.30126e-05,2.81573e-05,1.38257e-05,4.46222e-05,1.65477e-05,0.698489,3.90713e-05,-0.354363,1.63528,-2.98965,0.019401,-0.0169182,-0.046895,0.0025718,97,422,0.00879455,-0.0841668,62.7024,85.6199,62.6757,85.6958,6.70808e-05,6.45369e-05,0.000238235
-17.8401,11.954,-297.93,0.000670971,0.00287756,0.000882344,4.54502e-05,2.22633e-05,2.72817e-05,6.34996e-05,4.21391e-06,0.584482,6.1501e-05,-0.375361,1.56924,-2.92283,0.0189579,-0.0137192,-0.0432095,0.00255041,104,422,0.00580206,-0.0850176,63.5519,86.3245,63.524,86.3984,6.45047e-05,6.4936e-05,0.000228877
-17.5579,11.9416,-297.939,0.000666685,0.00286226,0.00118555,5.34864e-05,1.39911e-05,3.97298e-05,7.81056e-05,-1.06282e-05,0.554756,8.3926e-05,-0.374194,1.5166,-2.91613,0.0213891,-0.0109269,-0.0366334,0.00256113,111,422,0.00326048,-0.0845633,64.482,87.0286,64.4521,87.102,6.44872e-05,6.5641e-05,0.000227816
-17.274,11.929,-297.944,0.000657453,0.00285354,0.00137063,5.60824e-05,3.43754e-06,4.88171e-05,8.52215e-05,-2.57016e-05,0.538139,0.000100566,-0.398276,1.50242,-3.00253,0.0248328,-0.00884138,-0.0282832,0.00260544,118,422,0.00157216,-0.083925,65.4874,87.7433,65.4566,87.8168,6.48543e-05,6.67967e-05,0.000227955
-16.9877,11.9162,-297.94,0.000691222,0.00287621,0.00153376,5.2398e-05,-9.89863e-06,5.36506e-05,8.32868e-05,-4.07874e-05,0.52239,0.000109532,-0.419754,1.48993,-3.21149,0.0293375,-0.00769426,-0.0201263,0.00262091,125,422,0.0011176,-0.0826285,66.6077,88.462,66.5746,88.5377,6.51428e-05,6.71647e-05,0.000228854
-16.7,11.9035,-297.932,0.000798414,0.00291836,0.00160826,4.35216e-05,-2.62577e-05,5.47851e-05,7.35834e-05,-5.63195e-05,0.501862,0.00011283,-0.453486,1.45915,-3.4089,0.0348255,-0.00783473,-0.0134506,0.0026257,132,422,0.00319133,-0.0806647,67.7976,89.1788,67.7606,89.2584,6.58034e-05,6.68658e-05,0.000231049
-16.4128,11.8907,-297.925,0.000868,0.00296688,0.00188562,3.21318e-05,-4.37749e-05,5.4364e-05,6.048e-05,-7.21232e-05,0.480662,0.000114985,-0.46366,1.44607,-3.41644,0.0391618,-0.00957807,-0.00853918,0.00266241,139,422,0.00267583,-0.0800245,68.9565,89.8962,68.9155,89.9789,6.65991e-05,6.64976e-05,0.000233409
-16.1274,11.8778,-297.923,0.000892361,0.00303389,0.00215826,1.89755e-05,-6.20078e-05,5.04659e-05,4.31861e-05,-8.62184e-05,0.44731,0.000114114,-0.379773,1.43418,-3.33118,0.0411097,-0.0111501,-0.0044937,0.0026533,146,422,0.00103971,-0.0819249,70.0268,90.6231,69.9831,90.7075,6.59172e-05,6.57499e-05,0.000230189
-15.8427,11.8652,-297.924,0.00085673,0.00308627,0.002459,4.57475e-06,-7.97961e-05,4.28521e-05,2.25218e-05,-9.77432e-05,0.396619,0.000110735,-0.323378,1.44217,-3.1917,0.0390058,-0.0124844,-0.00129441,0.0025834,153,422,-0.00228637,-0.0843676,71.0565,91.3361,71.0116,91.421,6.36839e-05,6.35988e-05,0.000220851
-15.5581,11.8522,-297.924,0.000815668,0.00309805,0.00279684,-1.19967e-05,-9.6245e-05,3.23742e-05,-9.9335e-07,-0.000107248,0.327631,0.000106755,-0.275875,1.52229,-3.12031,0.0333102,-0.0138416,0.000477372,0.00242219,160,422,-0.00599298,-0.0860325,72.0756,92.0667,72.0296,92.1507,5.96737e-05,5.98505e-05,0.000206131
-15.2722,11.8393,-297.92,0.000782119,0.00307713,0.00299877,-3.07858e-05,-0.000110841,2.0983e-05,-2.56194e-05,-0.000116007,0.241415,0.000105556,-0.258547,1.59699,-3.06568,0.0249878,-0.0146528,-3.28364e-05,0.00220993,167,422,-0.00836124,-0.0860528,73.1592,92.7908,73.1127,92.8737,5.46125e-05,5.57544e-05,0.000188603
-14.9857,11.8265,-297.913,0.000715926,0.00299379,0.00315351,-5.05762e-05,-0.000122622,9.71002e-06,-4.92904e-05,-0.000123908,0.131646,0.000108052,-0.251345,1.62044,-2.95165,0.0140811,-0.0149925,-0.00178414,0.00213309,174,422,-0.0110631,-0.0836705,74.2672,93.5178,74.2216,93.5984,5.40203e-05,5.44102e-05,0.000186827
-14.6976,11.8138,-297.901,0.000668438,0.00292449,0.00325898,-6.80931e-05,-0.000130801,-1.14985e-06,-6.80721e-05,-0.000130822,-0.0183285,0.000113326,-0.245318,1.59341,-2.98604,0.00203028,-0.014928,-0.00344973,0.00217843,181,422,-0.0129294,-0.0819883,75.4564,94.2361,75.4114,94.3146,5.61316e-05,5.57153e-05,0.000195127
-14.4069,11.801,-297.881,0.000643522,0.00292073,0.00343773,-8.11234e-05,-0.000134653,-1.23155e-05,-7.84259e-05,-0.00013735,-0.215626,0.000119348,-0.248595,1.55343,-3.09519,-0.00990783,-0.0144672,-0.00445834,0.00223494,188,422,-0.0148884,-0.0817405,76.7739,94.9584,76.7283,95.0369,5.86087e-05,5.70906e-05,0.000204282
-14.1133,11.7878,-297.852,0.000630639,0.00293498,0.00357507,-8.84249e-05,-0.000134305,-2.41648e-05,-7.80455e-05,-0.000144684,-0.405699,0.00012543,-0.24863,1.51414,-3.25575,-0.021779,-0.0131224,-0.00459286,0.00225394,195,422,-0.0162624,-0.0832938,78.2314,95.7017,78.1852,95.7796,5.97911e-05,5.72162e-05,0.000208475
-13.8181,11.7744,-297.817,0.000619658,0.0029418,0.00357979,-8.94492e-05,-0.000130642,-3.48955e-05,-6.95252e-05,-0.000150566,-0.518793,0.000130521,-0.267821,1.53073,-3.38624,-0.0324572,-0.0106989,-0.0052772,0.00225695,202,422,-0.0165388,-0.0852898,79.7734,96.4561,79.7274,96.5325,6.0136e-05,5.67831e-05,0.000209734
-13.5222,11.761,-297.779,0.000573478,0.00294634,0.00340094,-8.50015e-05,-0.000124758,-4.2469e-05,-5.7989e-05,-0.000151771,-0.566508,0.00013265,-0.282936,1.53401,-3.36836,-0.0409066,-0.00736106,-0.00598779,0.00222949,209,422,-0.0162221,-0.0868276,81.3486,97.2131,81.3052,97.2884,5.90453e-05,5.58974e-05,0.00020545
-13.2278,11.7476,-297.745,0.000510934,0.00294465,0.00316314,-7.71746e-05,-0.000117722,-4.66643e-05,-4.65704e-05,-0.000148327,-0.580469,0.000131385,-0.31306,1.50994,-3.39315,-0.0456886,-0.00434144,-0.00517033,0.0021349,216,422,-0.015826,-0.0872318,82.8427,97.9693,82.8027,98.0442,5.66888e-05,5.40641e-05,0.000197234
-12.9356,11.7343,-297.718,0.000467828,0.00297876,0.00308628,-6.73735e-05,-0.000109789,-4.78248e-05,-3.62651e-05,-0.000140898,-0.576702,0.000126719,-0.343412,1.46379,-3.45397,-0.0462359,-0.00227731,-0.00210157,0.00205995,223,422,-0.0162633,-0.0884227,84.2324,98.7129,84.1941,98.7886,5.43939e-05,5.24781e-05,0.000188474
-12.645,11.7213,-297.695,0.000427866,0.00298712,0.00310575,-5.47959e-05,-0.00010199,-4.74236e-05,-2.5423e-05,-0.000131363,-0.554541,0.000120677,-0.383043,1.47136,-3.44638,-0.0444336,-0.00130341,0.00310998,0.00205553,230,422,-0.0173516,-0.0888324,85.539,99.443,85.5017,99.5187,5.42127e-05,5.19251e-05,0.000187123
-12.3551,11.7083,-297.674,0.000397779,0.00297812,0.00320207,-3.94872e-05,-9.55801e-05,-4.67167e-05,-1.30446e-05,-0.000122023,-0.515059,0.000116052,-0.412441,1.50353,-3.3795,-0.0415915,-0.00150092,0.00970742,0.00206441,237,422,-0.0187745,-0.0886024,86.8119,100.174,86.7746,100.249,5.49277e-05,5.22711e-05,0.000189665
-12.0641,11.6951,-297.65,0.000407277,0.00295306,0.00330961,-2.42329e-05,-9.11642e-05,-4.66602e-05,-2.77949e-07,-0.000115119,-0.474303,0.00011498,-0.442408,1.54188,-3.18997,-0.0367796,-0.00265599,0.0161996,0.00207305,244,422,-0.0192885,-0.0880509,88.138,100.913,88.0996,100.988,5.5188e-05,5.25753e-05,0.000190778
-11.7718,11.682,-297.62,0.000427339,0.0029185,0.00334027,-1.30065e-05,-8.8301e-05,-4.70791e-05,9.62689e-06,-0.000110934,-0.448131,0.000116048,-0.45531,1.53561,-3.01562,-0.0282934,-0.0044863,0.0208575,0.00208053,251,422,-0.0189219,-0.0869334,89.5337,101.652,89.4945,101.726,5.46565e-05,5.19769e-05,0.000189331
-11.4778,11.6691,-297.585,0.000430445,0.00287245,0.00336516,-4.87286e-06,-8.69692e-05,-4.77371e-05,1.70376e-05,-0.00010888,-0.430297,0.000118322,-0.449891,1.47927,-2.91558,-0.0162488,-0.00692166,0.0234049,0.00210847,258,422,-0.0189202,-0.0857586,91.0137,102.382,90.9742,102.455,5.46174e-05,5.17208e-05,0.00018973
-11.1815,11.656,-297.542,0.000407958,0.00284341,0.00336255,2.49807e-06,-8.62822e-05,-4.8936e-05,2.41777e-05,-0.000107962,-0.417034,0.000121863,-0.458857,1.45049,-2.98387,-0.00394881,-0.00971933,0.0247767,0.00214191,265,422,-0.0193846,-0.086454,92.6176,103.117,92.5787,103.187,5.62228e-05,5.221e-05,0.000195194
-10.8843,11.6428,-297.495,0.000436014,0.00286407,0.00325204,7.54936e-06,-8.49783e-05,-5.15283e-05,3.05351e-05,-0.000107964,-0.41959,0.000126037,-0.469657,1.48304,-3.11574,0.00546639,-0.0123531,0.026022,0.00217853,272,422,-0.0178398,-0.0894756,94.2688,103.867,94.2301,103.935,5.80214e-05,5.27486e-05,0.000201084
-10.5883,11.6291,-297.451,0.000502074,0.0029124,0.00313099,8.50587e-06,-8.23461e-05,-5.57794e-05,3.50164e-05,-0.000108857,-0.443672,0.000129953,-0.473132,1.53082,-3.05612,0.0115961,-0.0136844,0.0266442,0.00218354,279,422,-0.0152975,-0.0927496,95.8541,104.631,95.8144,104.699,5.86273e-05,5.30376e-05,0.000203277
-10.2944,11.6156,-297.414,0.000632143,0.00295478,0.00294371,3.14995e-06,-7.83326e-05,-5.9769e-05,3.47425e-05,-0.000109925,-0.486248,0.000130804,-0.46447,1.58844,-3.02879,0.015813,-0.0133988,0.0260759,0.00217116,286,422,-0.010627,-0.0944093,97.343,105.389,97.301,105.458,5.81543e-05,5.40783e-05,0.000201863
-10.0004,11.6021,-297.375,0.000682508,0.00295795,0.00286396,-5.95395e-06,-7.32912e-05,-6.25362e-05,3.1401e-05,-0.000110646,-0.538457,0.00012924,-0.455473,1.62298,-2.96378,0.0196189,-0.0112382,0.023847,0.00222113,293,422,-0.00869284,-0.093752,98.8293,106.143,98.7863,106.212,5.87196e-05,5.66644e-05,0.000203747
-9.70456,11.5884,-297.33,0.000700483,0.00289557,0.00288165,-1.57964e-05,-6.71502e-05,-6.42605e-05,2.77272e-05,-0.000110674,-0.595328,0.000126831,-0.425407,1.6556,-2.8819,0.0232532,-0.00809176,0.0204314,0.00231812,300,422,-0.00822064,-0.0905395,100.417,106.913,100.373,106.982,6.07984e-05,5.93904e-05,0.000210619
-9.40426,11.5746,-297.27,0.00065582,0.00282547,0.00298519,-2.6449e-05,-6.00511e-05,-6.55595e-05,2.4428e-05,-0.000110928,-0.659962,0.000124946,-0.399312,1.65447,-2.7933,0.0257169,-0.00408173,0.0169849,0.0023916,307,422,-0.0099731,-0.0883385,102.238,107.689,102.195,107.757,6.20386e-05,6.15771e-05,0.000214199
-9.10203,11.5608,-297.203,0.000596246,0.00273728,0.00290852,-3.57451e-05,-5.26762e-05,-6.69556e-05,2.3278e-05,-0.000111699,-0.722514,0.000124975,-0.356778,1.62319,-2.70177,0.0260758,0.000865401,0.0131168,0.0023893,314,422,-0.0107164,-0.08653,104.163,108.467,104.122,108.531,6.07959e-05,6.18001e-05,0.000209479
-8.79826,11.5469,-297.13,0.000549369,0.00268128,0.00282984,-4.16672e-05,-4.52928e-05,-6.72561e-05,2.38005e-05,-0.000110761,-0.771925,0.000124381,-0.324524,1.56205,-2.70357,0.0249109,0.00713704,0.00816571,0.00237281,321,422,-0.0111906,-0.0866513,106.174,109.256,106.135,109.318,5.92881e-05,6.1589e-05,0.000204127
-8.49455,11.5329,-297.057,0.000501124,0.0026124,0.00251411,-4.34926e-05,-3.84091e-05,-6.53642e-05,2.44628e-05,-0.000106364,-0.804831,0.000120473,-0.335151,1.52321,-2.8608,0.0235693,0.0143734,0.00271954,0.00243125,328,422,-0.00988004,-0.0859395,108.184,110.043,108.149,110.102,6.07001e-05,6.28014e-05,0.000208978
-8.1933,11.5191,-296.991,0.000474364,0.00257972,0.00246318,-4.35371e-05,-3.16478e-05,-6.0373e-05,2.30725e-05,-9.82574e-05,-0.834473,0.000111597,-0.372191,1.52512,-3.01831,0.0240102,0.0218699,-0.00217517,0.00261804,335,422,-0.0100702,-0.0850089,110.073,110.82,110.039,110.878,6.86797e-05,6.72451e-05,0.000234862
-7.89457,11.5054,-296.932,0.000415023,0.00261304,0.00232849,-4.54789e-05,-2.45519e-05,-5.26301e-05,1.86448e-05,-8.86756e-05,-0.883524,9.93193e-05,-0.370271,1.5541,-3.05625,0.0257188,0.0289996,-0.00622505,0.00266189,342,422,-0.0105345,-0.0868022,111.83,111.589,111.799,111.647,7.15318e-05,6.58304e-05,0.000244681
-7.59708,11.4917,-296.876,0.000430906,0.00265701,0.00260063,-4.85229e-05,-1.80465e-05,-4.34361e-05,1.27468e-05,-7.93162e-05,-0.9541,8.63977e-05,-0.353046,1.57604,-2.89541,0.0268144,0.0347645,-0.00950181,0.00269281,349,422,-0.0121723,-0.0870044,113.531,112.358,113.497,112.419,7.21059e-05,6.52001e-05,0.000246765
-7.3011,11.4785,-296.825,0.000379833,0.00268477,0.00270356,-4.99179e-05,-1.25929e-05,-3.45399e-05,8.00392e-06,-7.05147e-05,-1.03309,7.48384e-05,-0.368828,1.5887,-2.87003,0.0281803,0.0382495,-0.0119475,0.00264659,356,422,-0.0142042,-0.0880939,115.153,113.099,115.12,113.16,6.97593e-05,6.09999e-05,0.000239816
-7.00654,11.4655,-296.778,0.000400839,0.0026598,0.00283898,-5.1685e-05,-7.82466e-06,-2.71978e-05,5.18301e-06,-6.46927e-05,-1.12469,6.74337e-05,-0.384475,1.58702,-2.93061,0.0296149,0.0389967,-0.0135017,0.00232462,363,422,-0.0146228,-0.087929,116.705,113.83,116.67,113.89,6.18055e-05,5.42595e-05,0.000213545
-6.71246,11.4521,-296.732,0.000457616,0.00259489,0.00270043,-5.75267e-05,-3.37078e-06,-2.17505e-05,4.28309e-06,-6.51806e-05,-1.23244,6.74242e-05,-0.432513,1.5804,-2.9914,0.0316673,0.0371128,-0.0145811,0.00218676,370,422,-0.0120533,-0.0869425,118.233,114.581,118.197,114.638,5.81608e-05,5.41547e-05,0.000201224
-6.41931,11.4386,-296.689,0.000520107,0.00255864,0.00248821,-6.65309e-05,7.96875e-07,-1.83502e-05,5.47338e-06,-7.12074e-05,-1.32126,7.40959e-05,-0.411054,1.55218,-2.93609,0.0349867,0.0331088,-0.0158868,0.00220447,377,422,-0.00881893,-0.0863002,119.713,115.335,119.677,115.391,5.82323e-05,5.59921e-05,0.000201366
-6.12705,11.4253,-296.647,0.000551971,0.00257532,0.00230897,-7.47331e-05,4.24032e-06,-1.69137e-05,7.71027e-06,-7.8203e-05,-1.36845,8.23294e-05,-0.383652,1.53304,-2.86589,0.0371694,0.0273693,-0.0166591,0.00222914,384,422,-0.0066624,-0.0871431,121.147,116.078,121.112,116.134,5.86379e-05,5.66724e-05,0.000202843
-5.83554,11.4121,-296.608,0.00055005,0.00264488,0.00202954,-7.79791e-05,6.98887e-06,-1.75018e-05,1.04527e-05,-8.1443e-05,-1.37541,8.71408e-05,-0.295891,1.53576,-2.80545,0.0347677,0.0203014,-0.0163584,0.00231454,391,422,-0.00465071,-0.0883082,122.543,116.814,122.51,116.873,6.0472e-05,5.73791e-05,0.000209317
-5.54416,11.3989,-296.568,0.000454662,0.00270608,0.00168786,-7.85055e-05,9.03421e-06,-1.87045e-05,1.28633e-05,-8.23346e-05,-1.36887,8.94625e-05,-0.277656,1.50282,-2.90646,0.0267336,0.0128766,-0.0150355,0.00242587,398,422,-0.00453087,-0.0899827,123.931,117.549,123.903,117.609,6.33093e-05,5.87428e-05,0.000218969
-5.2521,11.3857,-296.525,0.000372957,0.00272718,0.00140983,-7.98126e-05,1.02976e-05,-1.93604e-05,1.42811e-05,-8.37962e-05,-1.36787,9.17739e-05,-0.24662,1.4464,-3.06305,0.0156231,0.00650259,-0.0133974,0.00251429,405,422,-0.00451284,-0.0907886,125.36,118.286,125.336,118.346,6.61645e-05,6.07906e-05,0.000228592
-4.95882,11.3723,-296.478,0.000342433,0.00272246,0.00134015,-8.13669e-05,1.09504e-05,-1.8753e-05,1.46144e-05,-8.50309e-05,-1.37785,9.32015e-05,-0.181332,1.41312,-2.99983,0.00431239,0.00203392,-0.011744,0.00249346,412,422,-0.00473285,-0.0909368,126.862,119.033,126.84,119.094,6.63663e-05,6.18724e-05,0.000229061
-4.66491,11.359,-296.428,0.000345147,0.00266709,0.00146855,-8.14023e-05,1.1852e-05,-1.6723e-05,1.47602e-05,-8.43105e-05,-1.39861,9.25773e-05,-0.165895,1.36565,-2.92819,-0.00563109,-0.000709002,-0.00960337,0.00240911,419,422,-0.00552213,-0.08971,128.404,119.783,128.381,119.842,6.428e-05,6.02701e-05,0.000221678
-4.37038,11.3456,-296.374,0.000309216,0.00265247,0.00163782,-7.68594e-05,1.28943e-05,-1.42137e-05,1.50914e-05,-7.90565e-05,-1.41743,8.75829e-05,-0.204426,1.34407,-2.95846,-0.0155243,-0.00142149,-0.00663858,0.00233749,426,422,-0.00760813,-0.0888845,129.985,120.533,129.961,120.591,6.23086e-05,5.71523e-05,0.000214812
-4.07497,11.332,-296.317,0.000278203,0.00260642,0.00180181,-6.71295e-05,1.40422e-05,-1.13167e-05,1.55904e-05,-6.86777e-05,-1.43483,7.76556e-05,-0.277615,1.31211,-2.97326,-0.0255116,0.000282449,-0.00326336,0.00232322,433,422,-0.00948579,-0.0869195,131.618,121.294,131.594,121.352,6.20415e-05,5.41524e-05,0.000214002
-3.77871,11.3183,-296.257,0.00028302,0.00255653,0.00189786,-5.40411e-05,1.52692e-05,-7.91967e-06,1.61627e-05,-5.49345e-05,-1.45846,6.45517e-05,-0.321682,1.31314,-2.8353,-0.0331933,0.0047082,-0.000416668,0.00241988,440,422,-0.00996541,-0.0851823,133.303,122.06,133.278,122.116,6.45518e-05,5.41764e-05,0.000222801
-3.48227,11.3047,-296.195,0.000385459,0.0025306,0.00206475,-4.01164e-05,1.65345e-05,-2.60491e-06,1.66541e-05,-4.02359e-05,-1.52494,5.06594e-05,-0.339522,1.33379,-2.80928,-0.0359252,0.0114679,0.00149348,0.00252324,447,422,-0.00852699,-0.0838353,135.008,122.823,134.979,122.879,6.73407e-05,5.7856e-05,0.000232295
-3.18589,11.2912,-296.132,0.000419879,0.00252272,0.00207791,-2.86185e-05,1.87483e-05,4.64906e-06,1.92003e-05,-2.90705e-05,1.47388,4.20941e-05,-0.349094,1.33758,-2.91699,-0.0346129,0.0195274,0.00286206,0.00252718,454,422,-0.00769652,-0.0831524,136.712,123.577,136.682,123.634,6.73002e-05,6.02065e-05,0.000232013
-2.88843,11.2775,-296.065,0.000432115,0.00254452,0.00210819,-2.18915e-05,2.20497e-05,1.23402e-05,2.5278e-05,-2.51198e-05,1.31492,4.36459e-05,-0.348258,1.34473,-3.04302,-0.0320421,0.0277206,0.00361203,0.00247936,461,422,-0.00758924,-0.0837285,138.481,124.344,138.45,124.402,6.52802e-05,6.11729e-05,0.000224829
-2.5892,11.2639,-295.99,0.000406879,0.00259415,0.00198008,-1.82246e-05,2.5504e-05,2.03037e-05,3.34774e-05,-2.6198e-05,1.19659,5.18084e-05,-0.332284,1.37676,-3.01617,-0.0271118,0.0353181,0.00393391,0.00236067,468,422,-0.00731961,-0.0855219,140.354,125.105,140.325,125.164,6.15388e-05,5.981e-05,0.000211729
-2.28755,11.25,-295.906,0.000341199,0.00262605,0.00191438,-1.4127e-05,2.85688e-05,2.75011e-05,4.20354e-05,-2.75935e-05,1.11545,6.07312e-05,-0.338365,1.44802,-3.04223,-0.0195188,0.0419827,0.00416122,0.00237783,475,422,-0.00850972,-0.0871177,142.369,125.891,142.342,125.949,6.21581e-05,5.98068e-05,0.000213817
-1.98478,11.2357,-295.818,0.000348271,0.00263976,0.00184831,-9.17724e-06,3.06624e-05,3.32876e-05,4.95351e-05,-2.805e-05,1.05502,6.80441e-05,-0.341527,1.47613,-3.19869,-0.0111145,0.0468235,0.00395796,0.00247177,482,422,-0.00787892,-0.0898502,144.457,126.695,144.431,126.752,6.49953e-05,6.05113e-05,0.000223716
-1.67997,11.2213,-295.721,0.00040156,0.00265649,0.00190244,-5.54734e-06,3.21233e-05,3.78348e-05,5.5552e-05,-2.8976e-05,1.01635,7.43996e-05,-0.341198,1.5326,-3.30082,-0.00482894,0.0492486,0.0020778,0.00253806,489,422,-0.00692126,-0.0911737,146.672,127.505,146.643,127.562,6.74658e-05,5.98413e-05,0.000232152
-1.37429,11.2071,-295.62,0.000442753,0.00266429,0.0018976,-5.16268e-06,3.22368e-05,4.14584e-05,5.90176e-05,-3.19434e-05,0.997261,7.99293e-05,-0.317205,1.55719,-3.24292,-0.00222453,0.0492639,-0.000848115,0.00252626,496,422,-0.00580919,-0.0910451,148.945,128.306,148.916,128.363,6.74749e-05,5.68832e-05,0.000231873
-1.06862,11.1929,-295.518,0.000417194,0.00268431,0.00178424,-6.37181e-06,3.11617e-05,4.44907e-05,6.06818e-05,-3.58919e-05,0.984982,8.45487e-05,-0.295021,1.57031,-3.17132,-0.00281182,0.0464456,-0.00299079,0.0024893,503,422,-0.005611,-0.0907176,151.226,129.108,151.198,129.166,6.67379e-05,5.43872e-05,0.00022873
-0.763237,11.1787,-295.416,0.00031943,0.00267762,0.00154948,-4.47689e-06,2.86325e-05,4.78885e-05,6.2747e-05,-3.85913e-05,0.951815,8.85887e-05,-0.286033,1.50785,-3.1293,-0.0055469,0.0412871,-0.00315639,0.00249851,510,422,-0.00634144,-0.0893225,153.498,129.913,153.474,129.973,6.66984e-05,5.52502e-05,0.000228128
-0.460169,11.1646,-295.321,0.000213329,0.0026855,0.00139551,7.52402e-07,2.52238e-05,5.05057e-05,6.49548e-05,-3.89786e-05,0.90424,9.09412e-05,-0.296352,1.4071,-3.13796,-0.00899553,0.0345121,-0.00161923,0.00256119,517,422,-0.00788147,-0.0881113,155.648,130.704,155.629,130.765,6.80694e-05,5.83146e-05,0.000232433
-0.1593,11.1505,-295.233,0.00021846,0.00269781,0.00151033,5.24563e-06,2.0114e-05,5.24304e-05,6.56347e-05,-4.0275e-05,0.855824,9.25928e-05,-0.306554,1.37334,-3.08343,-0.0127067,0.0274135,0.000513322,0.00261247,524,422,-0.00856342,-0.0890233,157.687,131.5,157.667,131.561,6.94208e-05,5.9567e-05,0.000236513
0.140165,11.1366,-295.149,0.000258532,0.00268494,0.00173843,6.01973e-06,1.51416e-05,5.55853e-05,6.63528e-05,-4.51915e-05,0.826333,9.71779e-05,-0.304171,1.42151,-3.13,-0.0193885,0.0192975,0.00235412,0.00260192,531,422,-0.00914097,-0.0899197,159.657,132.285,159.633,132.344,6.96511e-05,5.91182e-05,0.00023692
0.438817,11.1228,-295.066,0.000338907,0.00267402,0.00176977,5.32926e-06,1.01214e-05,5.86056e-05,6.63799e-05,-5.09292e-05,0.805829,0.000101886,-0.273812,1.48087,-3.10605,-0.0263386,0.00991522,0.00613134,0.00255454,538,422,-0.00731618,-0.0916743,161.589,133.059,161.563,133.117,6.88302e-05,5.8039e-05,0.000234006
0.736552,11.1091,-294.986,0.000385315,0.0027173,0.00170511,6.05322e-06,4.90291e-06,6.11457e-05,6.66264e-05,-5.56703e-05,0.780695,0.000106054,-0.234568,1.48275,-3.17203,-0.0326143,-0.000563348,0.01256,0.00258054,545,422,-0.0057,-0.0930651,163.475,133.828,163.448,133.887,6.98662e-05,5.79025e-05,0.000237167
1.03281,11.0956,-294.911,0.000402814,0.00277913,0.00160813,7.7813e-06,-7.47054e-07,6.32152e-05,6.6876e-05,-5.98417e-05,0.751722,0.000109797,-0.218303,1.44569,-3.19615,-0.0362226,-0.0114612,0.0216437,0.00267037,552,422,-0.00461688,-0.0951584,165.282,134.589,165.255,134.649,7.26488e-05,5.97479e-05,0.000245836
1.32723,11.082,-294.841,0.000398567,0.00278354,0.00143905,5.88721e-06,-6.80891e-06,6.56467e-05,6.54921e-05,-6.64138e-05,0.737198,0.000114235,-0.281054,1.45105,-3.21346,-0.0355447,-0.0220792,0.0327253,0.00275959,559,422,-0.00352237,-0.0958827,166.99,135.351,166.964,135.411,7.54126e-05,6.07743e-05,0.000254535
1.62007,11.0686,-294.776,0.000444424,0.00281123,0.00137246,-4.76127e-06,-1.24695e-05,6.7e-05,5.84954e-05,-7.57262e-05,0.756668,0.000116558,-0.370262,1.4769,-3.15897,-0.0299278,-0.0325653,0.0452168,0.00279005,566,422,-0.00189886,-0.0970792,168.615,136.103,168.589,136.163,7.62415e-05,6.11643e-05,0.000256986
1.91106,11.0551,-294.717,0.000439095,0.00284306,0.00116613,-2.27249e-05,-1.82909e-05,6.63932e-05,4.59223e-05,-8.69381e-05,0.802088,0.000116874,-0.384488,1.53845,-2.96204,-0.0130013,-0.0432992,0.0608726,0.00275402,573,422,-0.000575512,-0.0966044,170.135,136.853,170.111,136.915,7.50358e-05,6.07682e-05,0.000252795
0,0,0,0,0,0,0,0,0,0,0,0,0,0,0,0,0,0,0,-1,580,422,0,0,0,0,0,0,0,0,0
0,0,0,0,0,0,0,0,0,0,0,0,0,0,0,0,0,0,0,-1,587,422,0,0,0,0,0,0,0,0,0
0,0,0,0,0,0,0,0,0,0,0,0,0,0,0,0,0,0,0,-1,594,422,0,0,0,0,0,0,0,0,0
0,0,0,0,0,0,0,0,0,0,0,0,0,0,0,0,0,0,0,-1,601,422,0,0,0,0,0,0,0,0,0
0,0,0,0,0,0,0,0,0,0,0,0,0,0,0,0,0,0,0,-1,62,429,0,0,0,0,0,0,0,0,0
0,0,0,0,0,0,0,0,0,0,0,0,0,0,0,0,0,0,0,-1,69,429,0,0,0,0,0,0,0,0,0
0,0,0,0,0,0,0,0,0,0,0,0,0,0,0,0,0,0,0,-1,76,429,0,0,0,0,0,0,0,0,0
-18.7043,11.7199,-297.916,0.000687246,0.00295826,0.000363547,2.00786e-05,2.54539e-05,-1.62478e-06,2.59069e-05,1.96257e-05,-1.29892,2.34071e-05,-0.301449,1.55372,-3.11236,0.0306579,-0.0173947,-0.034919,0.00265555,83,429,0.0103748,-0.0846389,59.8106,85.0838,59.7855,85.1621,6.96911e-05,6.24626e-05,0.000248459
-18.4278,11.7078,-297.943,0.00069608,0.00291725,0.000315566,2.63522e-05,2.61452e-05,7.70079e-06,3.39502e-05,1.85472e-05,0.778677,2.94437e-05,-0.334078,1.56995,-3.12749,0.0222678,-0.018037,-0.0378999,0.00261453,90,429,0.0110386,-0.0838448,60.4723,85.768,60.4474,85.8449,6.83575e-05,6.22174e-05,0.000242745
-18.149,11.6957,-297.964,0.000697848,0.00288847,0.00053418,3.95069e-05,2.41898e-05,1.93275e-05,5.26379e-05,1.10589e-05,0.596762,4.80721e-05,-0.383645,1.56458,-3.05716,0.0165336,-0.0162124,-0.0398573,0.00255778,97,429,0.00933268,-0.0829751,61.2407,86.4549,61.2143,86.5311,6.56547e-05,6.2564e-05,0.000232809
-17.8684,11.6833,-297.978,0.000677788,0.00287488,0.000873137,5.16951e-05,1.95222e-05,3.28686e-05,7.22027e-05,-9.85307e-07,0.557826,7.27003e-05,-0.446455,1.51131,-2.86235,0.016016,-0.0139008,-0.0388055,0.00258753,104,429,0.00610513,-0.0821448,62.096,87.1569,62.0678,87.233,6.37575e-05,6.51123e-05,0.000225378
-17.5854,11.6706,-297.985,0.00067098,0.00285038,0.00121572,5.96988e-05,1.27566e-05,4.57717e-05,8.76664e-05,-1.52111e-05,0.548486,9.61784e-05,-0.464349,1.46908,-2.81466,0.0185093,-0.0121376,-0.0340889,0.00263051,111,429,0.00319266,-0.0813302,63.0597,87.8713,63.0294,87.9468,6.38365e-05,6.68603e-05,0.000224623
-17.3003,11.658,-297.986,0.000659077,0.00285391,0.00146452,6.27516e-05,3.80499e-06,5.58514e-05,9.64293e-05,-2.98728e-05,0.542614,0.000114331,-0.480466,1.45417,-2.91491,0.0219915,-0.0108976,-0.027045,0.00269306,118,429,0.000894221,-0.0816622,64.1229,88.5834,64.0912,88.6588,6.4906e-05,6.86615e-05,0.000227906
-17.0129,11.6453,-297.979,0.000666795,0.00288332,0.0016189,6.00688e-05,-7.9511e-06,6.20507e-05,9.68188e-05,-4.4701e-05,0.534707,0.000125299,-0.492713,1.44287,-3.23545,0.0266101,-0.0102389,-0.019621,0.00268682,125,429,-0.000153929,-0.0815774,65.2982,89.2996,65.2651,89.3766,6.53418e-05,6.85841e-05,0.000229729
-16.7242,11.6325,-297.968,0.000737605,0.00291874,0.0016931,5.22918e-05,-2.2801e-05,6.4524e-05,8.93985e-05,-5.99077e-05,0.521897,0.000130141,-0.515234,1.45519,-3.54215,0.0323837,-0.0105367,-0.0131298,0.00262736,132,429,0.0010206,-0.0803307,66.534,90.0207,66.4982,90.1006,6.54052e-05,6.68252e-05,0.00022981
-16.436,11.6199,-297.958,0.000822141,0.00297863,0.00192481,4.17056e-05,-3.90473e-05,6.48187e-05,7.76948e-05,-7.50365e-05,0.506849,0.000132276,-0.505632,1.46222,-3.58551,0.0371937,-0.0122306,-0.00852012,0.00256221,139,429,0.00123803,-0.0795152,67.7443,90.7303,67.7043,90.8139,6.43344e-05,6.46596e-05,0.000226142
-16.1492,11.607,-297.953,0.000870131,0.00304362,0.00219507,2.89313e-05,-5.60636e-05,6.12249e-05,6.09625e-05,-8.80948e-05,0.482013,0.000129798,-0.424293,1.45352,-3.52411,0.03957,-0.0135687,-0.00458319,0.0025024,146,429,0.000212752,-0.0809024,68.8799,91.4544,68.8365,91.5401,6.29196e-05,6.28252e-05,0.000220461
-15.8634,11.5943,-297.949,0.000865191,0.00311709,0.00246605,1.46154e-05,-7.29984e-05,5.34597e-05,3.99243e-05,-9.83072e-05,0.442158,0.00012322,-0.345593,1.46863,-3.36851,0.0379531,-0.0145114,-0.00132948,0.00237959,153,429,-0.00214891,-0.0842384,69.9655,92.1698,69.9203,92.2563,6.01221e-05,5.95166e-05,0.000209118
-15.5779,11.5813,-297.947,0.000848023,0.00316459,0.0027677,-2.17322e-06,-8.90694e-05,4.24191e-05,1.51003e-05,-0.000106343,0.386708,0.000114641,-0.275612,1.51904,-3.21528,0.0329441,-0.0153201,0.000526565,0.00219948,160,429,-0.00503568,-0.0878328,71.0316,92.9011,70.9848,92.9868,5.59855e-05,5.58327e-05,0.000194132
-15.2919,11.5684,-297.942,0.000801891,0.00318035,0.00294533,-2.14593e-05,-0.000103796,2.99908e-05,-1.16935e-05,-0.000113561,0.314797,0.00010819,-0.260811,1.56256,-3.10698,0.0253353,-0.0155409,6.37938e-05,0.00207188,167,429,-0.00757347,-0.0895466,72.1188,93.6274,72.0721,93.7124,5.3246e-05,5.34194e-05,0.000184666
-15.0054,11.5557,-297.936,0.00075429,0.00314141,0.00316677,-4.18561e-05,-0.000116132,1.72012e-05,-3.8066e-05,-0.000119922,0.216875,0.000106139,-0.236933,1.58954,-2.92148,0.0151882,-0.0153994,-0.00165031,0.00206358,174,429,-0.0104014,-0.0882962,73.2256,94.3454,73.1786,94.4294,5.40563e-05,5.30477e-05,0.000187539
-14.7178,11.5433,-297.926,0.00072317,0.00310571,0.00335992,-5.98366e-05,-0.000125269,4.35112e-06,-5.95486e-05,-0.000125558,0.0661095,0.000108784,-0.215751,1.61137,-2.89541,0.00380377,-0.0149694,-0.00339356,0.00214596,181,429,-0.0125865,-0.0867138,74.3885,95.0437,74.341,95.1273,5.6989e-05,5.42379e-05,0.000198169
-14.428,11.5308,-297.909,0.000693929,0.00306546,0.00357549,-7.33729e-05,-0.000130342,-8.97571e-06,-7.19922e-05,-0.000131722,-0.152631,0.00011424,-0.22363,1.59606,-3.02548,-0.00808389,-0.0142435,-0.00461892,0.00223501,188,429,-0.0149045,-0.0856738,75.6594,95.7492,75.6112,95.8316,5.93156e-05,5.57422e-05,0.000206328
-14.1355,11.5177,-297.883,0.000645127,0.00305877,0.00367238,-8.17769e-05,-0.000131512,-2.27919e-05,-7.29123e-05,-0.000140377,-0.370935,0.000121601,-0.250803,1.56851,-3.26705,-0.0203102,-0.0128065,-0.00511419,0.00223207,195,429,-0.0168136,-0.0866266,77.064,96.4877,77.0165,96.5688,5.96701e-05,5.55778e-05,0.000207689
-13.841,11.5043,-297.85,0.000619053,0.00304278,0.00368386,-8.44366e-05,-0.000129661,-3.51703e-05,-6.52365e-05,-0.000148861,-0.499703,0.000129245,-0.285764,1.55669,-3.50211,-0.031774,-0.0105828,-0.00621981,0.00219738,202,429,-0.0174765,-0.0874725,78.5653,97.2467,78.5185,97.3262,5.88989e-05,5.46639e-05,0.00020572
-13.5455,11.4908,-297.813,0.000590775,0.00303869,0.0035589,-8.1863e-05,-0.000125783,-4.40295e-05,-5.46209e-05,-0.000153025,-0.554074,0.000134319,-0.31136,1.54437,-3.58352,-0.0414699,-0.00787722,-0.00717361,0.0021541,209,429,-0.0171305,-0.0886847,80.1214,98.0079,80.0762,98.0862,5.7381e-05,5.34902e-05,0.000200335
-13.2514,11.4774,-297.781,0.00053565,0.00302699,0.0033571,-7.6185e-05,-0.000120739,-4.92357e-05,-4.44212e-05,-0.000152503,-0.572949,0.000135853,-0.353291,1.50737,-3.62707,-0.0475855,-0.00577512,-0.00637778,0.00209285,216,429,-0.0168217,-0.088874,81.5992,98.7617,81.557,98.8392,5.5908e-05,5.19715e-05,0.000195052
-12.9595,11.4644,-297.755,0.000484996,0.00303179,0.00326119,-6.85026e-05,-0.000114628,-5.11395e-05,-3.5466e-05,-0.000147665,-0.573564,0.000133513,-0.390435,1.46892,-3.6345,-0.0495314,-0.00475341,-0.00323898,0.00206273,223,429,-0.0172589,-0.0893188,82.9714,99.496,82.9313,99.5734,5.54634e-05,5.15144e-05,0.000192441
-12.6685,11.4514,-297.731,0.000433007,0.00302026,0.00323584,-5.77342e-05,-0.000108412,-5.09049e-05,-2.62105e-05,-0.000139936,-0.554466,0.000128846,-0.420868,1.45472,-3.5063,-0.0489175,-0.00477591,0.0020482,0.002092,230,429,-0.0182614,-0.0889395,84.2973,100.224,84.2587,100.301,5.62038e-05,5.21251e-05,0.000193902
-12.3775,11.4383,-297.707,0.000423733,0.00298934,0.00332697,-4.36604e-05,-0.000103257,-4.98173e-05,-1.54096e-05,-0.000131508,-0.515868,0.00012452,-0.419296,1.4782,-3.29741,-0.0470114,-0.00565326,0.00864782,0.00213358,237,429,-0.0190961,-0.0877749,85.6212,100.962,85.5822,101.038,5.74558e-05,5.28251e-05,0.000197712
-12.0854,11.4251,-297.679,0.000433922,0.00294243,0.0033908,-2.91997e-05,-9.97123e-05,-4.90992e-05,-4.00986e-06,-0.000124902,-0.474025,0.000122946,-0.438733,1.5069,-3.04217,-0.0427651,-0.0070495,0.0151039,0.00212118,244,429,-0.0192278,-0.0867985,87.0049,101.703,86.9651,101.778,5.71532e-05,5.27163e-05,0.000196752
-11.7918,11.4121,-297.645,0.000456833,0.0028996,0.00344433,-1.8939e-05,-9.72164e-05,-4.87124e-05,4.4101e-06,-0.000120566,-0.446973,0.00012283,-0.460048,1.49638,-2.87329,-0.0342658,-0.00858877,0.01987,0.00208271,251,429,-0.0189544,-0.0852632,88.4658,102.436,88.4249,102.51,5.5957e-05,5.16797e-05,0.000193354
-11.4961,11.3994,-297.604,0.000456092,0.00286407,0.00352557,-1.14717e-05,-9.57673e-05,-4.88831e-05,1.0925e-05,-0.000118164,-0.429626,0.000123988,-0.483091,1.43702,-2.87598,-0.0215573,-0.0102647,0.02253,0.00211402,258,429,-0.019486,-0.0838666,90.0386,103.154,89.9972,103.227,5.67507e-05,5.14534e-05,0.00019669
-11.1973,11.3865,-297.553,0.000393884,0.00284962,0.00354457,-4.02476e-06,-9.45162e-05,-5.00399e-05,1.81918e-05,-0.000116733,-0.417835,0.000126811,-0.492425,1.40789,-3.02275,-0.00846755,-0.0118867,0.0239038,0.00230233,265,429,-0.0211008,-0.0842767,91.7678,103.887,91.7279,103.959,6.20383e-05,5.28148e-05,0.000214125
-10.8989,11.3733,-297.503,0.000368635,0.00286111,0.0033232,1.65331e-06,-9.23302e-05,-5.30109e-05,2.55021e-05,-0.000116179,-0.422757,0.000130808,-0.51225,1.42699,-3.18599,0.00181276,-0.0130239,0.0248819,0.0023722,272,429,-0.0199996,-0.0868217,93.4775,104.634,93.4399,104.704,6.38683e-05,5.40039e-05,0.000220399
-10.6018,11.3597,-297.456,0.00039753,0.00290568,0.00312204,3.56035e-06,-8.87665e-05,-5.79157e-05,3.14597e-05,-0.000116666,-0.448919,0.00013517,-0.495996,1.50673,-3.08486,0.00914449,-0.0127012,0.0251199,0.00229711,279,429,-0.0177652,-0.0905501,95.1185,105.399,95.0816,105.469,6.16384e-05,5.35447e-05,0.000213617
-10.3073,11.346,-297.416,0.000531218,0.00297164,0.00281573,-7.89858e-07,-8.40347e-05,-6.27439e-05,3.2882e-05,-0.000117706,-0.49254,0.000137137,-0.481521,1.61653,-3.06561,0.015132,-0.0109679,0.0242256,0.00217541,286,429,-0.0121346,-0.0937589,96.6364,106.164,96.598,106.234,5.82715e-05,5.35252e-05,0.000202735
-10.0137,11.3326,-297.379,0.000647179,0.0030115,0.00268781,-9.00168e-06,-7.84299e-05,-6.63208e-05,3.11409e-05,-0.000118572,-0.544292,0.000136827,-0.485341,1.67973,-3.00467,0.0210398,-0.00759811,0.0219068,0.00214884,293,429,-0.00826873,-0.0950791,98.1029,106.918,98.0621,106.989,5.66057e-05,5.50895e-05,0.000196876
-9.7185,11.319,-297.336,0.000684878,0.00296144,0.00274941,-1.77211e-05,-7.19203e-05,-6.89271e-05,2.92423e-05,-0.000118884,-0.598099,0.000135886,-0.459245,1.68625,-2.99347,0.0263161,-0.0036923,0.0186413,0.00223599,300,429,-0.00768929,-0.0936386,99.658,107.68,99.6158,107.749,5.71985e-05,5.764e-05,0.000198645
-9.41799,11.3054,-297.276,0.000640029,0.00288335,0.00285435,-2.70681e-05,-6.45534e-05,-7.10744e-05,2.76934e-05,-0.000119315,-0.656481,0.000135304,-0.437205,1.64303,-2.99831,0.0298096,0.000602166,0.0153887,0.00232222,307,429,-0.00946628,-0.0920315,101.49,108.452,101.448,108.519,5.85442e-05,5.98904e-05,0.000202639
-9.11497,11.2918,-297.206,0.000621728,0.00278823,0.00295754,-3.52942e-05,-5.72199e-05,-7.31425e-05,2.77024e-05,-0.000120217,-0.71101,0.000136197,-0.370651,1.58097,-2.86496,0.0309017,0.00527762,0.0116309,0.00234966,314,429,-0.0105492,-0.0899721,103.459,109.223,103.417,109.287,5.84563e-05,6.0821e-05,0.000201808
-8.81003,11.2779,-297.129,0.000573408,0.0026914,0.0028833,-4.06892e-05,-5.03026e-05,-7.39566e-05,2.86167e-05,-0.000119609,-0.752947,0.000136191,-0.333069,1.51762,-2.81084,0.0301184,0.0105638,0.00667862,0.00231801,321,429,-0.0110335,-0.0883814,105.531,110.012,105.491,110.073,5.73592e-05,5.99487e-05,0.00019803
-8.50537,11.2639,-297.053,0.000530043,0.0026105,0.00266895,-4.26761e-05,-4.424e-05,-7.24608e-05,2.9007e-05,-0.000115923,-0.780003,0.000132824,-0.321749,1.47703,-2.77491,0.0285645,0.0161386,0.00125504,0.0023232,328,429,-0.0103377,-0.0863921,107.592,110.807,107.555,110.865,5.84888e-05,5.96733e-05,0.000202014
-8.20321,11.2499,-296.983,0.000447249,0.00258522,0.00254634,-4.33193e-05,-3.84457e-05,-6.78389e-05,2.70001e-05,-0.000108765,-0.803351,0.000124481,-0.376685,1.48767,-2.94883,0.0282333,0.0215517,-0.00357218,0.00245319,335,429,-0.011358,-0.0842569,109.527,111.593,109.493,111.652,6.38823e-05,6.14388e-05,0.000219852
-7.90406,11.2362,-296.923,0.000353847,0.00262082,0.00235818,-4.59097e-05,-3.2226e-05,-6.01951e-05,2.15148e-05,-9.96505e-05,-0.841986,0.000111969,-0.388758,1.53411,-3.0493,0.0291433,0.0263909,-0.00736286,0.00260951,342,429,-0.0122538,-0.0853888,111.306,112.364,111.276,112.424,6.92462e-05,6.23132e-05,0.000237495
-7.60694,11.2226,-296.869,0.000357896,0.00266684,0.00260063,-4.93197e-05,-2.62517e-05,-5.0712e-05,1.42213e-05,-8.97928e-05,-0.897217,9.7683e-05,-0.388819,1.54428,-2.94258,0.0295143,0.0298888,-0.0101512,0.00257418,349,429,-0.013978,-0.0862809,112.987,113.128,112.955,113.19,6.80299e-05,6.00099e-05,0.000233307
-7.31108,11.2094,-296.819,0.000359926,0.00269452,0.00280976,-5.07391e-05,-2.09293e-05,-4.13532e-05,8.12304e-06,-7.97915e-05,-0.958366,8.41476e-05,-0.375385,1.55722,-2.8627,0.0299007,0.0312472,-0.0120351,0.00248624,356,429,-0.0154926,-0.0877459,114.605,113.872,114.571,113.933,6.50758e-05,5.80372e-05,0.000223999
-7.01531,11.1966,-296.768,0.000396825,0.00265597,0.00290463,-5.27202e-05,-1.57058e-05,-3.35732e-05,4.12335e-06,-7.25493e-05,-1.0373,7.46964e-05,-0.360199,1.54212,-2.86785,0.0300954,0.0302337,-0.0130126,0.00227159,363,429,-0.0152188,-0.0885261,116.223,114.593,116.188,114.651,6.00963e-05,5.31466e-05,0.000207368
-6.72054,11.1835,-296.719,0.000446559,0.0026174,0.0027794,-5.90105e-05,-1.03272e-05,-2.77363e-05,2.23398e-06,-7.15717e-05,-1.14555,7.27145e-05,-0.41006,1.52363,-2.92675,0.0312147,0.0271153,-0.0137004,0.00212735,370,429,-0.0129494,-0.088044,117.788,115.333,117.753,115.39,5.61313e-05,5.24292e-05,0.000194004
-6.42724,11.1701,-296.675,0.00049571,0.00260221,0.00250068,-6.86822e-05,-4.78168e-06,-2.39582e-05,3.2032e-06,-7.66671e-05,-1.24909,7.83178e-05,-0.419037,1.50927,-2.96561,0.0337492,0.0224552,-0.0147389,0.00213045,377,429,-0.00956266,-0.0873618,119.276,116.085,119.241,116.142,5.56256e-05,5.36955e-05,0.000192204
-6.13478,11.1568,-296.633,0.000527478,0.00261958,0.00226385,-7.76538e-05,3.23642e-07,-2.22109e-05,6.20636e-06,-8.35365e-05,-1.31188,8.68062e-05,-0.396478,1.50422,-2.90048,0.0351372,0.0165013,-0.0152416,0.00211956,384,429,-0.00697194,-0.0877754,120.722,116.827,120.688,116.885,5.59763e-05,5.44766e-05,0.000193453
-5.84278,11.1435,-296.592,0.000552281,0.00268546,0.00204588,-8.18949e-05,4.82893e-06,-2.25994e-05,1.03647e-05,-8.74307e-05,-1.33057,9.3047e-05,-0.312085,1.52441,-2.78884,0.0321768,0.00958215,-0.0147687,0.00218854,391,429,-0.0047364,-0.0883561,122.146,117.567,122.112,117.628,5.7362e-05,5.5341e-05,0.000198428
-5.55099,11.1304,-296.551,0.00048911,0.00273641,0.00172166,-8.32836e-05,8.42871e-06,-2.37266e-05,1.42034e-05,-8.90583e-05,-1.33206,9.69435e-05,-0.270679,1.53125,-2.7424,0.0242835,0.00237665,-0.0136749,0.00228036,398,429,-0.00393632,-0.0901948,123.558,118.299,123.529,118.361,5.92382e-05,5.62514e-05,0.000204887
-5.25887,11.1174,-296.508,0.000425183,0.00274346,0.00150924,-8.53262e-05,1.09475e-05,-2.43605e-05,1.67606e-05,-9.11392e-05,-1.33655,0.000100572,-0.246531,1.49423,-2.83594,0.0139714,-0.00357563,-0.0126258,0.00230497,405,429,-0.00396284,-0.0917689,124.993,119.032,124.967,119.093,6.05052e-05,5.71896e-05,0.000209093
-4.96579,11.1042,-296.461,0.000373732,0.00276678,0.00144602,-8.75758e-05,1.2361e-05,-2.3741e-05,1.77142e-05,-9.2929e-05,-1.34902,0.000102936,-0.222452,1.45442,-2.95603,0.00329491,-0.00750089,-0.0115465,0.00227402,412,429,-0.00478493,-0.09274,126.484,119.77,126.46,119.831,6.05932e-05,5.7301e-05,0.000209095
-4.67149,11.0909,-296.409,0.000358851,0.00276319,0.0015853,-8.79689e-05,1.36978e-05,-2.17763e-05,1.81658e-05,-9.24369e-05,-1.36843,0.000102732,-0.23118,1.4277,-3.06616,-0.00653305,-0.00956366,-0.00987953,0.00222979,419,429,-0.00613975,-0.0922929,128.049,120.516,128.024,120.577,5.91853e-05,5.49428e-05,0.000204044
-4.37629,11.0775,-296.354,0.000320586,0.00275511,0.00170863,-8.35778e-05,1.48618e-05,-1.92231e-05,1.84825e-05,-8.71985e-05,-1.38463,9.7759e-05,-0.271143,1.39204,-3.16234,-0.0163229,-0.00942932,-0.00746095,0.00221466,426,429,-0.00795017,-0.0915055,129.667,121.266,129.642,121.328,5.89693e-05,5.28934e-05,0.000203282
-4.07994,11.0639,-296.293,0.000290003,0.00267473,0.00177145,-7.42379e-05,1.5949e-05,-1.61496e-05,1.87537e-05,-7.70426e-05,-1.39884,8.79323e-05,-0.304686,1.35889,-3.1532,-0.0257378,-0.0066964,-0.00484939,0.00223935,433,429,-0.00903849,-0.0886954,131.352,122.034,131.327,122.093,5.97954e-05,5.1838e-05,0.000206288
-3.78296,11.0502,-296.23,0.000303976,0.00258433,0.00179993,-6.16769e-05,1.69406e-05,-1.24327e-05,1.88599e-05,-6.35962e-05,-1.41763,7.48304e-05,-0.30279,1.3805,-2.94548,-0.0327689,-0.00106296,-0.00291036,0.00233455,440,429,-0.00875281,-0.0860303,133.078,122.804,133.053,122.862,6.21984e-05,5.33528e-05,0.000214697
-3.48585,11.0365,-296.166,0.00042039,0.00254864,0.00195198,-4.81227e-05,1.7873e-05,-6.87767e-06,1.85821e-05,-4.88318e-05,-1.46805,6.03095e-05,-0.284131,1.38686,-2.75315,-0.035434,0.0069419,-0.00178464,0.00241434,447,429,-0.00684156,-0.0841908,134.821,123.572,134.791,123.629,6.4298e-05,5.64292e-05,0.000221784
-3.18874,11.0232,-296.1,0.000503133,0.00253459,0.00204014,-3.6355e-05,1.98206e-05,5.61668e-07,1.98262e-05,-3.63606e-05,1.5608,4.93565e-05,-0.276899,1.371,-2.75817,-0.0344359,0.0162394,-0.000868848,0.00242831,454,429,-0.00533768,-0.0834463,136.569,124.326,136.536,124.383,6.42616e-05,5.92192e-05,0.000221454
-2.89016,11.0097,-296.029,0.00052866,0.00253213,0.00214837,-2.89155e-05,2.30706e-05,8.63493e-06,2.44673e-05,-3.03123e-05,1.41043,4.75305e-05,-0.293412,1.35588,-2.82526,-0.0320362,0.0255876,-0.000128884,0.00237108,461,429,-0.00543796,-0.0836428,138.404,125.087,138.37,125.144,6.15059e-05,6.00834e-05,0.000211661
-2.58918,10.9961,-295.949,0.000463252,0.00254802,0.00193228,-2.4964e-05,2.68192e-05,1.70665e-05,3.19379e-05,-3.00827e-05,1.27941,5.37194e-05,-0.337314,1.36591,-2.92599,-0.0271641,0.034204,0.000503816,0.00232101,468,429,-0.00551893,-0.0853725,140.375,125.856,140.344,125.912,5.91702e-05,5.91897e-05,0.000203401
-2.28559,10.982,-295.858,0.000363558,0.00257681,0.00182199,-2.09991e-05,3.0481e-05,2.462e-05,4.03597e-05,-3.08777e-05,1.18922,6.18753e-05,-0.392286,1.41082,-3.02771,-0.0197364,0.0417251,0.00129594,0.00236367,475,429,-0.00723544,-0.0866107,142.499,126.651,142.473,126.707,6.09633e-05,5.9651e-05,0.000209558
-1.98113,10.9678,-295.763,0.000335659,0.00260964,0.00164303,-1.60489e-05,3.32139e-05,3.06531e-05,4.79058e-05,-3.07408e-05,1.12385,6.86485e-05,-0.408617,1.43408,-3.14913,-0.0111074,0.0473484,0.00182693,0.00245876,482,429,-0.00668075,-0.0890501,144.683,127.457,144.659,127.513,6.38092e-05,6.06539e-05,0.000219489
-1.67469,10.9535,-295.661,0.000397854,0.00263094,0.00169507,-1.20265e-05,3.52788e-05,3.54545e-05,5.42462e-05,-3.09939e-05,1.07956,7.473e-05,-0.414618,1.47681,-3.23991,-0.00412961,0.0504771,0.000682936,0.00250101,489,429,-0.00549353,-0.0905786,146.993,128.266,146.966,128.322,6.60044e-05,6.04085e-05,0.000227001
-1.36785,10.9393,-295.555,0.000437493,0.00265095,0.0017058,-1.0594e-05,3.59666e-05,3.93053e-05,5.83687e-05,-3.29961e-05,1.05277,8.01348e-05,-0.393467,1.50608,-3.16136,-0.00102983,0.0509501,-0.00145563,0.0024549,496,429,-0.00454983,-0.0907846,149.336,129.075,149.308,129.132,6.55517e-05,5.75009e-05,0.000225103
-1.0612,10.9251,-295.45,0.000404029,0.00269597,0.00157758,-1.03712e-05,3.52103e-05,4.23114e-05,6.04786e-05,-3.56394e-05,1.03244,8.41621e-05,-0.347997,1.51035,-3.09244,-0.00147935,0.0482579,-0.00271498,0.00243211,503,429,-0.00448847,-0.091716,151.675,129.878,151.649,129.937,6.51872e-05,5.45219e-05,0.000223375
-0.756344,10.9111,-295.349,0.000292563,0.00272362,0.00148673,-6.74785e-06,3.25954e-05,4.55271e-05,6.2519e-05,-3.66715e-05,0.989327,8.68682e-05,-0.308466,1.44923,-3.06412,-0.00418639,0.0429087,-0.00222461,0.00247242,510,429,-0.0066295,-0.090984,153.922,130.673,153.899,130.734,6.63356e-05,5.41395e-05,0.000226892
-0.454666,10.8975,-295.259,0.000157628,0.00273661,0.00147153,2.85573e-07,2.87657e-05,4.80612e-05,6.4652e-05,-3.56008e-05,0.929423,8.80282e-05,-0.297495,1.39418,-3.0175,-0.00705394,0.035754,-0.000448177,0.00257615,517,429,-0.00989468,-0.0899457,155.997,131.444,155.978,131.506,6.91802e-05,5.57002e-05,0.000236273
-0.155524,10.8837,-295.177,0.000114089,0.0027112,0.00161155,6.21236e-06,2.29349e-05,5.01115e-05,6.53779e-05,-3.62306e-05,0.868064,8.91942e-05,-0.314722,1.41356,-2.88414,-0.00995972,0.0282234,0.00166694,0.00264364,524,429,-0.0119477,-0.0899872,157.939,132.225,157.921,132.285,7.10457e-05,5.71466e-05,0.000242301
0.142433,10.8701,-295.098,0.000143009,0.00266116,0.00177099,9.49599e-06,1.68057e-05,5.31723e-05,6.64487e-05,-4.01469e-05,0.819712,9.32465e-05,-0.302562,1.47277,-2.90199,-0.0168279,0.019496,0.00369888,0.00262864,531,429,-0.0122703,-0.089385,159.824,132.995,159.803,133.054,7.07339e-05,5.74662e-05,0.000240983
0.440277,10.8565,-295.019,0.000226937,0.00262383,0.00180705,1.14028e-05,1.02847e-05,5.62636e-05,6.71101e-05,-4.54226e-05,0.78043,9.80577e-05,-0.266966,1.51553,-2.98371,-0.0247772,0.00942287,0.00765288,0.00255224,538,429,-0.010349,-0.089886,161.712,133.767,161.689,133.823,6.87149e-05,5.71212e-05,0.000233868
0.73737,10.8428,-294.941,0.000306395,0.00263968,0.00176006,1.39706e-05,3.45859e-06,5.91085e-05,6.80564e-05,-5.06272e-05,0.741054,0.000103152,-0.22052,1.47739,-3.22673,-0.0321657,-0.00176342,0.0140428,0.00255764,545,429,-0.0079956,-0.0909356,163.564,134.541,163.539,134.597,6.91133e-05,5.7615e-05,0.000234531
1.03343,10.8293,-294.866,0.000345516,0.00267717,0.00165158,1.62264e-05,-3.73367e-06,6.18107e-05,6.88576e-05,-5.63649e-05,0.705358,0.000108626,-0.200203,1.42564,-3.3481,-0.036794,-0.013329,0.0226953,0.00263384,552,429,-0.0062725,-0.0932972,165.363,135.303,165.337,135.359,7.16957e-05,5.88549e-05,0.000242051
1.32818,10.816,-294.795,0.000377854,0.00268691,0.00146752,1.37042e-05,-1.10969e-05,6.52293e-05,6.77011e-05,-6.50939e-05,0.691465,0.000115011,-0.276127,1.41109,-3.38264,-0.0374855,-0.0246696,0.0330448,0.00271394,559,429,-0.00416009,-0.0947509,167.093,136.056,167.068,136.111,7.41605e-05,5.92773e-05,0.000249792
1.62198,10.8027,-294.726,0.000429446,0.00274089,0.00129956,1.65845e-06,-1.76061e-05,6.82054e-05,6.09084e-05,-7.68561e-05,0.71525,0.000119574,-0.375124,1.41705,-3.32385,-0.0337365,-0.0361345,0.0447702,0.00273874,566,429,-0.00169768,-0.0959141,168.776,136.8,168.751,136.857,7.46154e-05,5.95687e-05,0.000251327
1.91399,10.7892,-294.663,0.000433993,0.00280067,0.0010104,-2.01178e-05,-2.33397e-05,6.99817e-05,4.82715e-05,-9.1729e-05,0.77389,0.000123176,-0.399732,1.49274,-3.0786,-0.0191146,-0.0483115,0.059547,0.00270063,573,429,0.000436763,-0.0953497,170.359,137.555,170.337,137.616,7.36594e-05,5.92974e-05,0.000247777
0,0,0,0,0,0,0,0,0,0,0,0,0,0,0,0,0,0,0,-1,580,429,0,0,0,0,0,0,0,0,0
0,0,0,0,0,0,0,0,0,0,0,0,0,0,0,0,0,0,0,-1,587,429,0,0,0,0,0,0,0,0,0
0,0,0,0,0,0,0,0,0,0,0,0,0,0,0,0,0,0,0,-1,594,429,0,0,0,0,0,0,0,0,0
0,0,0,0,0,0,0,0,0,0,0,0,0,0,0,0,0,0,0,-1,601,429,0,0,0,0,0,0,0,0,0
0,0,0,0,0,0,0,0,0,0,0,0,0,0,0,0,0,0,0,-1,62,436,0,0,0,0,0,0,0,0,0
0,0,0,0,0,0,0,0,0,0,0,0,0,0,0,0,0,0,0,-1,69,436,0,0,0,0,0,0,0,0,0
0,0,0,0,0,0,0,0,0,0,0,0,0,0,0,0,0,0,0,-1,76,436,0,0,0,0,0,0,0,0,0
-18.7325,11.4488,-297.963,0.000685312,0.00290701,0.00025525,1.95689e-05,2.0603e-05,5.41183e-06,2.55225e-05,1.46495e-05,0.833022,2.21836e-05,-0.337314,1.49823,-3.2346,0.0331982,-0.0194142,-0.0198977,0.00259632,83,436,0.0112655,-0.0841877,58.3605,85.9406,58.3363,86.0167,6.83604e-05,6.09272e-05,0.000244617
-18.4567,11.437,-297.993,0.000700271,0.00289753,0.000267224,2.82031e-05,2.12131e-05,1.28719e-05,3.80461e-05,1.13702e-05,0.652834,3.38259e-05,-0.369432,1.50363,-3.19731,0.0233283,-0.0190607,-0.0275647,0.00258187,90,436,0.011555,-0.0838514,58.9897,86.6061,58.965,86.682,6.75276e-05,6.1016e-05,0.000240363
-18.1779,11.4249,-298.013,0.00072074,0.00285344,0.000459034,4.2358e-05,1.98108e-05,2.37659e-05,5.73886e-05,4.78025e-06,0.563935,5.51541e-05,-0.400668,1.48443,-2.9758,0.0163853,-0.0170018,-0.033003,0.00256908,97,436,0.0105761,-0.080811,59.757,87.287,59.7304,87.3633,6.49835e-05,6.32784e-05,0.000230936
-17.8967,11.4123,-298.026,0.000720871,0.00285126,0.000780162,5.52521e-05,1.62168e-05,3.71116e-05,7.76654e-05,-6.19655e-06,0.543315,8.09417e-05,-0.453379,1.45883,-2.73364,0.015109,-0.0150251,-0.034437,0.00268746,104,436,0.00801564,-0.0781074,60.6385,87.9945,60.6095,88.0729,6.43533e-05,6.77874e-05,0.000227495
-17.6127,11.3994,-298.03,0.000710458,0.00283258,0.00110707,6.39642e-05,1.09205e-05,5.02704e-05,9.428e-05,-1.93954e-05,0.542663,0.000105326,-0.466949,1.43037,-2.7252,0.0171688,-0.0138225,-0.0315713,0.00275432,111,436,0.00515499,-0.0763799,61.6502,88.7194,61.6192,88.7983,6.49193e-05,6.98247e-05,0.000228148
-17.3266,11.3869,-298.028,0.000697883,0.00284303,0.0013608,6.80223e-05,3.68631e-06,6.12302e-05,0.00010502,-3.33115e-05,0.543533,0.000125049,-0.466672,1.42719,-2.9066,0.0203198,-0.0130324,-0.0259841,0.00279971,118,436,0.00279614,-0.0765987,62.7619,89.4274,62.7296,89.5066,6.62032e-05,7.10399e-05,0.000232681
-17.0382,11.3743,-298.018,0.000723171,0.00285255,0.00160811,6.67648e-05,-6.16941e-06,6.87947e-05,0.00010816,-4.75648e-05,0.541685,0.000138223,-0.449064,1.43205,-3.26282,0.0246924,-0.012526,-0.0195375,0.00276778,125,436,0.0014215,-0.0771798,63.9839,90.141,63.9491,90.2201,6.67539e-05,7.00165e-05,0.000234572
-16.7487,11.3615,-298.005,0.000753932,0.00286783,0.00173454,6.04473e-05,-1.89713e-05,7.2708e-05,0.000103583,-6.21069e-05,0.535458,0.000144982,-0.467734,1.46215,-3.63568,0.0304343,-0.0126167,-0.0134926,0.00268437,132,436,0.00117385,-0.0774553,65.257,90.8651,65.2204,90.9448,6.68023e-05,6.74926e-05,0.000234203
-16.4593,11.3489,-297.992,0.000825641,0.00292667,0.00192189,5.11448e-05,-3.32578e-05,7.38878e-05,9.40338e-05,-7.61468e-05,0.525929,0.000147652,-0.451192,1.47839,-3.80661,0.0354732,-0.0137653,-0.00937375,0.0025381,139,436,0.00141526,-0.0777713,66.5245,91.574,66.4844,91.6563,6.41739e-05,6.42766e-05,0.000225171
-16.1709,11.3362,-297.981,0.000865316,0.00298218,0.00217649,3.92381e-05,-4.83792e-05,7.09015e-05,7.87735e-05,-8.79145e-05,0.508667,0.000144428,-0.396524,1.48648,-3.78671,0.0381709,-0.0144084,-0.00570963,0.00239746,146,436,0.000304689,-0.0798825,67.74,92.2897,67.6969,92.373,6.17121e-05,6.10988e-05,0.000215754
-15.8836,11.3235,-297.973,0.000875166,0.00305338,0.00242147,2.53816e-05,-6.38406e-05,6.33961e-05,5.82896e-05,-9.67486e-05,0.4788,0.000135637,-0.331816,1.49497,-3.62971,0.0369949,-0.0145386,-0.00256483,0.00223925,153,436,-0.00149446,-0.0838406,68.8987,93.005,68.8537,93.0884,5.85748e-05,5.76775e-05,0.000203846
-15.5967,11.3105,-297.967,0.000861622,0.0031146,0.00273719,8.62872e-06,-7.90153e-05,5.2226e-05,3.29824e-05,-0.000103369,0.436337,0.000123217,-0.290623,1.50974,-3.46941,0.0326131,-0.0143696,-0.000758417,0.00213302,160,436,-0.00441686,-0.0875984,70.0351,93.7365,69.9883,93.8197,5.51018e-05,5.5127e-05,0.000191588
-15.3098,11.2977,-297.96,0.000814147,0.00318436,0.00292063,-1.0953e-05,-9.3495e-05,3.91534e-05,4.6644e-06,-0.000109112,0.379537,0.000111518,-0.270373,1.54751,-3.32704,0.0256987,-0.0135969,-0.0011736,0.00208411,167,436,-0.00708798,-0.0903713,71.1642,94.4553,71.1174,94.5397,5.38166e-05,5.34779e-05,0.000187454
-15.0227,11.2851,-297.952,0.000795122,0.00321636,0.00320602,-3.17543e-05,-0.000106188,2.51249e-05,-2.40673e-05,-0.000113875,0.296907,0.000103953,-0.222898,1.57947,-3.08252,0.0163476,-0.0126073,-0.00276624,0.00208128,174,436,-0.00979865,-0.0906726,72.3038,95.1617,72.2554,95.2473,5.50916e-05,5.27436e-05,0.000191719
-14.735,11.2728,-297.941,0.000773893,0.00322006,0.00346248,-5.00722e-05,-0.00011622,1.04923e-05,-4.84478e-05,-0.000117844,0.153599,0.000102592,-0.180561,1.6211,-2.98244,0.00567163,-0.0114424,-0.00441957,0.00215998,181,436,-0.0122834,-0.0898476,73.4754,95.8533,73.4256,95.9398,5.78777e-05,5.33903e-05,0.000201196
-14.4454,11.2604,-297.925,0.000750929,0.00318045,0.00374356,-6.40899e-05,-0.000122656,-4.78635e-06,-6.37013e-05,-0.000123044,-0.0810099,0.000106582,-0.179253,1.62756,-3.04756,-0.00614515,-0.0101646,-0.00565233,0.00222756,188,436,-0.0149537,-0.0881364,74.7338,96.5537,74.6827,96.6396,5.95173e-05,5.41374e-05,0.000206353
-14.1538,11.2476,-297.902,0.000685316,0.00314162,0.00382783,-7.35977e-05,-0.000125682,-2.03656e-05,-6.658e-05,-0.000132699,-0.331843,0.000114921,-0.201477,1.60499,-3.21594,-0.0186922,-0.00847123,-0.00627361,0.00220833,195,436,-0.0171358,-0.0882244,76.0916,97.279,76.0417,97.3629,5.8999e-05,5.36639e-05,0.000204851
-13.8608,11.2342,-297.873,0.000655297,0.00309855,0.00385966,-7.79239e-05,-0.000126086,-3.42854e-05,-6.01075e-05,-0.000143902,-0.479243,0.000125184,-0.273774,1.58612,-3.51126,-0.0309108,-0.00642491,-0.00751015,0.002134,202,436,-0.0180108,-0.087719,77.521,98.0369,77.4718,98.1189,5.69764e-05,5.22697e-05,0.000199372
-13.5666,11.2206,-297.841,0.000618702,0.00309495,0.00370712,-7.72838e-05,-0.000124777,-4.4517e-05,-5.05757e-05,-0.000151485,-0.540384,0.000133582,-0.326696,1.55272,-3.71833,-0.0418345,-0.00448789,-0.00847076,0.00207413,209,436,-0.0176458,-0.0888224,79.003,98.7995,78.9559,98.8803,5.54596e-05,5.14109e-05,0.000194634
-13.2743,11.2073,-297.814,0.000581192,0.00307129,0.00355212,-7.37682e-05,-0.000122288,-5.09916e-05,-4.15596e-05,-0.000154496,-0.563364,0.000138476,-0.371509,1.5076,-3.77979,-0.0492671,-0.00357442,-0.00758269,0.00208534,216,436,-0.0172695,-0.0894889,80.3951,99.5499,80.3502,99.629,5.57925e-05,5.11696e-05,0.000195506
-12.9837,11.1945,-297.793,0.00053133,0.0030514,0.00341872,-6.82356e-05,-0.00011856,-5.40087e-05,-3.38153e-05,-0.00015298,-0.567403,0.000139188,-0.404597,1.48744,-3.775,-0.0525805,-0.00392008,-0.00436929,0.00214969,223,436,-0.0173732,-0.0899813,81.699,100.272,81.6564,100.35,5.77089e-05,5.23249e-05,0.000200843
-12.6923,11.1816,-297.768,0.000479839,0.00302837,0.00338841,-5.94104e-05,-0.000114431,-5.43512e-05,-2.60038e-05,-0.000147838,-0.551117,0.000136703,-0.439257,1.48351,-3.61568,-0.0530936,-0.00528528,0.00081717,0.00220189,230,436,-0.0183144,-0.089635,83.04,101,82.9991,101.076,5.93699e-05,5.42448e-05,0.000204744
-12.4001,11.1684,-297.74,0.000481773,0.00299638,0.00347191,-4.68319e-05,-0.000110863,-5.33111e-05,-1.66617e-05,-0.000141033,-0.514988,0.000133485,-0.423503,1.49512,-3.30764,-0.0520778,-0.00722984,0.00709733,0.00222326,237,436,-0.0187928,-0.0875976,84.4285,101.743,84.3868,101.82,5.99097e-05,5.48762e-05,0.000205868
-12.1063,11.1553,-297.706,0.000499222,0.00293559,0.00354136,-3.35511e-05,-0.000108343,-5.23547e-05,-6.60822e-06,-0.000135286,-0.475276,0.000132106,-0.4311,1.50195,-2.98338,-0.0484274,-0.00923049,0.0130723,0.00219413,244,436,-0.0187639,-0.0859075,85.8952,102.484,85.8525,102.559,5.86442e-05,5.41365e-05,0.000201284
-11.8107,11.1423,-297.666,0.000521995,0.00287965,0.00362052,-2.45452e-05,-0.000106338,-5.14998e-05,3.21139e-07,-0.000131204,-0.449829,0.000131365,-0.450947,1.49282,-2.80997,-0.0401075,-0.0108208,0.017485,0.00214028,251,436,-0.0186682,-0.0836207,87.4619,103.217,87.4179,103.291,5.66388e-05,5.24497e-05,0.000195243
-11.5129,11.1295,-297.619,0.000497209,0.00284131,0.00372801,-1.79461e-05,-0.000104706,-5.15525e-05,6.04953e-06,-0.000128702,-0.435636,0.000131831,-0.473065,1.44816,-2.89431,-0.0269715,-0.0119981,0.0198042,0.00221415,258,436,-0.0199944,-0.0822977,89.1372,103.943,89.0931,104.016,5.85953e-05,5.26573e-05,0.000202651
-11.2126,11.1166,-297.563,0.000433397,0.00286189,0.0037747,-1.06668e-05,-0.000102761,-5.29314e-05,1.34435e-05,-0.000126871,-0.42742,0.000134099,-0.504564,1.44687,-3.14482,-0.0133304,-0.0126435,0.0208392,0.00244321,265,436,-0.0218938,-0.0833826,90.9416,104.676,90.8988,104.75,6.56331e-05,5.59982e-05,0.000225499
-10.9139,11.1035,-297.512,0.000386563,0.00287674,0.0034638,-4.64742e-06,-9.95853e-05,-5.63938e-05,2.15963e-05,-0.000125829,-0.435558,0.000137901,-0.517106,1.47116,-3.21632,-0.0025185,-0.012434,0.0213129,0.00249199,272,436,-0.0206359,-0.0861771,92.6653,105.417,92.6262,105.489,6.69889e-05,5.81429e-05,0.00023027
-10.6161,11.0901,-297.463,0.000367572,0.00292635,0.00319414,-2.0868e-06,-9.50198e-05,-6.18801e-05,2.88307e-05,-0.000125937,-0.463356,0.000142556,-0.526067,1.52439,-3.14612,0.00572098,-0.01062,0.0210784,0.00244758,279,436,-0.0190602,-0.0900018,94.3443,106.175,94.3077,106.246,6.58202e-05,5.74628e-05,0.000226861
-10.3202,11.0765,-297.419,0.000437794,0.00300891,0.00273248,-5.6001e-06,-8.93836e-05,-6.73724e-05,3.18426e-05,-0.000126826,-0.507253,0.000145387,-0.516579,1.61313,-3.0885,0.0132408,-0.00759498,0.0199319,0.00224988,286,436,-0.0138179,-0.0933305,95.9256,106.939,95.8903,107.012,6.01942e-05,5.61243e-05,0.000209352
-10.0265,11.063,-297.381,0.000605972,0.00305923,0.00261838,-1.29911e-05,-8.30734e-05,-7.15489e-05,3.16366e-05,-0.000127701,-0.557691,0.000146111,-0.519166,1.6764,-3.01438,0.0209929,-0.00324973,0.0177732,0.00218335,293,436,-0.00878961,-0.0955292,97.4026,107.696,97.3634,107.769,5.58047e-05,5.62439e-05,0.000194485
-9.73094,11.0494,-297.337,0.000665413,0.00301809,0.00269996,-2.0678e-05,-7.59696e-05,-7.48165e-05,3.14371e-05,-0.000128085,-0.608422,0.000146358,-0.501734,1.68428,-3.10898,0.0277344,0.00117768,0.0150705,0.00221094,300,436,-0.00785757,-0.0954744,98.9772,108.461,98.9358,108.532,5.48621e-05,5.68322e-05,0.000190952
-9.43034,11.036,-297.276,0.000622988,0.00294251,0.00271146,-2.88103e-05,-6.80716e-05,-7.75328e-05,3.15384e-05,-0.00012842,-0.661408,0.000146754,-0.477174,1.65158,-3.20933,0.0322869,0.00551121,0.0125196,0.00225932,307,436,-0.00888241,-0.0949057,100.814,109.224,100.774,109.292,5.64409e-05,5.78861e-05,0.000195749
-9.12705,11.0225,-297.206,0.000606398,0.00285164,0.0027876,-3.60591e-05,-6.04895e-05,-7.98865e-05,3.25408e-05,-0.000129089,-0.709532,0.000148066,-0.3954,1.5779,-3.10113,0.0343724,0.00966501,0.00950845,0.00226334,314,436,-0.00972551,-0.0930314,102.797,109.993,102.757,110.058,5.70119e-05,5.80552e-05,0.000197198
-8.82216,11.0087,-297.129,0.000581876,0.00274833,0.00277059,-4.09366e-05,-5.38386e-05,-8.08056e-05,3.36751e-05,-0.00012845,-0.745566,0.000148186,-0.345572,1.51122,-3.01648,0.0343662,0.0137028,0.0052691,0.00221612,321,436,-0.0100351,-0.0905008,104.868,110.779,104.828,110.84,5.6765e-05,5.64019e-05,0.000196218
-8.51799,10.9947,-297.055,0.000580552,0.0026373,0.00276708,-4.30513e-05,-4.85047e-05,-7.94331e-05,3.37019e-05,-0.000125258,-0.768242,0.000145075,-0.322001,1.44547,-2.86524,0.0331138,0.0172756,0.000521315,0.0021893,328,436,-0.00986411,-0.0878279,106.906,111.575,106.867,111.633,5.64909e-05,5.51226e-05,0.000195543
-8.21569,10.9808,-296.985,0.000545141,0.00259744,0.00281152,-4.42171e-05,-4.37808e-05,-7.51324e-05,3.11337e-05,-0.000119132,-0.78685,0.000137371,-0.355591,1.44424,-2.90983,0.0325379,0.0202223,-0.0037321,0.00221549,335,436,-0.0109572,-0.0855962,108.85,112.361,108.812,112.419,5.78356e-05,5.5731e-05,0.000200025
-7.91597,10.9673,-296.923,0.000462808,0.00263595,0.00277448,-4.72627e-05,-3.87971e-05,-6.77365e-05,2.48387e-05,-0.000110899,-0.816602,0.00012518,-0.36721,1.48292,-2.98103,0.0330971,0.0224073,-0.00694478,0.002319,342,436,-0.0126994,-0.0859221,110.661,113.127,110.625,113.187,6.09359e-05,5.76251e-05,0.000210144
-7.6178,10.9538,-296.865,0.000425771,0.00268582,0.00282645,-5.08066e-05,-3.38283e-05,-5.82456e-05,1.65435e-05,-0.000101178,-0.857762,0.000110384,-0.361182,1.51005,-2.97973,0.0331205,0.0234009,-0.00907174,0.00234034,349,436,-0.0140206,-0.0876284,112.396,113.884,112.36,113.945,6.17158e-05,5.67686e-05,0.000212289
-7.32069,10.9406,-296.811,0.00041938,0.00272998,0.00288487,-5.20748e-05,-2.90567e-05,-4.87358e-05,9.51056e-06,-9.06421e-05,-0.90135,9.57523e-05,-0.329763,1.537,-2.93959,0.032843,0.0226245,-0.0104108,0.00228828,356,436,-0.0146235,-0.0894188,114.08,114.629,114.044,114.69,6.02891e-05,5.57956e-05,0.00020763
-7.0239,10.9279,-296.756,0.000436542,0.00271699,0.00281226,-5.41955e-05,-2.38207e-05,-4.08056e-05,4.53215e-06,-8.25484e-05,-0.96355,8.49053e-05,-0.310125,1.51387,-2.84366,0.0320383,0.0200674,-0.0110214,0.00219863,363,436,-0.0136074,-0.0906272,115.751,115.349,115.715,115.409,5.82577e-05,5.20924e-05,0.00020086
-6.72878,10.915,-296.707,0.000467126,0.00267508,0.00266686,-6.07991e-05,-1.78979e-05,-3.48674e-05,1.58876e-06,-8.02858e-05,-1.06116,8.10918e-05,-0.357779,1.46474,-2.82941,0.0322807,0.0160803,-0.0117337,0.00209278,370,436,-0.0116662,-0.0902715,117.335,116.082,117.3,116.14,5.54308e-05,5.04582e-05,0.000191312
-6.43555,10.9016,-296.663,0.000495594,0.00266803,0.00241752,-7.08715e-05,-1.12946e-05,-3.0942e-05,1.86763e-06,-8.40338e-05,-1.1686,8.4983e-05,-0.376081,1.43588,-2.82327,0.0338826,0.0112121,-0.0129908,0.00206524,377,436,-0.00902261,-0.0896143,118.82,116.83,118.785,116.888,5.42465e-05,5.14496e-05,0.000187276
-6.14291,10.8883,-296.62,0.000553264,0.00268423,0.00230451,-8.03627e-05,-4.73237e-06,-2.89887e-05,5.10046e-06,-9.01955e-05,-1.24378,9.28509e-05,-0.368544,1.44422,-2.79222,0.0340849,0.00561124,-0.0137448,0.00204187,384,436,-0.00670445,-0.089877,120.277,117.577,120.242,117.636,5.4256e-05,5.20482e-05,0.000187388
-5.85014,10.8749,-296.576,0.000586012,0.00273178,0.00216809,-8.55624e-05,1.45511e-06,-2.9106e-05,1.0293e-05,-9.44002e-05,-1.276,9.9945e-05,-0.317589,1.48942,-2.67912,0.0301438,-0.000445063,-0.0136142,0.00210253,391,436,-0.00486092,-0.090312,121.744,118.328,121.708,118.389,5.56231e-05,5.31747e-05,0.000192248
-5.5576,10.8619,-296.532,0.000547144,0.00276313,0.0019396,-8.80255e-05,6.81857e-06,-2.99465e-05,1.54826e-05,-9.66895e-05,-1.28917,0.000105288,-0.281416,1.53863,-2.63055,0.0220802,-0.00662941,-0.0132545,0.00215813,398,436,-0.00414467,-0.0920352,123.2,119.057,123.167,119.118,5.67196e-05,5.36193e-05,0.000196025
-5.26496,10.8489,-296.488,0.000480497,0.00275533,0.00174825,-9.10885e-05,1.09347e-05,-3.01743e-05,1.91908e-05,-9.93447e-05,-1.30372,0.000110201,-0.254717,1.53572,-2.67357,0.0122187,-0.011434,-0.0132235,0.0021487,405,436,-0.00438144,-0.0936752,124.663,119.788,124.634,119.848,5.69671e-05,5.38936e-05,0.000196724
-4.97218,10.8359,-296.442,0.00040514,0.00278242,0.00164502,-9.42622e-05,1.35904e-05,-2.90962e-05,2.09392e-05,-0.000101611,-1.3234,0.000113538,-0.23975,1.52157,-2.81161,0.00176045,-0.0142875,-0.0130353,0.0021281,412,436,-0.00550614,-0.0947414,126.138,120.519,126.112,120.579,5.62146e-05,5.33888e-05,0.000193895
-4.67801,10.8228,-296.391,0.000376183,0.0027871,0.00175287,-9.51054e-05,1.58293e-05,-2.67222e-05,2.19307e-05,-0.000101207,-1.34632,0.000113769,-0.249423,1.48781,-2.97948,-0.00824889,-0.0153461,-0.0120814,0.00212537,419,436,-0.00698969,-0.0945952,127.697,121.256,127.67,121.316,5.59393e-05,5.23522e-05,0.000192803
-4.3823,10.8095,-296.333,0.000335171,0.00278018,0.00181531,-9.10315e-05,1.74637e-05,-2.36828e-05,2.2408e-05,-9.59758e-05,-1.36498,0.000108922,-0.286072,1.44528,-3.11945,-0.0179159,-0.0143511,-0.0103494,0.0021265,426,436,-0.0084099,-0.0932645,129.342,122.006,129.317,122.067,5.64094e-05,5.16715e-05,0.000194494
-4.08511,10.7958,-296.27,0.000300515,0.0027098,0.00176688,-8.23171e-05,1.86314e-05,-2.00283e-05,2.24599e-05,-8.61455e-05,-1.38192,9.92991e-05,-0.294888,1.43176,-3.15621,-0.0265926,-0.010858,-0.00852315,0.00214235,433,436,-0.00878779,-0.0902886,131.074,122.777,131.049,122.837,5.70679e-05,5.2017e-05,0.00019692
-3.78712,10.7822,-296.203,0.00033095,0.00263165,0.00173051,-7.04852e-05,1.9308e-05,-1.56256e-05,2.19494e-05,-7.31266e-05,-1.40333,8.62228e-05,-0.266593,1.46435,-2.98048,-0.0328477,-0.00462741,-0.0073214,0.00217538,440,436,-0.00761985,-0.0874454,132.857,123.547,132.832,123.606,5.76746e-05,5.35469e-05,0.000199118
-3.48876,10.7687,-296.135,0.000450942,0.00258434,0.00178112,-5.73918e-05,1.96198e-05,-9.5793e-06,2.07935e-05,-5.85655e-05,-1.44888,7.12746e-05,-0.245391,1.46706,-2.82685,-0.0353656,0.00365946,-0.00673297,0.0022185,447,436,-0.00486651,-0.0852159,134.671,124.308,134.642,124.366,5.74981e-05,5.56039e-05,0.000198356
-3.18986,10.7555,-296.063,0.000560741,0.00256308,0.00185596,-4.52447e-05,2.07704e-05,-1.88901e-06,2.08244e-05,-4.52987e-05,-1.54221,5.85572e-05,-0.245639,1.44456,-2.809,-0.0345749,0.0129465,-0.00600601,0.00224357,454,436,-0.00258518,-0.0845487,136.521,125.058,136.488,125.115,5.63377e-05,5.74675e-05,0.000194042
-2.88883,10.742,-295.983,0.000553966,0.00253914,0.00192306,-3.66954e-05,2.33602e-05,6.51566e-06,2.4059e-05,-3.73942e-05,1.46396,5.3636e-05,-0.292736,1.41435,-2.80228,-0.0322091,0.022072,-0.00501482,0.00227087,461,436,-0.00319076,-0.0848486,138.493,125.827,138.46,125.883,5.50676e-05,5.79608e-05,0.000189366
-2.58529,10.7281,-295.894,0.000454893,0.00254136,0.00174052,-3.18049e-05,2.67965e-05,1.53464e-05,3.05721e-05,-3.55805e-05,1.32956,5.73445e-05,-0.363238,1.41577,-2.89351,-0.0273274,0.0303868,-0.00381598,0.0022437,468,436,-0.00435736,-0.0866277,140.608,126.619,140.58,126.673,5.58317e-05,5.72646e-05,0.000191942
-2.27959,10.7138,-295.795,0.000347177,0.00257135,0.00164009,-2.7386e-05,3.05564e-05,2.32424e-05,3.87274e-05,-3.55569e-05,1.23274,6.43516e-05,-0.435822,1.4219,-3.01032,-0.0200265,0.0376236,-0.00228242,0.00230354,475,436,-0.00634879,-0.0877255,142.854,127.433,142.829,127.488,5.89728e-05,5.79692e-05,0.000202716
-1.97281,10.6996,-295.692,0.000333611,0.00261831,0.00151081,-2.20917e-05,3.36841e-05,2.95167e-05,4.64037e-05,-3.48113e-05,1.16391,7.05727e-05,-0.474579,1.41507,-3.13234,-0.0111555,0.0431258,-0.000892665,0.00239062,482,436,-0.00579257,-0.0896629,145.173,128.242,145.15,128.298,6.22814e-05,5.90729e-05,0.000214059
-1.66493,10.6854,-295.584,0.000389659,0.0026445,0.00153965,-1.74458e-05,3.62811e-05,3.44886e-05,5.31339e-05,-3.42986e-05,1.11627,7.63022e-05,-0.461489,1.43772,-3.15658,-0.00349508,0.0462778,-0.00108264,0.00245561,489,436,-0.00458968,-0.0907019,147.568,129.052,147.543,129.109,6.46868e-05,5.93964e-05,0.000222183
-1.35766,10.6713,-295.477,0.000416813,0.00265078,0.00152712,-1.47111e-05,3.75734e-05,3.84783e-05,5.795e-05,-3.50876e-05,1.08378,8.13798e-05,-0.431572,1.44324,-3.01485,8.17699e-05,0.04679,-0.00215468,0.00243229,496,436,-0.00377787,-0.0903239,149.938,129.863,149.912,129.92,6.48195e-05,5.77654e-05,0.000222374
-1.05185,10.6573,-295.375,0.000417544,0.00267977,0.00140685,-1.29016e-05,3.72985e-05,4.14845e-05,6.06853e-05,-3.62884e-05,1.05746,8.4863e-05,-0.376825,1.43085,-2.95459,-0.000228948,0.044225,-0.00228006,0.00243268,503,436,-0.0029022,-0.0912528,152.236,130.661,152.211,130.719,6.52349e-05,5.59122e-05,0.000223556
-0.750738,10.6441,-295.287,0.000344253,0.00269532,0.00155447,-7.75966e-06,3.48656e-05,4.45564e-05,6.29443e-05,-3.58383e-05,1.00848,8.66152e-05,-0.335794,1.38275,-2.98395,-0.00282164,0.0390549,-0.000972352,0.00248556,510,436,-0.00577939,-0.0908494,154.276,131.412,154.252,131.471,6.66938e-05,5.45584e-05,0.000228228
-0.452811,10.631,-295.21,0.000198085,0.00273395,0.00166377,5.947e-07,3.08998e-05,4.70323e-05,6.51602e-05,-3.36657e-05,0.941235,8.70224e-05,-0.323797,1.40193,-2.95346,-0.00496374,0.0321424,0.0011755,0.00261327,517,436,-0.0102431,-0.0905571,156.141,132.154,156.12,132.215,7.02819e-05,5.53068e-05,0.000240201
-0.15605,10.6176,-295.137,9.57423e-05,0.00272345,0.00176741,7.45692e-06,2.47561e-05,4.91768e-05,6.60382e-05,-3.38252e-05,0.872452,8.79713e-05,-0.35112,1.46212,-2.7973,-0.00696531,0.0248923,0.00345687,0.00269384,524,436,-0.0135318,-0.0905322,157.947,132.914,157.928,132.974,7.23863e-05,5.66583e-05,0.000247287
0.140588,10.6042,-295.062,9.35448e-05,0.00266672,0.00183309,1.27632e-05,1.78461e-05,5.21244e-05,6.74909e-05,-3.68817e-05,0.809758,9.16758e-05,-0.337015,1.51168,-2.79161,-0.0139348,0.0165085,0.00591951,0.00268501,531,436,-0.0139626,-0.0893829,159.757,133.676,159.737,133.735,7.20469e-05,5.76701e-05,0.000246034
0.437819,10.5905,-294.985,0.000154965,0.00261296,0.00182748,1.68894e-05,1.0042e-05,5.5208e-05,6.87797e-05,-4.18483e-05,0.754431,9.67484e-05,-0.312831,1.52684,-2.82515,-0.0225919,0.00680058,0.0102437,0.0025775,538,436,-0.0122961,-0.0893077,161.609,134.458,161.588,134.514,6.92372e-05,5.74196e-05,0.000236092
0.734787,10.5768,-294.908,0.000281743,0.00259595,0.00178879,2.09404e-05,1.59785e-06,5.81678e-05,7.02354e-05,-4.76972e-05,0.703019,0.000102752,-0.261309,1.45748,-3.14706,-0.0306048,-0.00400059,0.0166821,0.00253007,545,436,-0.00877349,-0.0900285,163.457,135.234,163.432,135.289,6.77387e-05,5.81049e-05,0.000230051
1.03109,10.5635,-294.832,0.000368795,0.00260137,0.00158538,2.33625e-05,-7.40098e-06,6.12166e-05,7.11002e-05,-5.51387e-05,0.662313,0.000109617,-0.213082,1.39202,-3.49768,-0.0357651,-0.0152041,0.0249054,0.00257925,552,436,-0.00513417,-0.0918203,165.272,135.99,165.247,136.044,6.8728e-05,5.89434e-05,0.000231961
1.32639,10.5504,-294.758,0.000423394,0.00264735,0.00140202,2.00131e-05,-1.65553e-05,6.51957e-05,6.944e-05,-6.59821e-05,0.648685,0.000117292,-0.263456,1.35576,-3.65387,-0.0374026,-0.0264187,0.0343665,0.00264527,559,436,-0.0024825,-0.0932107,167.038,136.735,167.012,136.789,7.08586e-05,5.91725e-05,0.000238749
1.62099,10.5373,-294.687,0.000481504,0.00274503,0.00120481,6.82784e-06,-2.45034e-05,6.92455e-05,6.21577e-05,-7.98332e-05,0.674154,0.000123285,-0.340831,1.3658,-3.58121,-0.0350754,-0.0382535,0.0449036,0.00265727,566,436,0.000315701,-0.0947215,168.77,137.473,168.745,137.531,7.14618e-05,5.92017e-05,0.000240711
1.9139,10.5239,-294.62,0.000478031,0.00280515,0.00100569,-1.77994e-05,-3.06062e-05,7.29998e-05,4.90773e-05,-9.74829e-05,0.741651,0.000129212,-0.383334,1.46518,-3.31056,-0.0222849,-0.0514586,0.0579269,0.0026543,573,436,0.00160966,-0.0945511,170.409,138.228,170.385,138.29,7.21327e-05,5.90293e-05,0.000242372
0,0,0,0,0,0,0,0,0,0,0,0,0,0,0,0,0,0,0,-1,580,436,0,0,0,0,0,0,0,0,0
0,0,0,0,0,0,0,0,0,0,0,0,0,0,0,0,0,0,0,-1,587,436,0,0,0,0,0,0,0,0,0
0,0,0,0,0,0,0,0,0,0,0,0,0,0,0,0,0,0,0,-1,594,436,0,0,0,0,0,0,0,0,0
0,0,0,0,0,0,0,0,0,0,0,0,0,0,0,0,0,0,0,-1,601,436,0,0,0,0,0,0,0,0,0
0,0,0,0,0,0,0,0,0,0,0,0,0,0,0,0,0,0,0,-1,62,443,0,0,0,0,0,0,0,0,0
0,0,0,0,0,0,0,0,0,0,0,0,0,0,0,0,0,0,0,-1,69,443,0,0,0,0,0,0,0,0,0
0,0,0,0,0,0,0,0,0,0,0,0,0,0,0,0,0,0,0,-1,76,443,0,0,0,0,0,0,0,0,0
-18.7601,11.1778,-298.009,0.000633113,0.00288677,0.000233706,1.28611e-05,1.56466e-05,1.01067e-05,2.44561e-05,4.05167e-06,0.853871,2.2703e-05,-0.377427,1.44548,-3.07585,0.040016,-0.0210404,-0.00804228,0.0025092,83,443,0.0101897,-0.083806,56.9405,86.7927,56.9179,86.8681,6.61717e-05,5.9206e-05,0.000236998
-18.4848,11.166,-298.04,0.000629402,0.00290534,0.000320591,2.49365e-05,1.58471e-05,1.59808e-05,3.70062e-05,3.77735e-06,0.646864,3.52696e-05,-0.405325,1.44319,-2.99139,0.0279466,-0.0194536,-0.0189104,0.00253209,90,443,0.00937386,-0.0841864,57.5423,87.4489,57.5193,87.5248,6.62631e-05,6.02911e-05,0.000236094
-18.206,11.154,-298.06,0.000664176,0.00287416,0.000493504,4.10695e-05,1.46234e-05,2.62719e-05,5.72584e-05,-1.56551e-06,0.55225,5.8057e-05,-0.40749,1.42958,-2.6922,0.01914,-0.0169838,-0.0267846,0.00257659,97,443,0.00889647,-0.0809093,58.3101,88.1246,58.2848,88.2017,6.50928e-05,6.40568e-05,0.000231322
-17.9243,11.1412,-298.072,0.000700436,0.00285864,0.000727445,5.55386e-05,1.16961e-05,3.94088e-05,7.87127e-05,-1.14781e-05,0.531583,8.50348e-05,-0.416288,1.41849,-2.54046,0.0165403,-0.0151023,-0.0300961,0.00272071,104,443,0.00794781,-0.0779417,59.2118,88.8394,59.1837,88.9183,6.49204e-05,6.89908e-05,0.000229986
-17.6397,11.1283,-298.074,0.000745737,0.00284806,0.00103022,6.57024e-05,7.48376e-06,5.27606e-05,9.68512e-05,-2.3665e-05,0.533315,0.000110599,-0.406814,1.40754,-2.61384,0.0177502,-0.0141425,-0.0288347,0.00280256,111,443,0.00665454,-0.0755678,60.2567,89.5625,60.2252,89.6428,6.59095e-05,7.13001e-05,0.000232121
-17.3528,11.1158,-298.07,0.000761201,0.00286153,0.00122967,7.13675e-05,1.63586e-06,6.45096e-05,0.00010983,-3.68271e-05,0.537648,0.00013215,-0.37267,1.42537,-2.85797,0.0202574,-0.0134463,-0.0246967,0.00285535,118,443,0.00543616,-0.0750266,61.4074,90.2685,61.374,90.35,6.77172e-05,7.24626e-05,0.000238055
-17.0637,11.1032,-298.058,0.000802148,0.00286465,0.00146905,7.20312e-05,-6.54954e-06,7.33747e-05,0.000115973,-5.04913e-05,0.539586,0.000147833,-0.351188,1.43576,-3.25959,0.0240737,-0.0127486,-0.0193878,0.00282686,125,443,0.00451833,-0.0752703,62.6598,90.9842,62.6235,91.0655,6.86816e-05,7.13498e-05,0.000240454
-16.7739,11.0904,-298.044,0.000793741,0.00286859,0.00162931,6.75788e-05,-1.7348e-05,7.87365e-05,0.000114573,-6.43417e-05,0.538099,0.000156967,-0.355727,1.47197,-3.60299,0.0294588,-0.0122633,-0.0140424,0.00274232,132,443,0.00303044,-0.0761148,63.9449,91.7043,63.9078,91.7851,6.90611e-05,6.85057e-05,0.000241252
-16.4841,11.0778,-298.03,0.00084426,0.00289851,0.00182615,6.00335e-05,-2.9571e-05,8.09272e-05,0.000107732,-7.72698e-05,0.532592,0.000160939,-0.32185,1.51026,-3.82294,0.0344546,-0.0124289,-0.0105687,0.00255697,139,443,0.00267549,-0.0773013,65.2302,92.4147,65.1904,92.496,6.61531e-05,6.44638e-05,0.000231355
-16.1949,11.0653,-298.017,0.000859501,0.0029401,0.00209502,4.95058e-05,-4.26044e-05,7.88569e-05,9.47714e-05,-8.787e-05,0.5211,0.00015821,-0.307186,1.51471,-3.87625,0.0372755,-0.0119946,-0.00733326,0.00238712,146,443,0.000856212,-0.0794836,66.4849,93.121,66.4427,93.2024,6.31274e-05,6.10169e-05,0.000220206
-15.9064,11.0527,-298.006,0.000860318,0.00299545,0.00233066,3.65837e-05,-5.63465e-05,7.20587e-05,7.58593e-05,-9.5622e-05,0.499035,0.000148836,-0.269048,1.50868,-3.78523,0.0364029,-0.0109695,-0.00442585,0.00226613,153,443,-0.00106905,-0.0828278,67.6993,93.8332,67.6554,93.9144,6.03126e-05,5.78781e-05,0.000210024
-15.6177,11.0397,-297.993,0.000836915,0.00304321,0.00264882,2.02785e-05,-7.03117e-05,6.12614e-05,5.11714e-05,-0.000101204,0.467065,0.000134312,-0.280083,1.51957,-3.76967,0.0325356,-0.00956396,-0.00272791,0.00221007,160,443,-0.00422594,-0.0855067,68.9253,94.5639,68.8799,94.6452,5.85398e-05,5.65774e-05,0.000203397
-15.3285,11.0271,-297.979,0.00081195,0.00310256,0.00293287,7.58467e-07,-8.41609e-05,4.80064e-05,2.23881e-05,-0.000105791,0.423317,0.00011858,-0.282204,1.54304,-3.73245,0.0261927,-0.00761284,-0.00304445,0.00217232,167,443,-0.00713885,-0.0879349,70.1702,95.2776,70.1234,95.3597,5.68285e-05,5.55756e-05,0.000198658
-15.0393,11.0145,-297.965,0.000809663,0.00317965,0.00324538,-2.01386e-05,-9.67891e-05,3.3087e-05,-7.83207e-06,-0.000109096,0.356089,0.000105398,-0.254835,1.56182,-3.48258,0.0175532,-0.00562098,-0.00434937,0.00216647,174,443,-0.00969747,-0.0889902,71.4133,95.9821,71.3642,96.0672,5.73132e-05,5.51609e-05,0.000200277
-14.7506,11.002,-297.952,0.000807896,0.00324963,0.00356793,-3.86734e-05,-0.000107315,1.69421e-05,-3.47194e-05,-0.000111269,0.229274,9.86052e-05,-0.192812,1.60494,-3.24224,0.00752665,-0.00365038,-0.00566818,0.00222612,181,443,-0.0122891,-0.0890743,72.6358,96.6843,72.5842,96.7729,5.93969e-05,5.49803e-05,0.00020691
-14.4607,10.9893,-297.934,0.000786667,0.00324018,0.00386341,-5.3178e-05,-0.000114736,-3.60679e-08,-5.31779e-05,-0.000114736,-0.000585918,9.94524e-05,-0.165886,1.61731,-3.16408,-0.00422414,-0.00183538,-0.00656564,0.00225438,188,443,-0.0150532,-0.0876189,73.9081,97.3995,73.8549,97.4887,6.04836e-05,5.50225e-05,0.000209644
-14.1697,10.9764,-297.913,0.000716091,0.00319068,0.00394375,-6.37738e-05,-0.000119295,-1.71463e-05,-5.89055e-05,-0.000124163,-0.276649,0.000107575,-0.169257,1.59671,-3.22199,-0.0170187,-5.98957e-05,-0.00694009,0.00221022,195,443,-0.0173047,-0.0870744,75.2354,98.1261,75.1836,98.2133,5.93496e-05,5.42228e-05,0.00020599
-13.878,10.9632,-297.889,0.000686615,0.00313173,0.00397391,-6.96844e-05,-0.000121672,-3.24382e-05,-5.411e-05,-0.000137246,-0.447621,0.000119742,-0.2357,1.56317,-3.45581,-0.0298948,0.00156806,-0.0079214,0.00212834,202,443,-0.0181341,-0.0862408,76.5993,98.8696,76.5482,98.9544,5.69065e-05,5.26635e-05,0.000198961
-13.5859,10.9501,-297.864,0.000652945,0.00310809,0.00384834,-7.0903e-05,-0.000122752,-4.40422e-05,-4.57218e-05,-0.000147933,-0.519391,0.00013119,-0.286778,1.50269,-3.72257,-0.0419309,0.00248868,-0.00859415,0.00208879,209,443,-0.017889,-0.0870631,77.9753,99.6119,77.9261,99.6948,5.59087e-05,5.22081e-05,0.000195806
-13.2953,10.9373,-297.842,0.000616296,0.00306783,0.00373685,-6.95246e-05,-0.000122698,-5.19485e-05,-3.77547e-05,-0.000154468,-0.54888,0.000139477,-0.318067,1.47432,-3.79065,-0.0505599,0.00197546,-0.00750245,0.00212817,216,443,-0.0178314,-0.0883426,79.2802,100.335,79.2329,100.415,5.69775e-05,5.30303e-05,0.000199153
-13.0052,10.9246,-297.822,0.000560782,0.00304859,0.00354104,-6.61924e-05,-0.000121309,-5.63256e-05,-3.10448e-05,-0.000156457,-0.557885,0.000143476,-0.329997,1.4854,-3.74534,-0.0550806,4.87125e-05,-0.00427266,0.00223576,223,443,-0.0175916,-0.0894728,80.5583,101.05,80.514,101.127,6.00672e-05,5.50073e-05,0.000208422
-12.7135,10.9117,-297.796,0.000506347,0.00304952,0.00345418,-5.94767e-05,-0.000119224,-5.75836e-05,-2.4479e-05,-0.000154222,-0.546115,0.000143556,-0.371463,1.51326,-3.59142,-0.0565017,-0.00281345,0.00062793,0.00227226,230,443,-0.0181901,-0.0899814,81.915,101.779,81.8728,101.857,6.13908e-05,5.65557e-05,0.000211499
-12.4206,10.8985,-297.766,0.000536766,0.00302944,0.00358295,-4.86591e-05,-0.000117164,-5.69736e-05,-1.64342e-05,-0.000149389,-0.514748,0.000141887,-0.363576,1.53703,-3.24377,-0.0561677,-0.00597294,0.00628116,0.0022878,237,443,-0.0183257,-0.0879101,83.3414,102.521,83.2972,102.599,6.17733e-05,5.69013e-05,0.000212013
-12.125,10.8854,-297.727,0.000567164,0.00297633,0.00368853,-3.68694e-05,-0.000115503,-5.61705e-05,-7.62288e-06,-0.00014475,-0.48005,0.000141093,-0.378552,1.54311,-2.93624,-0.053007,-0.0087036,0.0113525,0.00227262,244,443,-0.0182544,-0.0858298,84.8992,103.263,84.8534,103.341,6.00891e-05,5.60346e-05,0.000205728
-11.8272,10.8724,-297.68,0.000571944,0.00290018,0.00377386,-2.92647e-05,-0.000113707,-5.53014e-05,-1.90959e-06,-0.000141063,-0.459362,0.000140118,-0.414793,1.53873,-2.82907,-0.0448545,-0.0103521,0.0148545,0.00224236,251,443,-0.0186261,-0.0830125,86.5767,104.002,86.5301,104.077,5.75391e-05,5.47827e-05,0.000197762
-11.528,10.8594,-297.629,0.000543464,0.00284641,0.00386958,-2.3587e-05,-0.000111604,-5.56653e-05,3.36486e-06,-0.000138556,-0.45091,0.000140269,-0.45558,1.49535,-2.95723,-0.0314805,-0.0111161,0.0163171,0.00227441,258,443,-0.0199483,-0.0821803,88.3194,104.742,88.2729,104.816,5.84947e-05,5.47945e-05,0.000202011
-11.2281,10.8463,-297.574,0.000516903,0.00287941,0.00398817,-1.66108e-05,-0.000108677,-5.7609e-05,1.10979e-05,-0.000136385,-0.448315,0.000142259,-0.489555,1.49368,-3.17479,-0.0175747,-0.0108741,0.0165958,0.00236419,265,443,-0.0214971,-0.083756,90.106,105.483,90.0593,105.557,6.272e-05,5.58637e-05,0.000215934
-10.9294,10.8333,-297.523,0.000472097,0.00291825,0.00369987,-1.04885e-05,-0.000104225,-6.17484e-05,2.01642e-05,-0.000134878,-0.460774,0.000146008,-0.495741,1.50658,-3.24141,-0.00653317,-0.00945977,0.0162729,0.00240173,272,443,-0.0203734,-0.086564,91.8283,106.221,91.7849,106.294,6.4166e-05,5.7168e-05,0.000221143
-10.6314,10.8201,-297.473,0.000438138,0.0029779,0.00337084,-7.49759e-06,-9.83923e-05,-6.78752e-05,2.87404e-05,-0.00013463,-0.490392,0.000151065,-0.505668,1.52993,-3.18179,0.00225089,-0.00641897,0.015345,0.00241541,279,443,-0.0187091,-0.0903146,93.516,106.969,93.476,107.042,6.47722e-05,5.76821e-05,0.0002235
-10.3353,10.8067,-297.428,0.00043501,0.00304036,0.00274116,-1.02146e-05,-9.16428e-05,-7.40403e-05,3.35675e-05,-0.000135425,-0.534019,0.00015496,-0.495191,1.57604,-3.10888,0.0108414,-0.00241806,0.0138472,0.00226991,286,443,-0.0139635,-0.0930992,95.1095,107.727,95.0742,107.801,6.05625e-05,5.76717e-05,0.000210591
-10.0403,10.7932,-297.387,0.000589006,0.00306604,0.0027191,-1.68121e-05,-8.44063e-05,-7.88002e-05,3.5133e-05,-0.000136351,-0.582815,0.000156896,-0.510279,1.63183,-3.10658,0.0198843,0.00254589,0.0118723,0.00222845,293,443,-0.00996699,-0.0947112,96.6511,108.484,96.6116,108.558,5.58283e-05,5.7383e-05,0.000194744
-9.74282,10.7798,-297.337,0.000642334,0.00301542,0.00283992,-2.35683e-05,-7.65492e-05,-8.27088e-05,3.67887e-05,-0.000136906,-0.630417,0.000158535,-0.50965,1.63922,-3.23354,0.027621,0.00717021,0.00988955,0.00220579,300,443,-0.0094814,-0.0947598,98.327,109.244,98.2851,109.315,5.48738e-05,5.66249e-05,0.000191039
-9.44145,10.7666,-297.273,0.000609432,0.00295816,0.00274211,-3.06747e-05,-6.80287e-05,-8.58986e-05,3.85539e-05,-0.000137257,-0.678349,0.000160056,-0.464123,1.61812,-3.29109,0.03296,0.0112698,0.0082846,0.00221474,307,443,-0.00945269,-0.0946822,100.204,110,100.164,110.069,5.64977e-05,5.59021e-05,0.000196167
-9.13736,10.753,-297.2,0.000580046,0.00287755,0.0027095,-3.71257e-05,-6.01045e-05,-8.82806e-05,4.041e-05,-0.00013764,-0.720689,0.000161678,-0.383522,1.56025,-3.21597,0.0359942,0.0146895,0.00640883,0.00221404,314,443,-0.00980338,-0.0935021,102.228,110.774,102.189,110.839,5.75795e-05,5.51242e-05,0.000199318
-8.83209,10.7392,-297.122,0.000572403,0.00277991,0.0027122,-4.15249e-05,-5.36132e-05,-8.89458e-05,4.15819e-05,-0.00013672,-0.751474,0.000161575,-0.324794,1.49584,-3.13419,0.0369129,0.0173209,0.00341739,0.00220797,321,443,-0.00985894,-0.0915133,104.319,111.565,104.28,111.627,5.84144e-05,5.44549e-05,0.00020197
-8.52843,10.7253,-297.049,0.000602342,0.00266915,0.00282896,-4.37421e-05,-4.89197e-05,-8.73407e-05,4.10481e-05,-0.00013371,-0.770582,0.000158278,-0.325784,1.43971,-3.06141,0.0362709,0.0187714,-0.000104657,0.00219917,328,443,-0.00983581,-0.0894426,106.332,112.361,106.292,112.42,5.83986e-05,5.45162e-05,0.000202042
-8.22627,10.7114,-296.98,0.00062076,0.00261231,0.00303041,-4.53939e-05,-4.53029e-05,-8.30958e-05,3.77474e-05,-0.000128444,-0.785672,0.000150901,-0.343815,1.42904,-3.03339,0.035898,0.0191257,-0.00330596,0.00217776,335,443,-0.0107773,-0.0877844,108.272,113.148,108.23,113.205,5.74918e-05,5.4866e-05,0.000198953
-7.92665,10.6979,-296.918,0.000571914,0.0026622,0.00311385,-4.88243e-05,-4.1749e-05,-7.58642e-05,3.066e-05,-0.000121233,-0.808697,0.000139121,-0.346065,1.4597,-2.98646,0.0366021,0.0185565,-0.0056135,0.00217413,342,443,-0.0125944,-0.0878969,110.08,113.912,110.038,113.972,5.7264e-05,5.60766e-05,0.000197997
-7.62749,10.6847,-296.858,0.000521822,0.00272116,0.00299618,-5.25274e-05,-3.80516e-05,-6.64377e-05,2.15413e-05,-0.00011212,-0.839655,0.000124299,-0.325163,1.49552,-2.98291,0.0368208,0.017041,-0.00689545,0.00218311,349,443,-0.0129648,-0.0898455,111.866,114.662,111.827,114.723,5.74904e-05,5.55711e-05,0.000198346
-7.32915,10.6718,-296.799,0.000491746,0.00276347,0.00286906,-5.3777e-05,-3.41944e-05,-5.69224e-05,1.37727e-05,-0.000101744,-0.87057,0.000109283,-0.296402,1.51646,-2.92598,0.0364345,0.0141869,-0.00761819,0.00217307,356,443,-0.0127531,-0.0914039,113.615,115.393,113.577,115.454,5.75783e-05,5.45336e-05,0.00019842
-7.03232,10.6591,-296.744,0.000483921,0.00275621,0.00266457,-5.60653e-05,-2.93032e-05,-4.89459e-05,8.05777e-06,-9.34262e-05,-0.91883,9.77046e-05,-0.309898,1.4846,-2.8264,0.0351713,0.0103466,-0.00798566,0.0021552,363,443,-0.0113688,-0.0923582,115.287,116.114,115.251,116.174,5.72041e-05,5.21491e-05,0.000197218
-6.73766,10.6463,-296.696,0.000492235,0.00272787,0.00248896,-6.28734e-05,-2.33052e-05,-4.30027e-05,4.24618e-06,-9.04248e-05,-1.001,9.26209e-05,-0.341227,1.43132,-2.75987,0.0349446,0.00576558,-0.00895656,0.00209007,370,443,-0.00976887,-0.0920667,116.847,116.836,116.812,116.895,5.56766e-05,4.96513e-05,0.000192036
-6.44511,10.6333,-296.654,0.00050764,0.00270282,0.00231399,-7.31261e-05,-1.62291e-05,-3.9027e-05,3.61757e-06,-9.29728e-05,-1.10034,9.48333e-05,-0.351831,1.38417,-2.71375,0.0357746,0.000956294,-0.0107248,0.0020544,377,443,-0.00800301,-0.0916846,118.296,117.57,118.262,117.628,5.48109e-05,5.01855e-05,0.000189135
-6.1524,10.6199,-296.612,0.00056784,0.00270685,0.0023802,-8.30085e-05,-8.78424e-06,-3.68971e-05,6.43628e-06,-9.82291e-05,-1.17955,0.0001016,-0.345892,1.39633,-2.70806,0.0347092,-0.00399312,-0.0120563,0.00204464,384,443,-0.00695421,-0.092167,119.759,118.322,119.723,118.38,5.46679e-05,5.05617e-05,0.0001887
-5.85847,10.6064,-296.564,0.000609108,0.00273544,0.00239841,-8.92876e-05,-1.37508e-06,-3.66946e-05,1.19281e-05,-0.000102591,-1.223,0.000109045,-0.328412,1.44462,-2.66552,0.0295927,-0.00882554,-0.0126104,0.002079,391,443,-0.00603336,-0.0926324,121.29,119.081,121.252,119.14,5.54223e-05,5.10471e-05,0.000191416
-5.56469,10.5935,-296.516,0.000602532,0.00276886,0.00229592,-9.30988e-05,5.35233e-06,-3.71179e-05,1.77781e-05,-0.000105525,-1.24776,0.000115445,-0.291486,1.5035,-2.63825,0.0211205,-0.013633,-0.0133026,0.00212117,398,443,-0.00543881,-0.094329,122.815,119.812,122.779,119.871,5.66131e-05,5.17839e-05,0.000195395
-5.27108,10.5805,-296.468,0.000543934,0.00276916,0.00213032,-9.74738e-05,1.09014e-05,-3.67028e-05,2.21614e-05,-0.000108734,-1.27312,0.000121342,-0.265384,1.51834,-2.62769,0.0112735,-0.016976,-0.014532,0.00208671,405,443,-0.00565722,-0.0957226,124.333,120.542,124.299,120.6,5.56111e-05,5.17944e-05,0.000191876
-4.97826,10.5677,-296.422,0.000466663,0.00276533,0.00194095,-0.000101766,1.48484e-05,-3.48873e-05,2.44887e-05,-0.000111406,-1.3012,0.000125456,-0.247578,1.51263,-2.72002,0.000535612,-0.0185414,-0.0153556,0.00206746,412,443,-0.0061516,-0.0959498,125.811,121.265,125.781,121.322,5.41373e-05,5.19279e-05,0.000186684
-4.68446,10.5547,-296.372,0.000420076,0.00277671,0.00194228,-0.000103153,1.81418e-05,-3.1762e-05,2.59555e-05,-0.000110967,-1.32958,0.000125966,-0.253198,1.50059,-2.86831,-0.010069,-0.0184746,-0.0152149,0.00206299,419,443,-0.0072918,-0.0958104,127.349,121.999,127.32,122.058,5.37806e-05,5.23546e-05,0.000185452
-4.38841,10.5413,-296.313,0.000360288,0.00277611,0.00192642,-9.9523e-05,2.05101e-05,-2.78462e-05,2.66554e-05,-0.000105668,-1.35359,0.000121214,-0.273395,1.49097,-2.9993,-0.0198208,-0.0166308,-0.0142231,0.00208607,426,443,-0.00860517,-0.0942785,129.013,122.752,128.986,122.812,5.44575e-05,5.2331e-05,0.000187873
-4.09029,10.5278,-296.247,0.000313832,0.00273128,0.00182714,-9.16081e-05,2.20316e-05,-2.32329e-05,2.6598e-05,-9.61744e-05,-1.37672,0.00011187,-0.261761,1.49771,-3.06106,-0.0278536,-0.0125881,-0.0131251,0.00209806,433,443,-0.00893204,-0.0918824,130.796,123.522,130.771,123.581,5.44638e-05,5.28096e-05,0.000187938
-3.79102,10.5143,-296.176,0.000328455,0.00268364,0.0016937,-8.05948e-05,2.26563e-05,-1.78263e-05,2.56473e-05,-8.35859e-05,-1.40456,9.8935e-05,-0.238771,1.54098,-3.0386,-0.0334398,-0.00623323,-0.0124288,0.00211344,440,443,-0.00748171,-0.0896296,132.65,124.285,132.626,124.345,5.39827e-05,5.37707e-05,0.000186264
-3.49096,10.501,-296.101,0.000412894,0.00264634,0.00158809,-6.79145e-05,2.25266e-05,-1.10335e-05,2.38532e-05,-6.92411e-05,-1.45114,8.37552e-05,-0.228783,1.53838,-2.99697,-0.0358699,0.00159075,-0.0120506,0.00212222,447,443,-0.00449233,-0.0874656,134.558,125.042,134.531,125.101,5.22947e-05,5.43855e-05,0.000180223
-3.19008,10.4878,-296.023,0.000497767,0.00261671,0.00152401,-5.51868e-05,2.28484e-05,-2.92237e-06,2.29577e-05,-5.52961e-05,-1.53342,6.9672e-05,-0.240844,1.51328,-2.95009,-0.0353115,0.00986209,-0.0112195,0.00213647,454,443,-0.00182599,-0.0867404,136.518,125.801,136.49,125.859,5.15952e-05,5.46292e-05,0.000177582
-2.88691,10.4741,-295.935,0.000474566,0.00258396,0.00155508,-4.5157e-05,2.45526e-05,5.88625e-06,2.50462e-05,-4.56505e-05,1.48715,6.20859e-05,-0.300352,1.47426,-2.85345,-0.0329473,0.0176335,-0.00979217,0.00212033,461,443,-0.00258951,-0.0872933,138.611,126.582,138.583,126.638,5.24005e-05,5.40993e-05,0.000180236
-2.58108,10.4601,-295.837,0.000406704,0.00256845,0.00155045,-3.87369e-05,2.73339e-05,1.51856e-05,3.0657e-05,-4.206e-05,1.35536,6.32323e-05,-0.397797,1.45087,-2.93679,-0.0279784,0.0245812,-0.00795329,0.00215381,468,443,-0.00425239,-0.0890494,140.859,127.385,140.834,127.439,5.51906e-05,5.41671e-05,0.000189902
-2.27301,10.4458,-295.731,0.000360298,0.00260018,0.00163406,-3.32215e-05,3.07985e-05,2.35413e-05,3.8523e-05,-4.09461e-05,1.25374,6.88329e-05,-0.47575,1.42041,-3.0591,-0.0207509,0.0306021,-0.0057199,0.0022703,475,443,-0.00603346,-0.0902091,143.244,128.206,143.219,128.261,5.953e-05,5.53253e-05,0.00020478
-1.96436,10.4318,-295.621,0.000377865,0.00265838,0.0016415,-2.70924e-05,3.39816e-05,3.02085e-05,4.63988e-05,-3.95096e-05,1.1808,7.44785e-05,-0.481197,1.40647,-3.03662,-0.0116771,0.0351804,-0.00352186,0.00241435,482,443,-0.00566608,-0.0912321,145.675,129.014,145.649,129.07,6.37971e-05,5.79648e-05,0.000219256
-1.65615,10.4178,-295.512,0.000401227,0.00267576,0.00158163,-2.14431e-05,3.68484e-05,3.54812e-05,5.36198e-05,-3.82145e-05,1.12924,7.9903e-05,-0.415415,1.41353,-2.87779,-0.00338407,0.0377425,-0.002713,0.0025082,489,443,-0.00461283,-0.0906772,148.091,129.819,148.065,129.877,6.60681e-05,5.96566e-05,0.000226865
-1.35038,10.4042,-295.41,0.000401248,0.00264716,0.00149625,-1.71363e-05,3.85942e-05,3.97326e-05,5.92588e-05,-3.78009e-05,1.0912,8.47382e-05,-0.378186,1.39792,-2.72328,0.000657674,0.0379446,-0.00268808,0.00251275,496,443,-0.00392173,-0.0892376,150.38,130.602,150.354,130.66,6.65627e-05,5.93109e-05,0.000228415
-1.04904,10.3913,-295.323,0.000422015,0.00263719,0.00139097,-1.3649e-05,3.88248e-05,4.29196e-05,6.28917e-05,-3.77159e-05,1.05974,8.80333e-05,-0.347074,1.37812,-2.76446,0.000562578,0.0355368,-0.00169878,0.00247045,503,443,-0.00260784,-0.0893895,152.427,131.346,152.402,131.403,6.60451e-05,5.83513e-05,0.000226383
-0.752188,10.3784,-295.25,0.000384669,0.00263723,0.00158563,-7.23668e-06,3.68467e-05,4.60451e-05,6.58539e-05,-3.62439e-05,1.00863,8.96502e-05,-0.33451,1.36075,-2.94378,-0.00170696,0.0309417,0.000403401,0.00246423,510,443,-0.00491677,-0.0897954,154.229,132.079,154.203,132.136,6.58638e-05,5.6868e-05,0.000225505
-0.45723,10.3651,-295.184,0.00028264,0.00271367,0.00167852,1.95509e-06,3.32121e-05,4.86128e-05,6.86469e-05,-3.34796e-05,0.940925,9.01751e-05,-0.330905,1.42902,-3.03343,-0.00300201,0.0249854,0.00293455,0.00255862,517,443,-0.00820415,-0.0913607,155.926,132.831,155.902,132.891,6.84312e-05,5.66013e-05,0.000233971
-0.161772,10.3519,-295.115,0.000167522,0.00275857,0.00171185,9.28661e-06,2.74205e-05,5.08474e-05,7.00031e-05,-3.32959e-05,0.873629,9.13229e-05,-0.338323,1.48532,-2.88706,-0.00410151,0.018916,0.00553441,0.0026388,524,443,-0.0113736,-0.0925384,157.657,133.583,157.636,133.644,7.05888e-05,5.68901e-05,0.000241295
0.134595,10.3383,-295.041,0.000161899,0.00273875,0.00173106,1.60892e-05,2.05579e-05,5.37173e-05,7.20872e-05,-3.54402e-05,0.806184,9.49071e-05,-0.321125,1.52986,-2.91049,-0.0110159,0.0120286,0.00860502,0.00265509,531,443,-0.011604,-0.0923782,159.451,134.357,159.43,134.417,7.08724e-05,5.81161e-05,0.000242329
0.431564,10.3246,-294.965,0.000202917,0.00267695,0.00173536,2.20115e-05,1.23772e-05,5.67965e-05,7.41947e-05,-3.98061e-05,0.743092,0.000100214,-0.313074,1.51628,-2.93465,-0.0200184,0.00404783,0.0135121,0.00258253,538,443,-0.0105075,-0.0916249,161.289,135.137,161.267,135.194,6.91207e-05,5.86003e-05,0.000236114
0.728698,10.3111,-294.887,0.000332243,0.00261494,0.00171284,2.71727e-05,3.14519e-06,5.98009e-05,7.61546e-05,-4.58367e-05,0.68627,0.00010673,-0.275143,1.44151,-3.25386,-0.0281594,-0.00489732,0.0202631,0.00251043,545,443,-0.00698654,-0.0913236,163.148,135.908,163.122,135.962,6.65191e-05,5.96767e-05,0.000225972
1.02543,10.298,-294.81,0.000432688,0.00261348,0.00153443,2.95117e-05,-7.0189e-06,6.2947e-05,7.67899e-05,-5.42971e-05,0.644191,0.00011408,-0.217418,1.39575,-3.68928,-0.0333756,-0.0142677,0.0284473,0.00255302,552,443,-0.00315675,-0.0919752,164.991,136.656,164.964,136.71,6.64104e-05,6.03006e-05,0.000224277
1.32137,10.2851,-294.734,0.0004928,0.00270262,0.0013231,2.53433e-05,-1.76243e-05,6.69739e-05,7.41948e-05,-6.64758e-05,0.630194,0.000121885,-0.233266,1.37966,-3.8368,-0.0355826,-0.0239717,0.0374994,0.00257337,559,443,-0.000195385,-0.0933186,166.794,137.39,166.768,137.448,6.80551e-05,6.00691e-05,0.000229577
1.61615,10.2723,-294.662,0.000563217,0.00282061,0.00117379,1.14086e-05,-2.70983e-05,7.12795e-05,6.59892e-05,-8.16789e-05,0.65349,0.000128125,-0.298303,1.40708,-3.77823,-0.0344413,-0.0349297,0.0472774,0.00257303,566,443,0.00256558,-0.0949499,168.54,138.12,168.513,138.182,6.87443e-05,5.96065e-05,0.000231701
1.90881,10.2591,-294.596,0.000564334,0.00286877,0.00110512,-1.49647e-05,-3.40744e-05,7.60585e-05,5.21368e-05,-0.000101176,0.722913,0.000135018,-0.366106,1.502,-3.47683,-0.0234093,-0.04798,0.0586868,0.00258335,573,443,0.00306855,-0.095135,170.168,138.864,170.14,138.928,7.02119e-05,5.94398e-05,0.000235898
0,0,0,0,0,0,0,0,0,0,0,0,0,0,0,0,0,0,0,-1,580,443,0,0,0,0,0,0,0,0,0
0,0,0,0,0,0,0,0,0,0,0,0,0,0,0,0,0,0,0,-1,587,443,0,0,0,0,0,0,0,0,0
0,0,0,0,0,0,0,0,0,0,0,0,0,0,0,0,0,0,0,-1,594,443,0,0,0,0,0,0,0,0,0
0,0,0,0,0,0,0,0,0,0,0,0,0,0,0,0,0,0,0,-1,601,443,0,0,0,0,0,0,0,0,0
0,0,0,0,0,0,0,0,0,0,0,0,0,0,0,0,0,0,0,-1,62,450,0,0,0,0,0,0,0,0,0
0,0,0,0,0,0,0,0,0,0,0,0,0,0,0,0,0,0,0,-1,69,450,0,0,0,0,0,0,0,0,0
0,0,0,0,0,0,0,0,0,0,0,0,0,0,0,0,0,0,0,-1,76,450,0,0,0,0,0,0,0,0,0
-18.7869,10.9067,-298.052,0.000596308,0.00290305,0.000425793,1.72664e-06,1.07237e-05,1.08663e-05,1.79858e-05,-5.53546e-06,0.981653,2.13e-05,-0.420723,1.45254,-2.91361,0.0494694,-0.0176374,-0.000794819,0.00241899,83,450,0.00769862,-0.0838008,55.5588,87.639,55.536,87.7152,6.39405e-05,5.78348e-05,0.000228213
-18.5115,10.895,-298.083,0.000580887,0.00294456,0.00053449,1.71901e-05,1.03995e-05,1.57964e-05,2.9952e-05,-2.36235e-06,0.679537,3.12003e-05,-0.394634,1.44922,-2.76853,0.0345593,-0.0155028,-0.0126031,0.00246964,90,450,0.00640451,-0.0842474,56.1628,88.2901,56.1396,88.368,6.48303e-05,5.95762e-05,0.000230803
-18.2324,10.8828,-298.102,0.000606818,0.00291253,0.0006235,3.56843e-05,9.07392e-06,2.59278e-05,5.15215e-05,-6.76327e-06,0.548337,5.52147e-05,-0.371143,1.45218,-2.55762,0.0235945,-0.0130524,-0.0213728,0.00254284,97,450,0.00639971,-0.0811597,56.9442,88.9701,56.9195,89.049,6.49626e-05,6.38234e-05,0.000230905
-17.9504,10.87,-298.113,0.000666839,0.00286865,0.000796298,5.22607e-05,6.38172e-06,3.91259e-05,7.4676e-05,-1.60336e-05,0.520256,8.38505e-05,-0.332428,1.44068,-2.54081,0.0195384,-0.0114507,-0.025599,0.00267162,104,450,0.00655097,-0.0783138,57.8617,89.6871,57.8341,89.7662,6.55179e-05,6.79845e-05,0.000232304
-17.6657,10.8572,-298.116,0.000734899,0.00283153,0.0010008,6.44718e-05,2.68137e-06,5.2823e-05,9.47713e-05,-2.76181e-05,0.520784,0.000111183,-0.301276,1.451,-2.69923,0.0197721,-0.0107434,-0.0254087,0.00275087,111,450,0.00664713,-0.0752837,58.9069,90.4085,58.8759,90.4882,6.68859e-05,7.01084e-05,0.000235888
-17.3788,10.8447,-298.111,0.000814237,0.00284208,0.00116259,7.22897e-05,-2.36763e-06,6.54178e-05,0.00011028,-4.03577e-05,0.52613,0.000135059,-0.269174,1.50796,-3.00136,0.0214886,-0.0101154,-0.0224931,0.00281278,118,450,0.00730998,-0.0742826,60.0595,91.1113,60.025,91.1924,6.92632e-05,7.12407e-05,0.000242915
-17.0898,10.8321,-298.1,0.000858588,0.00285646,0.00130413,7.52989e-05,-9.38934e-06,7.55924e-05,0.000119599,-5.36895e-05,0.530092,0.000153648,-0.267612,1.53759,-3.42212,0.0245579,-0.00922141,-0.0183047,0.00278586,125,450,0.00726128,-0.074615,61.3053,91.8229,61.2686,91.9044,6.98404e-05,6.9953e-05,0.000243552
-16.8004,10.8196,-298.087,0.000853391,0.0028767,0.00156157,7.30758e-05,-1.85608e-05,8.2442e-05,0.000121576,-6.70611e-05,0.531769,0.000165623,-0.271755,1.56301,-3.67629,0.029373,-0.00823646,-0.0137768,0.00274054,132,450,0.00504314,-0.0759035,62.5701,92.5291,62.5317,92.6105,7.06218e-05,6.80964e-05,0.000245494
-16.5111,10.8071,-298.075,0.000852898,0.00289095,0.00172384,6.76864e-05,-2.89721e-05,8.5764e-05,0.000117801,-7.90866e-05,0.528818,0.000171605,-0.242338,1.57331,-3.86634,0.0340722,-0.00753507,-0.0109982,0.0025668,139,450,0.00372112,-0.0773588,63.8298,93.2327,63.7904,93.3135,6.76561e-05,6.47049e-05,0.000235662
-16.2219,10.7946,-298.062,0.00081441,0.00291546,0.00197408,5.90349e-05,-4.00371e-05,8.4902e-05,0.000107795,-8.87974e-05,0.521318,0.000170519,-0.270265,1.55493,-3.91824,0.0368117,-0.00621668,-0.00827926,0.00241706,146,450,0.00076631,-0.0782633,65.0796,93.9395,65.0395,94.0206,6.42996e-05,6.15316e-05,0.000223773
-15.9328,10.7819,-298.049,0.000814328,0.00296059,0.00228188,4.75628e-05,-5.19854e-05,7.92612e-05,9.13825e-05,-9.58051e-05,0.50503,0.000162124,-0.248105,1.5473,-3.83575,0.0360715,-0.00431683,-0.00573251,0.00232875,153,450,-0.00173033,-0.080104,66.3259,94.6567,66.2836,94.7384,6.20293e-05,5.90036e-05,0.000216054
-15.6424,10.769,-298.032,0.000798183,0.00298907,0.00255638,3.22533e-05,-6.45197e-05,6.9309e-05,6.83949e-05,-0.000100661,0.480664,0.000147293,-0.24937,1.56043,-3.81464,0.0325496,-0.00204592,-0.0042131,0.00231104,160,450,-0.00433022,-0.0818761,67.6307,95.3844,67.587,95.466,6.18378e-05,5.80527e-05,0.000214807
-15.3505,10.7564,-298.009,0.000814915,0.0030536,0.0029212,1.33764e-05,-7.72966e-05,5.63029e-05,4.03269e-05,-0.000104247,0.446439,0.00012922,-0.267572,1.57792,-3.87693,0.0266379,0.000626162,-0.00444725,0.00230015,167,450,-0.00687132,-0.084319,69.0101,96.0959,68.9632,96.1786,6.11974e-05,5.76334e-05,0.000213349
-15.0581,10.7438,-297.985,0.000829972,0.00313808,0.00329582,-7.1107e-06,-8.92572e-05,4.09195e-05,9.79377e-06,-0.000106162,0.391761,0.000111382,-0.2662,1.5759,-3.7292,0.0186074,0.00318106,-0.00539139,0.00229047,174,450,-0.00952123,-0.0862464,70.4167,96.8043,70.3667,96.8895,6.10996e-05,5.74445e-05,0.000212705
-14.7666,10.7313,-297.963,0.00082979,0.00321854,0.00365635,-2.56142e-05,-9.95613e-05,2.36895e-05,-1.8676e-05,-0.000106499,0.28491,9.84985e-05,-0.228545,1.57734,-3.53518,0.00916343,0.00549045,-0.00619051,0.00229561,181,450,-0.0123979,-0.0871485,71.7748,97.5097,71.7219,97.5981,6.12906e-05,5.66475e-05,0.000213133
-14.476,10.7184,-297.944,0.000795051,0.00321994,0.00397397,-4.05707e-05,-0.000107219,5.45973e-06,-4.01264e-05,-0.000107663,0.0811973,9.42409e-05,-0.182271,1.57106,-3.36294,-0.00250204,0.00737874,-0.00645077,0.00228244,188,450,-0.0156786,-0.0858368,73.0854,98.2338,73.0311,98.3235,6.1249e-05,5.55498e-05,0.000212117
-14.185,10.7054,-297.923,0.000727155,0.00318437,0.00404629,-5.2166e-05,-0.000112601,-1.27586e-05,-4.9583e-05,-0.000115185,-0.199758,0.000100074,-0.161007,1.52995,-3.30932,-0.0154244,0.00883643,-0.00627399,0.00225169,195,450,-0.0177943,-0.0845825,74.4098,98.9668,74.3569,99.0556,6.04803e-05,5.47374e-05,0.00020949
-13.8942,10.6924,-297.902,0.000703071,0.00310971,0.00408978,-5.94709e-05,-0.000116288,-2.90489e-05,-4.72483e-05,-0.00012851,-0.398272,0.000112585,-0.197355,1.49385,-3.4354,-0.0287391,0.00974443,-0.00672794,0.00221718,202,450,-0.0185725,-0.0831107,75.7257,99.7012,75.6732,99.7875,5.93754e-05,5.38283e-05,0.000206461
-13.6035,10.6795,-297.88,0.000692843,0.00305452,0.00397529,-6.23871e-05,-0.0001191,-4.17353e-05,-4.02864e-05,-0.000141201,-0.487002,0.000125985,-0.220535,1.4458,-3.6357,-0.0415557,0.00951302,-0.00697187,0.00221557,209,450,-0.0178079,-0.0835857,77.0398,100.427,76.9885,100.51,5.87902e-05,5.41249e-05,0.000204852
-13.3134,10.6671,-297.861,0.000672954,0.00300976,0.00391,-6.30309e-05,-0.000120956,-5.09326e-05,-3.34019e-05,-0.000150585,-0.526877,0.000136973,-0.246961,1.43729,-3.68033,-0.051091,0.00766352,-0.00566029,0.00225864,216,450,-0.0177059,-0.0854759,78.3166,101.134,78.2664,101.213,5.94658e-05,5.56791e-05,0.00020727
-13.0226,10.6545,-297.838,0.000612616,0.00300267,0.00369871,-6.18777e-05,-0.000121539,-5.6642e-05,-2.76912e-05,-0.000155725,-0.543028,0.000143892,-0.266546,1.4647,-3.64176,-0.0566136,0.00441956,-0.00254793,0.00234333,223,450,-0.0174759,-0.0871058,79.6265,101.845,79.5797,101.922,6.20598e-05,5.76224e-05,0.000215238
-12.7301,10.6417,-297.81,0.000569732,0.00302727,0.00360307,-5.74036e-05,-0.000121207,-5.89272e-05,-2.22967e-05,-0.000156314,-0.5373,0.000146444,-0.291056,1.51009,-3.44991,-0.0587582,0.000424916,0.00182153,0.00235365,230,450,-0.0177479,-0.0884903,81.0266,102.565,80.9815,102.642,6.29471e-05,5.83423e-05,0.00021723
-12.4357,10.6287,-297.775,0.000613807,0.00303903,0.00375048,-4.86234e-05,-0.000120409,-5.89937e-05,-1.54615e-05,-0.000153571,-0.512105,0.000146454,-0.314343,1.55637,-3.18964,-0.0589219,-0.0034941,0.00650074,0.00233599,237,450,-0.017729,-0.0874651,82.529,103.297,82.4814,103.376,6.32285e-05,5.78898e-05,0.000217324
-12.1386,10.6155,-297.732,0.000640304,0.00300666,0.00382857,-3.86503e-05,-0.000119399,-5.86431e-05,-7.82702e-06,-0.000150222,-0.483923,0.000146466,-0.361325,1.55803,-3.04977,-0.0560859,-0.00653538,0.0102929,0.00234344,244,450,-0.017559,-0.0859136,84.1638,104.047,84.1149,104.125,6.18788e-05,5.77359e-05,0.000211739
-11.8403,10.6024,-297.684,0.000605247,0.00294626,0.00385667,-3.2593e-05,-0.00011776,-5.81578e-05,-3.0954e-06,-0.000147257,-0.469391,0.000145734,-0.390744,1.56127,-2.96162,-0.0481119,-0.00791634,0.0124742,0.00227524,251,450,-0.0184941,-0.0840917,85.8595,104.792,85.8113,104.869,5.81791e-05,5.59963e-05,0.000199752
-11.5418,10.5892,-297.634,0.000591318,0.00291446,0.00397047,-2.79014e-05,-0.000115263,-5.93129e-05,2.07935e-06,-0.000145244,-0.468012,0.000146295,-0.42513,1.52487,-3.04408,-0.0347463,-0.00802163,0.0126882,0.00222233,258,450,-0.0196227,-0.0840174,87.5726,105.54,87.524,105.616,5.67371e-05,5.43374e-05,0.000195798
-11.2429,10.5763,-297.583,0.00059242,0.00295971,0.00411248,-2.14718e-05,-0.000111553,-6.22847e-05,1.03514e-05,-0.000143376,-0.472354,0.000148822,-0.471366,1.50701,-3.23507,-0.0209321,-0.00680027,0.0118895,0.00227167,265,450,-0.0206725,-0.085512,89.3051,106.274,89.2552,106.351,5.96951e-05,5.43499e-05,0.000205656
-10.9447,10.5634,-297.533,0.000546316,0.00298515,0.00380449,-1.56094e-05,-0.00010608,-6.74888e-05,2.04016e-05,-0.000142091,-0.490154,0.000153313,-0.467076,1.51702,-3.26752,-0.00999287,-0.00427334,0.0105476,0.00233111,272,450,-0.0194122,-0.0881115,91.0055,107.011,90.9592,107.086,6.20291e-05,5.5416e-05,0.000213953
-10.6472,10.5503,-297.484,0.000505304,0.00303911,0.00341991,-1.2546e-05,-9.93133e-05,-7.45456e-05,3.03211e-05,-0.00014218,-0.521868,0.000159517,-0.487156,1.52616,-3.19622,-0.00100926,-0.000311462,0.00877551,0.00233719,279,450,-0.0174824,-0.0916268,92.668,107.753,92.6257,107.828,6.23756e-05,5.68521e-05,0.000215836
-10.3509,10.5369,-297.439,0.000506505,0.00310381,0.00290491,-1.46661e-05,-9.19026e-05,-8.16021e-05,3.69945e-05,-0.000143563,-0.564388,0.000165197,-0.472345,1.55987,-3.07974,0.00816992,0.00424234,0.00683174,0.00225279,286,450,-0.0135007,-0.0938141,94.2698,108.507,94.2311,108.584,5.92976e-05,5.77944e-05,0.000206211
-10.0547,10.5235,-297.394,0.000602013,0.00306968,0.0029672,-2.05331e-05,-8.423e-05,-8.71335e-05,4.03901e-05,-0.000145153,-0.610184,0.000169008,-0.485316,1.60154,-3.14753,0.0178979,0.0093109,0.00499788,0.00223789,293,450,-0.0115371,-0.0941976,95.8743,109.267,95.8325,109.342,5.62837e-05,5.74504e-05,0.000196242
-9.75558,10.5103,-297.339,0.000597795,0.00297244,0.00301699,-2.6479e-05,-7.61376e-05,-9.18612e-05,4.38493e-05,-0.000146466,-0.653407,0.000172619,-0.486972,1.58598,-3.23916,0.0261126,0.0136644,0.00375984,0.00219158,300,450,-0.0118869,-0.0935319,97.6304,110.024,97.5885,110.094,5.60036e-05,5.60782e-05,0.000194641
-9.45212,10.497,-297.269,0.000561882,0.00288487,0.0028276,-3.28362e-05,-6.74876e-05,-9.56374e-05,4.70322e-05,-0.000147356,-0.69579,0.00017566,-0.442183,1.56374,-3.23797,0.0319098,0.0171203,0.0031595,0.00217521,307,450,-0.0112033,-0.0930394,99.6155,110.784,99.5762,110.85,5.68711e-05,5.47754e-05,0.000197248
-9.14641,10.4835,-297.19,0.00054757,0.0028296,0.00274112,-3.87838e-05,-5.95669e-05,-9.8057e-05,4.94307e-05,-0.000147781,-0.732608,0.000177729,-0.371638,1.5127,-3.16063,0.0357322,0.0194942,0.00256891,0.00217936,314,450,-0.0107888,-0.0920996,101.725,111.563,101.687,111.628,5.76468e-05,5.39403e-05,0.000199356
-8.83878,10.4697,-297.105,0.000587007,0.00277565,0.00275057,-4.28603e-05,-5.33118e-05,-9.83694e-05,5.0422e-05,-0.000146594,-0.758861,0.000177268,-0.337393,1.47539,-3.15712,0.0376365,0.0205612,0.00108769,0.00220801,321,450,-0.00978359,-0.0917528,103.942,112.354,103.903,112.416,5.90006e-05,5.44601e-05,0.000203789
-8.5338,10.4562,-297.027,0.000650864,0.00270137,0.00291701,-4.51914e-05,-4.91142e-05,-9.63551e-05,4.92222e-05,-0.000143528,-0.775222,0.000173458,-0.360992,1.43957,-3.1417,0.0378528,0.0199376,-0.000910171,0.00220919,328,450,-0.0093387,-0.0908983,106.028,113.135,105.986,113.194,5.89513e-05,5.51653e-05,0.000203698
-8.2317,10.4428,-296.958,0.000697049,0.00265674,0.00316364,-4.72832e-05,-4.62999e-05,-9.19996e-05,4.52094e-05,-0.000138793,-0.78807,0.000166078,-0.381603,1.44004,-3.13236,0.0380298,0.0178913,-0.00278748,0.00216951,335,450,-0.00995381,-0.0901615,107.968,113.898,107.923,113.954,5.72644e-05,5.53589e-05,0.00019798
-7.93218,10.4295,-296.897,0.00064588,0.00269885,0.00321185,-5.10511e-05,-4.37759e-05,-8.4867e-05,3.75314e-05,-0.000132358,-0.806816,0.00015458,-0.362656,1.44961,-3.02694,0.0392764,0.0148311,-0.00399642,0.00216571,342,450,-0.0115547,-0.0902848,109.771,114.653,109.727,114.712,5.56738e-05,5.57998e-05,0.000192531
-7.63369,10.4163,-296.838,0.000591634,0.00273252,0.00302558,-5.49491e-05,-4.09253e-05,-7.55715e-05,2.7959e-05,-0.000123833,-0.831658,0.000139924,-0.328175,1.47967,-2.96622,0.0401698,0.0110948,-0.00436483,0.002159,349,450,-0.0114815,-0.0916436,111.523,115.404,111.481,115.464,5.532e-05,5.53214e-05,0.000191121
-7.33614,10.4032,-296.782,0.00053575,0.00276006,0.00281298,-5.63292e-05,-3.75476e-05,-6.6168e-05,1.98927e-05,-0.00011377,-0.855889,0.00012491,-0.309921,1.47081,-2.9273,0.040309,0.00649443,-0.00444628,0.00214997,356,450,-0.0112477,-0.0925684,113.228,116.147,113.189,116.207,5.57334e-05,5.44968e-05,0.000192326
-7.04072,10.3904,-296.732,0.000515106,0.00276974,0.00254256,-5.88689e-05,-3.27315e-05,-5.82203e-05,1.38688e-05,-0.000105469,-0.895803,0.000113044,-0.318552,1.45684,-2.78619,0.0392248,0.00163925,-0.00451605,0.00217703,363,450,-0.00968868,-0.0929411,114.824,116.871,114.788,116.932,5.71752e-05,5.33118e-05,0.000197141
-6.74753,10.3779,-296.689,0.000516895,0.00275453,0.00236702,-6.5721e-05,-2.66133e-05,-5.22842e-05,9.6539e-06,-0.000101988,-0.964341,0.000107142,-0.319633,1.42738,-2.70191,0.0389957,-0.00330523,-0.00570414,0.00213245,370,450,-0.00826166,-0.0926264,116.306,117.583,116.271,117.643,5.67258e-05,5.09812e-05,0.000195665
-6.45578,10.3651,-296.65,0.000532804,0.0027181,0.00223793,-7.58989e-05,-1.92596e-05,-4.82695e-05,8.3846e-06,-0.000103543,-1.05069,0.00010798,-0.319404,1.38628,-2.63161,0.0392957,-0.00791119,-0.00793971,0.0020885,377,450,-0.00682328,-0.0924207,117.712,118.302,117.678,118.36,5.58771e-05,4.99421e-05,0.000192922
-6.16295,10.3518,-296.607,0.00058288,0.00269223,0.00234166,-8.60036e-05,-1.12076e-05,-4.59527e-05,1.06418e-05,-0.000107853,-1.12696,0.000113549,-0.308165,1.38745,-2.63044,0.0370277,-0.0121109,-0.00985243,0.00208221,384,450,-0.00629169,-0.0930793,119.182,119.057,119.146,119.113,5.55958e-05,4.94131e-05,0.000191979
-5.86781,10.3383,-296.555,0.000629787,0.00268737,0.00250439,-9.3403e-05,-2.81042e-06,-4.53741e-05,1.6007e-05,-0.00011222,-1.17767,0.00012102,-0.320903,1.40987,-2.64626,0.0307089,-0.0156608,-0.011173,0.00209458,391,450,-0.00628621,-0.0937495,120.781,119.816,120.742,119.871,5.59141e-05,4.95137e-05,0.000193083
-5.57262,10.3252,-296.502,0.000655733,0.0027269,0.00259858,-9.88145e-05,5.09337e-06,-4.52924e-05,2.20641e-05,-0.000115785,-1.21229,0.000128249,-0.295601,1.46614,-2.65509,0.021727,-0.0190653,-0.0129697,0.00211473,398,450,-0.00633122,-0.0951225,122.385,120.557,122.345,120.613,5.65739e-05,5.0299e-05,0.000195233
-5.27767,10.3122,-296.45,0.000611409,0.00275323,0.00249733,-0.000104775,1.2015e-05,-4.40894e-05,2.67899e-05,-0.00011955,-1.24744,0.000134954,-0.286285,1.50748,-2.65667,0.0115279,-0.0210157,-0.0154429,0.00207257,405,450,-0.00666637,-0.0958703,123.978,121.295,123.939,121.352,5.52082e-05,5.09556e-05,0.000190521
-4.98405,10.2994,-296.401,0.000538333,0.0027378,0.00224774,-0.000110354,1.73102e-05,-4.13424e-05,2.95289e-05,-0.000122573,-1.28343,0.000139698,-0.26974,1.51764,-2.69774,6.30316e-05,-0.0213507,-0.0172334,0.00204952,412,450,-0.00657668,-0.0950104,125.5,122.017,125.466,122.074,5.36954e-05,5.15848e-05,0.000185247
-4.68978,10.2864,-296.349,0.000467232,0.00273893,0.00213776,-0.000112427,2.18e-05,-3.72424e-05,3.14408e-05,-0.000122068,-1.31749,0.000140453,-0.258616,1.52678,-2.7826,-0.0114534,-0.0202178,-0.0178964,0.0020502,419,450,-0.00749301,-0.0945149,127.063,122.752,127.031,122.81,5.32939e-05,5.2562e-05,0.000183872
-4.39255,10.2732,-296.287,0.000388494,0.00272091,0.00203796,-0.000109475,2.51941e-05,-3.21618e-05,3.24808e-05,-0.000116762,-1.348,0.000135944,-0.249947,1.5145,-2.87736,-0.0215065,-0.0176347,-0.0176559,0.00207553,426,450,-0.00865282,-0.0930944,128.792,123.502,128.763,123.56,5.38169e-05,5.24279e-05,0.000185665
-4.09318,10.2599,-296.216,0.000329546,0.00270181,0.0018927,-0.000102579,2.75202e-05,-2.6292e-05,3.26327e-05,-0.000107691,-1.37874,0.000127187,-0.234707,1.5129,-2.96671,-0.0291019,-0.0133108,-0.0171906,0.00205618,433,450,-0.00898802,-0.091626,130.645,124.261,130.619,124.319,5.32097e-05,5.18038e-05,0.000183503
-3.79239,10.2466,-296.139,0.000320638,0.00268673,0.00169879,-9.25168e-05,2.86043e-05,-1.96412e-05,3.17097e-05,-9.56222e-05,-1.41399,0.00011481,-0.220548,1.55376,-3.04116,-0.0342301,-0.00724338,-0.0167779,0.00201468,440,450,-0.00773043,-0.0906712,132.585,125.024,132.56,125.082,5.19695e-05,5.11334e-05,0.00017909
-3.49077,10.2333,-296.059,0.000354375,0.0026631,0.00148142,-8.03514e-05,2.85041e-05,-1.18562e-05,2.97805e-05,-8.16277e-05,-1.46355,9.99044e-05,-0.215556,1.55782,-3.06261,-0.0366864,-0.00037318,-0.0162996,0.00200997,447,450,-0.00522666,-0.0894259,134.578,125.788,134.554,125.847,5.05748e-05,5.08328e-05,0.000174041
-3.18862,10.2199,-295.976,0.000407434,0.00264686,0.0013288,-6.70304e-05,2.83049e-05,-3.08158e-06,2.84044e-05,-6.71299e-05,-1.53852,8.49707e-05,-0.241864,1.53543,-3.01069,-0.0363415,0.00636177,-0.0151216,0.00200744,454,450,-0.00273768,-0.0892272,136.609,126.555,136.586,126.613,5.08672e-05,5.07552e-05,0.000174945
-2.88429,10.2062,-295.885,0.000400939,0.00262017,0.0013926,-5.52918e-05,2.91507e-05,6.33561e-06,2.96234e-05,-5.57645e-05,1.49632,7.50943e-05,-0.298677,1.50532,-2.94073,-0.0338694,0.0122704,-0.0132194,0.00204491,461,450,-0.00332552,-0.089716,138.77,127.343,138.745,127.399,5.29392e-05,5.10692e-05,0.00018212
-2.57719,10.1924,-295.782,0.000370552,0.00261163,0.00147787,-4.68851e-05,3.10661e-05,1.62629e-05,3.4323e-05,-5.0142e-05,1.37315,7.35752e-05,-0.393953,1.47554,-3.06513,-0.0286952,0.0173776,-0.0108684,0.00213361,468,450,-0.00468956,-0.0907123,141.094,128.144,141.07,128.199,5.61929e-05,5.18925e-05,0.000193405
-2.26817,10.1785,-295.672,0.000365711,0.00263714,0.00167251,-3.97022e-05,3.38282e-05,2.52519e-05,4.1665e-05,-4.7539e-05,1.26988,7.73088e-05,-0.443506,1.4519,-3.09263,-0.0215064,0.0217926,-0.00812093,0.00228787,475,450,-0.00621988,-0.0917321,143.538,128.948,143.513,129.003,6.06215e-05,5.43662e-05,0.000208554
-1.95935,10.1647,-295.562,0.000378198,0.00266287,0.00172231,-3.21369e-05,3.65385e-05,3.25078e-05,4.94854e-05,-4.50838e-05,1.19178,8.19289e-05,-0.434922,1.42966,-2.97908,-0.0124114,0.0251877,-0.00533633,0.00241743,482,450,-0.0062504,-0.0919993,145.982,129.752,145.955,129.809,6.38649e-05,5.72449e-05,0.000219419
-1.65254,10.1508,-295.457,0.000375778,0.00264711,0.00166609,-2.49094e-05,3.91249e-05,3.82813e-05,5.70133e-05,-4.27977e-05,1.13366,8.67306e-05,-0.369695,1.4184,-2.73558,-0.0036877,0.0270755,-0.00374281,0.00246621,489,450,-0.00583328,-0.0904348,148.321,130.553,148.295,130.609,6.48172e-05,5.89198e-05,0.000222484
-1.34998,10.1377,-295.367,0.000364171,0.00261898,0.00155733,-1.85639e-05,4.09033e-05,4.30251e-05,6.34692e-05,-4.11299e-05,1.08775,9.12715e-05,-0.338798,1.41564,-2.56087,0.000744722,0.0271416,-0.0028461,0.00244936,496,450,-0.00526495,-0.0888377,150.43,131.311,150.406,131.367,6.47827e-05,5.83564e-05,0.000222203
-1.05216,10.1252,-295.292,0.000386084,0.00260733,0.00144174,-1.30826e-05,4.14159e-05,4.66719e-05,6.82109e-05,-3.98776e-05,1.04963,9.46734e-05,-0.333833,1.3877,-2.69,0.000856782,0.0253409,-0.00104674,0.00241349,503,450,-0.00384021,-0.0886378,152.28,132.032,152.256,132.088,6.45187e-05,5.76356e-05,0.000221
-0.757589,10.1121,-295.228,0.00037235,0.00260037,0.00155247,-5.42452e-06,3.99875e-05,5.01098e-05,7.22956e-05,-3.77326e-05,0.998123,9.68417e-05,-0.341347,1.38901,-2.98786,-0.00101294,0.0219717,0.00155937,0.00240078,510,450,-0.00495989,-0.0896752,153.952,132.778,153.927,132.833,6.44461e-05,5.70251e-05,0.000220466
-0.464154,10.0989,-295.167,0.000355218,0.00267119,0.00164944,4.37618e-06,3.71072e-05,5.29234e-05,7.61376e-05,-3.46543e-05,0.93535,9.81649e-05,-0.339259,1.46535,-3.16008,-0.00151531,0.0177288,0.00430274,0.00250835,517,450,-0.00614944,-0.09263,155.565,133.526,155.539,133.582,6.70975e-05,5.72443e-05,0.000229237
-0.169372,10.0857,-295.1,0.00028263,0.0027618,0.00167771,1.19678e-05,3.23172e-05,5.53085e-05,7.83791e-05,-3.40941e-05,0.876363,9.98898e-05,-0.333088,1.52498,-3.06953,-0.00193004,0.0136381,0.0071899,0.00258762,524,450,-0.00825603,-0.095001,157.26,134.276,157.236,134.334,6.91369e-05,5.74133e-05,0.000236145
0.126596,10.0724,-295.028,0.000286862,0.00280957,0.00159906,1.98476e-05,2.64047e-05,5.82093e-05,8.14278e-05,-3.51754e-05,0.81353,0.000103596,-0.313897,1.54246,-3.11154,-0.00880333,0.00914319,0.0108602,0.0026051,531,450,-0.0076173,-0.0965538,159.031,135.036,159.008,135.096,6.94386e-05,5.86179e-05,0.000237293
0.423459,10.059,-294.952,0.000330138,0.00278044,0.00156267,2.71394e-05,1.89445e-05,6.14187e-05,8.45972e-05,-3.85132e-05,0.752091,0.000109078,-0.303592,1.50284,-3.11815,-0.0179462,0.00383163,0.0164358,0.00251343,538,450,-0.00620009,-0.0959564,160.864,135.801,160.84,135.86,6.74979e-05,5.87811e-05,0.000230209
0.720551,10.0457,-294.874,0.000449745,0.00271887,0.00158027,3.30723e-05,1.01149e-05,6.46191e-05,8.72243e-05,-4.40371e-05,0.697497,0.000115708,-0.269718,1.43494,-3.30716,-0.0258989,-0.0023772,0.0237428,0.00247533,545,450,-0.00320036,-0.0951761,162.721,136.563,162.694,136.619,6.52821e-05,5.99106e-05,0.000221441
1.01716,10.0329,-294.797,0.00052837,0.0027132,0.00147895,3.51796e-05,-4.06137e-08,6.78729e-05,8.76897e-05,-5.25507e-05,0.658468,0.000122716,-0.235958,1.42105,-3.61183,-0.0308635,-0.00916831,0.0323696,0.00253019,552,450,-0.000441698,-0.0946099,164.558,137.299,164.529,137.355,6.57101e-05,6.10157e-05,0.000222034
1.31282,10.0203,-294.722,0.000563323,0.00279437,0.00126828,3.02944e-05,-1.10883e-05,7.17263e-05,8.42542e-05,-6.50481e-05,0.644972,0.000129656,-0.242465,1.43399,-3.73152,-0.0333246,-0.0167208,0.0417182,0.00252779,559,450,0.00190254,-0.0947632,166.346,138.02,166.318,138.081,6.65568e-05,6.11202e-05,0.000224642
1.6074,10.0077,-294.651,0.000622022,0.00289192,0.00119803,1.61104e-05,-2.14524e-05,7.574e-05,7.53628e-05,-8.07049e-05,0.663864,0.000135185,-0.300178,1.49756,-3.74857,-0.0330413,-0.0261565,0.0514937,0.00252672,566,450,0.00384602,-0.0952825,168.081,138.738,168.052,138.803,6.7269e-05,6.10122e-05,0.000226741
1.89966,9.99454,-294.587,0.000613894,0.00292401,0.00124009,-1.08635e-05,-2.92031e-05,8.0576e-05,6.10628e-05,-0.000101129,0.72874,0.000141884,-0.354257,1.58964,-3.44694,-0.0236492,-0.0383668,0.0619361,0.00253916,573,450,0.00336431,-0.094847,169.686,139.485,169.656,139.552,6.89425e-05,6.09104e-05,0.000231464
0,0,0,0,0,0,0,0,0,0,0,0,0,0,0,0,0,0,0,-1,580,450,0,0,0,0,0,0,0,0,0
0,0,0,0,0,0,0,0,0,0,0,0,0,0,0,0,0,0,0,-1,587,450,0,0,0,0,0,0,0,0,0
0,0,0,0,0,0,0,0,0,0,0,0,0,0,0,0,0,0,0,-1,594,450,0,0,0,0,0,0,0,0,0
0,0,0,0,0,0,0,0,0,0,0,0,0,0,0,0,0,0,0,-1,601,450,0,0,0,0,0,0,0,0,0
0,0,0,0,0,0,0,0,0,0,0,0,0,0,0,0,0,0,0,-1,62,457,0,0,0,0,0,0,0,0,0
0,0,0,0,0,0,0,0,0,0,0,0,0,0,0,0,0,0,0,-1,69,457,0,0,0,0,0,0,0,0,0
0,0,0,0,0,0,0,0,0,0,0,0,0,0,0,0,0,0,0,-1,76,457,0,0,0,0,0,0,0,0,0
-18.8116,10.6356,-298.089,0.000551578,0.00292429,0.000499285,-1.08804e-05,7.18415e-06,9.83652e-06,1.15063e-05,-1.52025e-05,1.1568,2.32041e-05,-0.434034,1.48207,-2.84106,0.0597513,-0.00965598,0.00580379,0.00231979,83,457,0.00601127,-0.082548,54.2774,88.4857,54.2553,88.5641,6.11977e-05,5.64402e-05,0.000218602
-18.5359,10.6237,-298.119,0.000544501,0.00297711,0.000619973,6.42992e-06,6.81411e-06,1.39066e-05,2.05299e-05,-7.2859e-06,0.792304,2.49828e-05,-0.384377,1.48038,-2.72745,0.041804,-0.00823328,-0.00551951,0.00240923,90,457,0.00480519,-0.0836338,54.8965,89.1439,54.8736,89.224,6.30856e-05,5.89177e-05,0.000224406
-18.2566,10.6115,-298.138,0.000592953,0.00297153,0.000661322,2.67241e-05,5.43653e-06,2.3848e-05,4.21957e-05,-1.00351e-05,0.575504,4.80065e-05,-0.340715,1.4654,-2.61073,0.0288135,-0.00654376,-0.0143674,0.00250192,97,457,0.00569389,-0.0823757,55.6894,89.8222,55.6648,89.9031,6.42993e-05,6.30251e-05,0.000228186
-17.9745,10.5988,-298.149,0.000644233,0.00293208,0.000802085,4.54052e-05,2.70373e-06,3.70249e-05,6.67943e-05,-1.86854e-05,0.523858,7.78377e-05,-0.285791,1.44028,-2.75524,0.0235124,-0.00558729,-0.0190783,0.00260946,104,457,0.0058704,-0.0806654,56.6061,90.5323,56.579,90.6125,6.57909e-05,6.6331e-05,0.000232714
-17.6905,10.5861,-298.153,0.000691327,0.0028782,0.000920174,5.99526e-05,-1.00223e-06,5.09367e-05,8.88336e-05,-2.98832e-05,0.515799,0.000106953,-0.258482,1.46349,-3.06278,0.0229759,-0.00531343,-0.0197945,0.0026644,111,457,0.00615527,-0.0784059,57.619,91.2455,57.5898,91.3249,6.73116e-05,6.75396e-05,0.000237346
-17.4043,10.5736,-298.151,0.000774303,0.00285002,0.00105243,7.02991e-05,-5.86398e-06,6.41967e-05,0.000106859,-4.24243e-05,0.517695,0.000133237,-0.237207,1.52466,-3.38826,0.0240229,-0.00491694,-0.0181346,0.00269923,118,457,0.00717896,-0.0769179,58.7342,91.9498,58.7018,92.029,6.95413e-05,6.80325e-05,0.000243694
-17.1161,10.5611,-298.142,0.000814895,0.00286928,0.00109854,7.59949e-05,-1.23322e-05,7.54902e-05,0.000119291,-5.56283e-05,0.520731,0.000154793,-0.246485,1.57186,-3.70893,0.0263252,-0.00403953,-0.0152483,0.00269395,125,457,0.0078145,-0.0768831,59.9385,92.6511,59.9046,92.7313,7.02705e-05,6.71799e-05,0.000244328
-16.8275,10.5488,-298.132,0.000802738,0.00290703,0.00131129,7.63355e-05,-2.04545e-05,8.36815e-05,0.000124608,-6.87274e-05,0.523234,0.000169749,-0.251284,1.5654,-3.75825,0.0304822,-0.00286828,-0.011856,0.00267537,132,457,0.00578971,-0.0772113,61.1643,93.3473,61.1291,93.429,7.04589e-05,6.6523e-05,0.000244723
-16.5388,10.5364,-298.121,0.000787624,0.0029526,0.0014935,7.33826e-05,-2.94897e-05,8.80691e-05,0.000123936,-8.0043e-05,0.521096,0.000178009,-0.218122,1.53392,-3.77218,0.034743,-0.0017655,-0.0100016,0.00255552,139,457,0.00394168,-0.0775843,62.3921,94.0456,62.356,94.1294,6.83103e-05,6.45516e-05,0.000237674
-16.2498,10.5238,-298.109,0.000775275,0.00298862,0.00193339,6.70187e-05,-3.9029e-05,8.84836e-05,0.000117149,-8.91598e-05,0.515464,0.000179216,-0.25174,1.5235,-3.73568,0.0372039,-0.000125587,-0.00808738,0.00242775,146,457,0.00010076,-0.077623,63.6341,94.7506,63.5952,94.8359,6.46826e-05,6.15501e-05,0.000225896
-15.9597,10.5111,-298.094,0.000788474,0.00302371,0.00235742,5.7578e-05,-4.94504e-05,8.4268e-05,0.000103888,-9.57604e-05,0.502502,0.000172948,-0.239952,1.53673,-3.67739,0.0363638,0.00206207,-0.00616252,0.00238598,153,457,-0.00298363,-0.0785461,64.9248,95.4656,64.8825,95.5518,6.37052e-05,6.00117e-05,0.000222386
-15.6668,10.4985,-298.069,0.000785564,0.00302941,0.00269823,4.39478e-05,-6.0579e-05,7.55028e-05,8.35111e-05,-0.000100142,0.482661,0.000159266,-0.241533,1.5832,-3.68283,0.0329532,0.00456829,-0.00504458,0.00240636,160,457,-0.00576279,-0.0796493,66.3544,96.1825,66.3098,96.268,6.45664e-05,5.95386e-05,0.000224391
-15.3725,10.4858,-298.04,0.000817114,0.00306978,0.00311914,2.63121e-05,-7.20867e-05,6.3145e-05,5.71619e-05,-0.000102937,0.454449,0.000140526,-0.267687,1.59837,-3.80253,0.0272496,0.00727334,-0.00535585,0.00241428,167,457,-0.00836283,-0.081645,67.8528,96.9032,67.8044,96.9888,6.4574e-05,5.90978e-05,0.000224344
-15.0778,10.473,-298.008,0.000820759,0.00312586,0.00343966,6.69507e-06,-8.30079e-05,4.77845e-05,2.738e-05,-0.000103693,0.408525,0.000119754,-0.273126,1.58412,-3.71905,0.0195686,0.00968087,-0.00602009,0.00240634,174,457,-0.0108385,-0.0835605,69.3699,97.6291,69.319,97.7159,6.45136e-05,5.88594e-05,0.00022331
-14.7844,10.4603,-297.981,0.000810968,0.00319167,0.00378278,-1.15586e-05,-9.25456e-05,3.00654e-05,-1.61747e-06,-0.000102487,0.319334,0.000101688,-0.268919,1.55856,-3.64289,0.0104573,0.0116797,-0.00624025,0.00236483,181,457,-0.0138066,-0.0847883,70.8235,98.3461,70.7703,98.435,6.35199e-05,5.7753e-05,0.00022014
-14.4931,10.4475,-297.959,0.000742724,0.00320514,0.00402347,-2.68631e-05,-9.98576e-05,1.123e-05,-2.51745e-05,-0.000101546,0.14925,9.15916e-05,-0.20707,1.53109,-3.41484,-0.0011677,0.0131568,-0.00572045,0.00233351,188,457,-0.0173135,-0.0839272,72.1677,99.0654,72.1145,99.1558,6.26257e-05,5.59078e-05,0.000216512
-14.2029,10.4347,-297.94,0.000681624,0.00318614,0.00409345,-3.92947e-05,-0.000105425,-7.47879e-06,-3.84595e-05,-0.00010626,-0.11122,9.31863e-05,-0.182245,1.47295,-3.32125,-0.0140227,0.0140581,-0.00482588,0.00231165,195,457,-0.019254,-0.0826913,73.455,99.7868,73.4029,99.8773,6.19585e-05,5.44448e-05,0.000214429
-13.9129,10.422,-297.922,0.000679183,0.00309083,0.00421536,-4.78112e-05,-0.000109787,-2.41841e-05,-3.9491e-05,-0.000118107,-0.331351,0.000104137,-0.195853,1.44552,-3.32657,-0.0274199,0.0142427,-0.00459207,0.00232789,202,457,-0.0201028,-0.0810186,74.7307,100.501,74.6779,100.588,6.22401e-05,5.44229e-05,0.000215398
-13.6224,10.4095,-297.901,0.000675706,0.00301247,0.0041429,-5.22238e-05,-0.000113688,-3.74129e-05,-3.45391e-05,-0.000131373,-0.441562,0.000117959,-0.207543,1.4231,-3.37571,-0.040615,0.0131433,-0.00432647,0.00235951,209,457,-0.0194752,-0.0808696,76.031,101.211,75.9789,101.294,6.23129e-05,5.63074e-05,0.000215599
-13.3311,10.3969,-297.878,0.000674579,0.00299062,0.00411912,-5.46979e-05,-0.000116846,-4.74043e-05,-2.90907e-05,-0.000142453,-0.495279,0.000130365,-0.214324,1.43818,-3.32881,-0.0507051,0.0105246,-0.00279981,0.00240544,216,457,-0.019252,-0.0829193,77.3733,101.926,77.3216,102.006,6.25225e-05,5.89552e-05,0.000216294
-13.0386,10.3842,-297.85,0.00064096,0.00299513,0.00396438,-5.55983e-05,-0.000118942,-5.40955e-05,-2.4585e-05,-0.000149955,-0.520562,0.000139299,-0.230038,1.47648,-3.29006,-0.0568744,0.00673783,9.79308e-05,0.0024351,223,457,-0.0188152,-0.0847806,78.768,102.642,78.7183,102.721,6.35851e-05,6.02032e-05,0.000219533
-12.7447,10.3716,-297.818,0.000622845,0.00304887,0.00384331,-5.3295e-05,-0.00011999,-5.73098e-05,-2.03367e-05,-0.000152949,-0.521901,0.000143862,-0.27744,1.52363,-3.20748,-0.0594158,0.00245903,0.00375733,0.00239383,230,457,-0.0183051,-0.0869857,80.2422,103.355,80.1937,103.434,6.34852e-05,5.95923e-05,0.000218851
-12.4486,10.3585,-297.778,0.000670421,0.00306116,0.00394101,-4.65706e-05,-0.000120185,-5.81391e-05,-1.45671e-05,-0.000152189,-0.503199,0.000145454,-0.321297,1.55629,-3.07507,-0.0598693,-0.00137769,0.0072628,0.00234923,237,457,-0.0178251,-0.0869902,81.8244,104.1,81.7738,104.18,6.35215e-05,5.82351e-05,0.000218366
-12.1509,10.3452,-297.732,0.00067822,0.00304206,0.00393402,-3.8458e-05,-0.000119701,-5.84083e-05,-7.93437e-06,-0.000150225,-0.481556,0.000146419,-0.368939,1.57722,-3.02886,-0.0572752,-0.00402106,0.00958335,0.00235128,244,457,-0.0174717,-0.0862457,83.4907,104.855,83.4398,104.935,6.23222e-05,5.74887e-05,0.00021333
-11.8527,10.3321,-297.684,0.000618275,0.0030024,0.00392721,-3.38161e-05,-0.000118297,-5.8557e-05,-3.85431e-06,-0.000148259,-0.472939,0.00014637,-0.398346,1.58559,-2.99341,-0.0495061,-0.00456456,0.010265,0.00229052,251,457,-0.0187836,-0.0856965,85.1845,105.6,85.1354,105.678,5.91781e-05,5.60726e-05,0.00020311
-11.5547,10.3189,-297.636,0.000587018,0.00298572,0.00403615,-2.99661e-05,-0.000115808,-6.08911e-05,1.61093e-06,-0.000147385,-0.478402,0.000148197,-0.434712,1.56347,-3.07707,-0.0363934,-0.00377896,0.0091201,0.00223938,258,457,-0.0203228,-0.0862926,86.8691,106.348,86.82,106.425,5.68119e-05,5.51534e-05,0.000195804
-11.257,10.306,-297.589,0.000575184,0.00304444,0.00415721,-2.41628e-05,-0.000112014,-6.53374e-05,1.06417e-05,-0.000146819,-0.489456,0.000152418,-0.464382,1.55835,-3.21683,-0.0230131,-0.0016507,0.007246,0.00226113,265,457,-0.0215469,-0.0883193,88.5407,107.081,88.4909,107.159,5.71517e-05,5.62781e-05,0.000197486
-10.9598,10.2929,-297.542,0.000568433,0.00310604,0.00394423,-1.88582e-05,-0.000106418,-7.20589e-05,2.16778e-05,-0.000146954,-0.512419,0.000158906,-0.469768,1.53464,-3.30032,-0.0124956,0.00165348,0.00496176,0.0022442,272,457,-0.0200728,-0.0910944,90.1859,107.824,90.1378,107.903,5.7723e-05,5.63464e-05,0.000200153
-10.663,10.2799,-297.496,0.000563414,0.00315768,0.003589,-1.61636e-05,-9.97085e-05,-8.0397e-05,3.26653e-05,-0.000148537,-0.545805,0.000167279,-0.456792,1.51952,-3.16676,-0.00367053,0.00600825,0.00251296,0.00221633,279,457,-0.0174583,-0.0937776,91.8135,108.566,91.7681,108.645,5.7655e-05,5.61877e-05,0.00020053
-10.3659,10.2668,-297.449,0.000593826,0.00312768,0.00325392,-1.80087e-05,-9.27593e-05,-8.86741e-05,4.08449e-05,-0.000151613,-0.585951,0.000175634,-0.440249,1.53117,-3.12786,0.00561586,0.0104809,0.000294443,0.0022052,286,457,-0.0140377,-0.0940087,93.458,109.308,93.4143,109.385,5.6479e-05,5.64039e-05,0.000196731
-10.0682,10.2538,-297.399,0.000625318,0.00304096,0.00325292,-2.34146e-05,-8.57748e-05,-9.53543e-05,4.5728e-05,-0.000154917,-0.627382,0.000182139,-0.452753,1.55963,-3.1874,0.0154352,0.0149685,-0.00134721,0.00223473,293,457,-0.0131028,-0.0926896,95.1423,110.053,95.0978,110.127,5.59304e-05,5.68383e-05,0.000194804
-9.76756,10.2408,-297.339,0.00058108,0.00292882,0.00321669,-2.90875e-05,-7.84605e-05,-0.000101325,5.05148e-05,-0.000158063,-0.665907,0.000188468,-0.456856,1.53242,-3.15265,0.0236009,0.0184941,-0.00193556,0.00219172,300,457,-0.0137663,-0.0917825,96.9755,110.798,96.9327,110.867,5.60348e-05,5.59518e-05,0.000194473
-9.46266,10.2275,-297.264,0.000526814,0.00285228,0.00295983,-3.5446e-05,-7.06059e-05,-0.000106084,5.45045e-05,-0.000160556,-0.703285,0.00019365,-0.434864,1.49499,-3.07248,0.0294663,0.0208064,-0.0016414,0.00214841,307,457,-0.0130196,-0.0909302,99.0347,111.567,98.9953,111.634,5.61036e-05,5.45573e-05,0.000194376
-9.15446,10.2136,-297.177,0.000518169,0.00280087,0.00284975,-4.15723e-05,-6.33243e-05,-0.000108887,5.69808e-05,-0.000161877,-0.735622,0.00019666,-0.387592,1.46625,-2.9538,0.0338377,0.0218252,-0.00106569,0.00216899,314,457,-0.0122869,-0.0900794,101.274,112.372,101.236,112.436,5.6923e-05,5.41413e-05,0.000196545
-8.84362,10.2,-297.081,0.000615891,0.00278262,0.00293958,-4.58629e-05,-5.75709e-05,-0.00010911,5.75505e-05,-0.000160984,-0.758598,0.000196196,-0.386775,1.47451,-3.02692,0.0366414,0.0212799,-0.00114296,0.00220769,321,457,-0.0104937,-0.0912503,103.663,113.163,103.622,113.226,5.83158e-05,5.52037e-05,0.000201112
-8.53572,10.1865,-296.994,0.000713714,0.00275688,0.00311448,-4.86992e-05,-5.36885e-05,-0.000106834,5.56691e-05,-0.000158057,-0.773725,0.000192041,-0.440716,1.47569,-3.13493,0.0377603,0.0188123,-0.00170551,0.00221558,328,457,-0.00931795,-0.091618,105.907,113.94,105.861,114.001,5.84402e-05,5.54562e-05,0.000201674
-8.23238,10.1735,-296.921,0.000753575,0.00271687,0.00323373,-5.15237e-05,-5.1106e-05,-0.000102388,5.10733e-05,-0.000153703,-0.786418,0.000184616,-0.456505,1.47408,-3.13795,0.0386411,0.0148164,-0.00234249,0.00217342,335,457,-0.00913543,-0.0915047,107.912,114.695,107.865,114.754,5.6855e-05,5.48368e-05,0.000196341
-7.93282,10.1604,-296.859,0.000685359,0.00275068,0.00314843,-5.58061e-05,-4.87568e-05,-9.54396e-05,4.32232e-05,-0.000147786,-0.803855,0.000173484,-0.421142,1.472,-3.05102,0.0407058,0.00983226,-0.00257376,0.00215102,342,457,-0.010143,-0.0915163,109.719,115.438,109.674,115.498,5.48769e-05,5.46037e-05,0.000189649
-7.63653,10.1474,-296.808,0.00062386,0.0027369,0.00299096,-6.00048e-05,-4.57809e-05,-8.64399e-05,3.38392e-05,-0.000139625,-0.826444,0.000159264,-0.370739,1.48248,-2.9506,0.042656,0.00446562,-0.00214364,0.00215889,349,457,-0.0104206,-0.0919637,111.355,116.178,111.313,116.237,5.39194e-05,5.44044e-05,0.00018634
-7.34225,10.1348,-296.762,0.000566289,0.00271863,0.00286085,-6.15905e-05,-4.18593e-05,-7.7296e-05,2.61981e-05,-0.000129648,-0.848872,0.000144539,-0.347156,1.45145,-2.92074,0.0437647,-0.00139402,-0.00161996,0.00220625,356,457,-0.0108028,-0.0919856,112.888,116.898,112.849,116.956,5.4677e-05,5.53305e-05,0.000188768
-7.04988,10.1222,-296.723,0.000561147,0.00274861,0.00259903,-6.43996e-05,-3.61737e-05,-6.93586e-05,2.04932e-05,-0.000121067,-0.885767,0.000132507,-0.352028,1.42953,-2.80162,0.0433413,-0.00683046,-0.00133407,0.00225231,363,457,-0.00892453,-0.0918667,114.323,117.606,114.285,117.666,5.70727e-05,5.5923e-05,0.000196825
-6.75914,10.1097,-296.688,0.000573423,0.00275347,0.00241751,-7.10866e-05,-2.91262e-05,-6.32518e-05,1.65341e-05,-0.000116747,-0.945535,0.000125831,-0.329165,1.42874,-2.66517,0.0435576,-0.0118129,-0.00259669,0.00220176,370,457,-0.00720285,-0.091589,115.674,118.312,115.637,118.373,5.76317e-05,5.395e-05,0.000198769
-6.46825,10.0968,-296.652,0.000596695,0.00271784,0.00226541,-8.0771e-05,-2.09601e-05,-5.89586e-05,1.52439e-05,-0.000116975,-1.0201,0.000125294,-0.322035,1.39421,-2.58579,0.0436705,-0.0160531,-0.00509196,0.00213767,377,457,-0.00540767,-0.0913962,117.034,119.04,116.998,119.099,5.70668e-05,5.1675e-05,0.000196952
-6.17513,10.0835,-296.607,0.000623652,0.00266577,0.00226391,-9.07264e-05,-1.19785e-05,-5.62615e-05,1.73183e-05,-0.000120023,-1.09071,0.000129553,-0.304543,1.38174,-2.56849,0.0405129,-0.0194646,-0.00743366,0.00209839,384,457,-0.00465563,-0.0923024,118.518,119.795,118.481,119.85,5.59797e-05,4.98358e-05,0.00019329
-5.87857,10.0703,-296.551,0.000656532,0.00263453,0.00243401,-9.91076e-05,-2.35724e-06,-5.50734e-05,2.25699e-05,-0.000124035,-1.14577,0.000136724,-0.313508,1.39546,-2.57708,0.0331896,-0.0218054,-0.00941276,0.002089,391,457,-0.00504815,-0.0934867,120.193,120.548,120.154,120.601,5.5764e-05,4.8963e-05,0.000192507
-5.58132,10.0571,-296.491,0.000666594,0.00268446,0.00256017,-0.000106157,6.86739e-06,-5.4214e-05,2.86673e-05,-0.000127957,-1.18847,0.00014444,-0.305979,1.44251,-2.61817,0.0236523,-0.0239295,-0.0121015,0.00209675,398,457,-0.00573302,-0.0947412,121.91,121.295,121.869,121.349,5.60817e-05,5.0082e-05,0.000193521
-5.28453,10.044,-296.432,0.00063246,0.00274039,0.00254533,-0.000113668,1.51962e-05,-5.1979e-05,3.35488e-05,-0.000132021,-1.23138,0.000151606,-0.32218,1.512,-2.6812,0.0128148,-0.0246779,-0.0155759,0.00205843,405,457,-0.0064641,-0.0950519,123.604,122.039,123.564,122.096,5.48022e-05,5.06682e-05,0.000189152
-4.98876,10.0312,-296.376,0.000579235,0.00272926,0.00238836,-0.000120466,2.18812e-05,-4.80216e-05,3.65665e-05,-0.000135151,-1.27402,0.000156669,-0.319687,1.54063,-2.73873,0.000410408,-0.023998,-0.0182431,0.00203523,412,457,-0.00655436,-0.0937587,125.246,122.768,125.209,122.825,5.36042e-05,5.09708e-05,0.000184993
-4.69256,10.0183,-296.318,0.000495096,0.00270955,0.00227035,-0.00012333,2.75201e-05,-4.27039e-05,3.87701e-05,-0.00013458,-1.31321,0.000157584,-0.304609,1.55009,-2.79481,-0.0121321,-0.0220195,-0.019693,0.00202309,419,457,-0.00771519,-0.0928813,126.916,123.504,126.882,123.562,5.28989e-05,5.11112e-05,0.000182554
-4.39381,10.0054,-296.25,0.000407553,0.00267354,0.00210537,-0.000121235,3.18909e-05,-3.62293e-05,4.003e-05,-0.000129374,-1.34981,0.000153359,-0.26963,1.54012,-2.86987,-0.0226535,-0.0189517,-0.0201983,0.00201493,426,457,-0.00860475,-0.0915378,128.73,124.247,128.7,124.304,5.26789e-05,5.04325e-05,0.000181729
-4.09312,9.99209,-296.175,0.000346693,0.00266175,0.00191345,-0.000115387,3.50272e-05,-2.89048e-05,4.03905e-05,-0.000120751,-1.38733,0.000145221,-0.248228,1.51232,-2.98046,-0.0301016,-0.0146425,-0.020312,0.00196922,433,457,-0.00866838,-0.0911095,130.657,125.008,130.63,125.065,5.12759e-05,4.90591e-05,0.000176762
-3.7911,9.97875,-296.094,0.00033612,0.00266986,0.00172788,-0.000106211,3.66089e-05,-2.08526e-05,3.95913e-05,-0.000109193,-1.42874,0.000133468,-0.241705,1.53177,-3.10893,-0.0350793,-0.0091388,-0.0200585,0.00194861,440,457,-0.00755204,-0.0915017,132.667,125.776,132.642,125.833,5.03383e-05,4.87217e-05,0.00017335
-3.48864,9.96537,-296.011,0.000342948,0.002648,0.00150601,-9.4586e-05,3.66361e-05,-1.18972e-05,3.77061e-05,-9.5656e-05,-1.48111,0.000119074,-0.243882,1.53047,-3.13269,-0.0377442,-0.00335388,-0.0193007,0.0019681,447,457,-0.00570825,-0.0911677,134.708,126.548,134.684,126.604,5.00778e-05,4.90436e-05,0.00017223
-3.18596,9.952,-295.926,0.000373597,0.00263829,0.00138258,-8.07773e-05,3.60514e-05,-2.31352e-06,3.60972e-05,-8.08231e-05,-1.551,0.000103696,-0.269598,1.50444,-2.9901,-0.0376049,0.0018757,-0.0176847,0.00200811,454,457,-0.00400406,-0.091274,136.77,127.32,136.747,127.375,5.16319e-05,4.98641e-05,0.000177497
-2.88133,9.93846,-295.833,0.000351134,0.00263266,0.00143092,-6.72787e-05,3.60282e-05,7.81229e-06,3.66156e-05,-6.78661e-05,1.49574,9.18231e-05,-0.313323,1.4606,-2.91294,-0.0349263,0.00611658,-0.0153255,0.00208928,461,457,-0.00488755,-0.0913383,138.95,128.105,138.927,128.16,5.44707e-05,5.08704e-05,0.000187306
-2.57408,9.92482,-295.73,0.000338712,0.00262564,0.00151773,-5.64984e-05,3.68989e-05,1.84062e-05,4.03954e-05,-5.99949e-05,1.38307,8.74911e-05,-0.385852,1.44495,-3.01208,-0.0295065,0.00965202,-0.0125899,0.00216431,468,457,-0.00578825,-0.0910294,141.286,128.898,141.263,128.953,5.7335e-05,5.19729e-05,0.000197229
-2.26525,9.91104,-295.621,0.000361384,0.0026359,0.00172088,-4.71197e-05,3.86565e-05,2.80376e-05,4.7008e-05,-5.54712e-05,1.2813,8.88504e-05,-0.417446,1.43799,-3.01105,-0.0223703,0.0127499,-0.00950878,0.00229326,475,457,-0.00666368,-0.0913209,143.723,129.703,143.698,129.758,6.10497e-05,5.40983e-05,0.000210017
-1.9576,9.8975,-295.514,0.000382108,0.00261612,0.00177489,-3.76622e-05,4.06213e-05,3.58801e-05,5.45781e-05,-5.1619e-05,1.19982,9.19812e-05,-0.407802,1.4353,-2.91087,-0.0133587,0.0152967,-0.00636949,0.00237926,482,457,-0.00647932,-0.0912028,146.104,130.494,146.077,130.548,6.31879e-05,5.66099e-05,0.000217192
-1.65312,9.88422,-295.418,0.000369782,0.00258093,0.00171354,-2.84415e-05,4.26719e-05,4.21825e-05,6.22844e-05,-4.80541e-05,1.13558,9.58205e-05,-0.36069,1.42857,-2.70865,-0.00439039,0.0168947,-0.00426405,0.00240312,489,457,-0.00626286,-0.0896871,148.314,131.267,148.288,131.321,6.34282e-05,5.79722e-05,0.000217779
-1.35324,9.8717,-295.336,0.000346553,0.00257493,0.00160187,-1.96964e-05,4.42519e-05,4.74666e-05,6.95091e-05,-4.49536e-05,1.0818,9.9885e-05,-0.345372,1.43334,-2.5749,0.000340894,0.0172783,-0.00281005,0.00238249,496,457,-0.00599073,-0.0886223,150.274,131.991,150.25,132.046,6.30425e-05,5.746e-05,0.00021622
-1.05799,9.85881,-295.271,0.000359133,0.00257098,0.00146891,-1.19554e-05,4.49665e-05,5.16785e-05,7.5503e-05,-4.24919e-05,1.0371,0.000103511,-0.342377,1.4139,-2.69826,0.00072299,0.0165844,-0.000575183,0.00234514,503,457,-0.00467787,-0.0881831,151.978,132.729,151.954,132.784,6.26997e-05,5.72163e-05,0.0002147
-0.76581,9.84566,-295.215,0.000356469,0.00258098,0.00150422,-2.95908e-06,4.42232e-05,5.55256e-05,8.09615e-05,-3.96973e-05,0.986278,0.000106511,-0.357779,1.4235,-3.0493,-0.000677696,0.0149271,0.00223978,0.00234259,510,457,-0.00499246,-0.0893366,153.513,133.477,153.489,133.531,6.30094e-05,5.74684e-05,0.000215462
-0.473276,9.83266,-295.157,0.000371431,0.00264255,0.0015184,7.38351e-06,4.24475e-05,5.86451e-05,8.61252e-05,-3.62941e-05,0.930645,0.000108907,-0.354192,1.46795,-3.29931,-0.000516384,0.0128173,0.00505622,0.00244409,517,457,-0.00477965,-0.0925427,155.075,134.217,155.051,134.271,6.54601e-05,5.80644e-05,0.00022356
-0.178903,9.81959,-295.092,0.000362641,0.00273399,0.00153967,1.51491e-05,3.91721e-05,6.12412e-05,8.95687e-05,-3.52474e-05,0.882236,0.000111454,-0.333463,1.50447,-3.33001,-0.000470824,0.0110355,0.00814242,0.00250574,524,457,-0.00523938,-0.0958444,156.749,134.962,156.724,135.018,6.6917e-05,5.78342e-05,0.000228429
0.117269,9.80646,-295.019,0.000395636,0.00283406,0.00142657,2.37766e-05,3.48043e-05,6.42807e-05,9.38072e-05,-3.52263e-05,0.828182,0.000115521,-0.298169,1.50771,-3.39019,-0.00727766,0.00912511,0.0123273,0.00250797,531,457,-0.00369371,-0.099131,158.534,135.713,158.509,135.772,6.67865e-05,5.82768e-05,0.000228024
0.414466,9.79338,-294.942,0.000440969,0.0028376,0.00145871,3.20187e-05,2.8782e-05,6.78039e-05,9.82236e-05,-3.74229e-05,0.773466,0.000121343,-0.263585,1.46963,-3.30196,-0.0163643,0.00658471,0.0185473,0.0024382,538,457,-0.00274888,-0.0995541,160.387,136.467,160.361,136.525,6.51911e-05,5.89631e-05,0.000222084
0.711557,9.78037,-294.864,0.000492826,0.0028138,0.00145261,3.84539e-05,2.12376e-05,7.14415e-05,0.000101804,-4.21125e-05,0.725441,0.000128159,-0.250917,1.43957,-3.36956,-0.0239433,0.00315635,0.0264961,0.00244319,545,457,-0.00132857,-0.0988688,162.243,137.217,162.216,137.275,6.39211e-05,6.06738e-05,0.000216885
1.00762,9.76765,-294.789,0.000543986,0.00280043,0.00145192,4.03584e-05,1.21669e-05,7.50231e-05,0.000102598,-5.00732e-05,0.692538,0.000134801,-0.262725,1.47724,-3.5603,-0.0285202,-0.000998931,0.0358146,0.00251576,552,457,5.49522e-05,-0.0968263,164.049,137.95,164.02,138.009,6.47411e-05,6.25692e-05,0.000219026
1.30236,9.75509,-294.718,0.000562392,0.00284495,0.00126429,3.49888e-05,1.98522e-06,7.88423e-05,9.90377e-05,-6.20637e-05,0.682237,0.000140737,-0.275279,1.52779,-3.62686,-0.0310151,-0.0061377,0.0458673,0.00252568,559,457,0.00187259,-0.095159,165.783,138.669,165.755,138.732,6.54757e-05,6.32856e-05,0.000221289
1.59553,9.74232,-294.651,0.000595992,0.00290541,0.00119879,2.10378e-05,-7.81863e-06,8.25832e-05,9.04438e-05,-7.72246e-05,0.698915,0.000145355,-0.301707,1.59913,-3.57965,-0.0312958,-0.0133783,0.056139,0.002526,566,457,0.00318966,-0.0944443,167.434,139.397,167.405,139.464,6.61564e-05,6.32771e-05,0.000223207
1.88653,9.72916,-294.592,0.000598426,0.00291561,0.00126966,-5.34979e-06,-1.49681e-05,8.73427e-05,7.73161e-05,-9.76339e-05,0.757896,0.000151851,-0.327801,1.656,-3.30363,-0.0234902,-0.0235545,0.0661037,0.00252938,573,457,0.00279263,-0.0938304,168.966,140.146,168.936,140.214,6.7716e-05,6.33055e-05,0.000227578
0,0,0,0,0,0,0,0,0,0,0,0,0,0,0,0,0,0,0,-1,580,457,0,0,0,0,0,0,0,0,0
0,0,0,0,0,0,0,0,0,0,0,0,0,0,0,0,0,0,0,-1,587,457,0,0,0,0,0,0,0,0,0
0,0,0,0,0,0,0,0,0,0,0,0,0,0,0,0,0,0,0,-1,594,457,0,0,0,0,0,0,0,0,0
0,0,0,0,0,0,0,0,0,0,0,0,0,0,0,0,0,0,0,-1,601,457,0,0,0,0,0,0,0,0,0
0,0,0,0,0,0,0,0,0,0,0,0,0,0,0,0,0,0,0,-1,62,464,0,0,0,0,0,0,0,0,0
0,0,0,0,0,0,0,0,0,0,0,0,0,0,0,0,0,0,0,-1,69,464,0,0,0,0,0,0,0,0,0
0,0,0,0,0,0,0,0,0,0,0,0,0,0,0,0,0,0,0,-1,76,464,0,0,0,0,0,0,0,0,0
-18.8335,10.3642,-298.117,0.000534401,0.00292761,0.000567129,-2.19467e-05,6.14164e-06,7.38855e-06,7.96661e-06,-2.37716e-05,1.32864,2.85996e-05,-0.427653,1.51931,-2.93306,0.0684291,-0.00612608,0.0123733,0.00224084,83,464,0.00503447,-0.08252,53.1319,89.3458,53.1097,89.4243,5.90264e-05,5.58566e-05,0.000211014
-18.5577,10.352,-298.147,0.000538128,0.00298369,0.000661363,-5.01831e-06,6.24944e-06,1.1128e-05,1.30885e-05,-1.18574e-05,1.01973,2.16125e-05,-0.377238,1.53339,-2.83025,0.0480907,-0.00508753,0.00205816,0.00233577,90,464,0.00431907,-0.0830559,53.7535,90.0223,53.7304,90.1031,6.10864e-05,5.77515e-05,0.000217575
-18.2786,10.3398,-298.167,0.000579331,0.00301206,0.000614915,1.60197e-05,4.84333e-06,2.10869e-05,3.22463e-05,-1.13833e-05,0.655872,3.91978e-05,-0.329961,1.50579,-2.77712,0.0337114,-0.00368212,-0.00668384,0.00244084,97,464,0.00571921,-0.0823519,54.5329,90.6986,54.5089,90.7815,6.33984e-05,6.14443e-05,0.000224823
-17.997,10.3273,-298.179,0.000612299,0.00297316,0.000727629,3.63239e-05,1.79884e-06,3.42845e-05,5.74466e-05,-1.93238e-05,0.552173,6.91637e-05,-0.273696,1.46289,-2.93226,0.027747,-0.00274565,-0.0118191,0.00252972,104,464,0.00566816,-0.0810526,55.4306,91.396,55.4049,91.478,6.49574e-05,6.4011e-05,0.00022967
-17.7136,10.3148,-298.186,0.000655107,0.00293725,0.00085805,5.30886e-05,-2.39383e-06,4.8359e-05,8.10983e-05,-3.04036e-05,0.524988,9.98348e-05,-0.278339,1.48638,-3.33009,0.0269177,-0.00224504,-0.0134053,0.0025799,111,464,0.00571859,-0.0796384,56.4071,92.0916,56.3793,92.1729,6.64471e-05,6.47937e-05,0.000233984
-17.4284,10.3024,-298.186,0.000708074,0.0028782,0.000912957,6.59783e-05,-7.68148e-06,6.21198e-05,0.000101366,-4.30687e-05,0.517812,0.000128435,-0.275506,1.53665,-3.63174,0.0276024,-0.00148878,-0.012988,0.00259308,118,464,0.00665277,-0.0783135,57.4723,92.7894,57.4428,92.8688,6.759e-05,6.46182e-05,0.000236742
-17.1413,10.29,-298.181,0.000750667,0.00289197,0.000937065,7.44078e-05,-1.42343e-05,7.42889e-05,0.000116592,-5.64188e-05,0.516439,0.000152823,-0.286122,1.56465,-3.80819,0.0293143,-0.000175161,-0.0114569,0.00258381,125,464,0.00751873,-0.0781248,58.6257,93.485,58.5947,93.5653,6.79671e-05,6.39287e-05,0.000236194
-16.8535,10.2777,-298.174,0.000745989,0.00292936,0.00111958,7.74326e-05,-2.19596e-05,8.35478e-05,0.000124947,-6.94743e-05,0.517096,0.000170643,-0.297784,1.53942,-3.71386,0.0328625,0.00145727,-0.00934488,0.00255613,132,464,0.00593353,-0.0776089,59.8091,94.1784,59.7768,94.2609,6.76417e-05,6.36953e-05,0.00023506
-16.5652,10.2652,-298.164,0.000756113,0.00298882,0.00141872,7.70335e-05,-3.0171e-05,8.88248e-05,0.000127176,-8.03139e-05,0.513918,0.000181213,-0.282061,1.48132,-3.66319,0.0366369,0.00303031,-0.0084862,0.00246362,139,464,0.00376572,-0.0767933,61.016,94.8777,60.9812,94.9639,6.56738e-05,6.30331e-05,0.000229084
-16.2763,10.2526,-298.153,0.000761323,0.00304105,0.00196562,7.31926e-05,-3.87766e-05,9.03753e-05,0.000123519,-8.91027e-05,0.508093,0.000184938,-0.301753,1.47411,-3.58697,0.038653,0.00488956,-0.00753361,0.00239711,146,464,-0.000508732,-0.0761694,62.256,95.5822,62.2171,95.6715,6.32812e-05,6.16561e-05,0.000221376
-15.9841,10.2399,-298.131,0.000789916,0.00306481,0.00246909,6.61624e-05,-4.81625e-05,8.74911e-05,0.000113509,-9.55096e-05,0.496034,0.000181239,-0.265891,1.53054,-3.50712,0.0374503,0.00714746,-0.00644979,0.00238163,153,464,-0.00384086,-0.0767536,63.648,96.3015,63.6047,96.3914,6.34787e-05,6.06705e-05,0.000221704
-15.6896,10.2275,-298.101,0.000793268,0.0030591,0.00281941,5.4746e-05,-5.81749e-05,7.9952e-05,9.61636e-05,-9.95924e-05,0.477968,0.000169538,-0.251068,1.61442,-3.54374,0.0338437,0.00960116,-0.00593414,0.002444,160,464,-0.00653199,-0.0778193,65.1588,97.0079,65.113,97.0964,6.53373e-05,6.02965e-05,0.000226913
-15.3937,10.2147,-298.067,0.00082711,0.00307814,0.00323104,3.88306e-05,-6.85231e-05,6.84328e-05,7.21264e-05,-0.000101819,0.452829,0.000151371,-0.266227,1.63165,-3.65076,0.0280179,0.0120033,-0.00645697,0.00246361,167,464,-0.00897846,-0.079452,66.7338,97.7353,66.6841,97.8232,6.58985e-05,5.9398e-05,0.000228295
-15.0977,10.202,-298.032,0.000837249,0.00310532,0.00356202,2.04246e-05,-7.83508e-05,5.34334e-05,4.37987e-05,-0.000101725,0.412362,0.000129312,-0.295317,1.60942,-3.66084,0.0203137,0.0138797,-0.00697827,0.00242173,174,464,-0.0113537,-0.0811955,68.3196,98.4584,68.2673,98.5459,6.50132e-05,5.82671e-05,0.000224574
-14.804,10.1895,-298.003,0.000805465,0.00314301,0.00385687,2.62515e-06,-8.69731e-05,3.57192e-05,1.51219e-05,-9.94699e-05,0.336552,0.000107829,-0.310909,1.54759,-3.63043,0.0112013,0.0152604,-0.00676401,0.00235473,181,464,-0.0144591,-0.082564,69.7846,99.1687,69.731,99.2569,6.34027e-05,5.66286e-05,0.000219224
-14.5135,10.1767,-297.984,0.000723645,0.00316083,0.00404881,-1.28707e-05,-9.37966e-05,1.68322e-05,-9.50928e-06,-9.7158e-05,0.197107,9.27696e-05,-0.26329,1.49928,-3.44329,-0.000456845,0.0161335,-0.00562357,0.0022901,188,464,-0.0179249,-0.0823454,71.0841,99.8871,71.0313,99.9764,6.17994e-05,5.40332e-05,0.000213403
-14.224,10.164,-297.968,0.000679299,0.00316385,0.0040809,-2.59497e-05,-9.94542e-05,-1.81483e-06,-2.59049e-05,-9.94989e-05,-0.02467,8.94069e-05,-0.219613,1.43656,-3.2812,-0.0131041,0.0164525,-0.00413222,0.00227076,195,464,-0.0191774,-0.0817306,72.3348,100.6,72.2829,100.69,6.12286e-05,5.24238e-05,0.000211715
-13.9338,10.1516,-297.949,0.000681561,0.00308032,0.00419916,-3.54779e-05,-0.000104453,-1.84514e-05,-3.08522e-05,-0.000109079,-0.245634,9.73896e-05,-0.202719,1.41418,-3.20219,-0.02629,0.0160878,-0.00327364,0.00232472,202,464,-0.0198831,-0.0796989,73.6218,101.302,73.569,101.389,6.25833e-05,5.36709e-05,0.000215817
-13.642,10.1391,-297.924,0.000687725,0.00299418,0.00417758,-4.12291e-05,-0.000109396,-3.18301e-05,-2.86774e-05,-0.000121948,-0.375612,0.000110438,-0.205184,1.40592,-3.17491,-0.0394425,0.014533,-0.00251441,0.00240131,209,464,-0.0193984,-0.0785993,74.9903,102.012,74.9376,102.096,6.382e-05,5.68797e-05,0.000219713
-13.3487,10.1266,-297.895,0.000671127,0.00297356,0.00415859,-4.5297e-05,-0.000113748,-4.22434e-05,-2.51544e-05,-0.000133891,-0.444934,0.000123254,-0.205435,1.42853,-3.13259,-0.0496469,0.0117021,-0.000797099,0.00245486,216,464,-0.0195834,-0.080052,76.4278,102.725,76.3757,102.806,6.39295e-05,5.98324e-05,0.000220348
-13.0543,10.114,-297.861,0.000649421,0.00299592,0.00412617,-4.79094e-05,-0.000117241,-4.96633e-05,-2.20098e-05,-0.00014314,-0.480703,0.000133503,-0.241612,1.48211,-3.15766,-0.0560437,0.00801413,0.00191683,0.00245275,223,464,-0.0198228,-0.0817598,77.9263,103.439,77.875,103.52,6.35787e-05,6.09529e-05,0.000219508
-12.7585,10.1014,-297.823,0.000646858,0.0030567,0.00406065,-4.75148e-05,-0.000119574,-5.37849e-05,-1.88069e-05,-0.000148282,-0.490285,0.00013983,-0.293521,1.52527,-3.10048,-0.0587107,0.00407326,0.00497247,0.00239505,230,464,-0.0193756,-0.0844985,79.493,104.155,79.4421,104.236,6.3209e-05,6.00894e-05,0.000218431
-12.4615,10.0881,-297.78,0.000659742,0.00306529,0.00402841,-4.27442e-05,-0.000120716,-5.54929e-05,-1.39114e-05,-0.000149548,-0.479186,0.000143101,-0.356305,1.55405,-3.05206,-0.0592843,0.000823973,0.00748309,0.00234821,237,464,-0.0187585,-0.0862185,81.1195,104.908,81.0686,104.989,6.33687e-05,5.83019e-05,0.000218498
-12.1634,10.0749,-297.733,0.000668645,0.00306418,0.00399012,-3.64261e-05,-0.000120711,-5.65704e-05,-8.02633e-06,-0.00014911,-0.465266,0.000145264,-0.400378,1.58532,-3.05197,-0.0568308,-0.00109687,0.00854179,0.00232489,244,464,-0.0181711,-0.0870263,82.807,105.663,82.756,105.743,6.19342e-05,5.6994e-05,0.00021283
-11.865,10.0618,-297.685,0.000620794,0.00305367,0.00395545,-3.28866e-05,-0.000119519,-5.75946e-05,-4.13743e-06,-0.000148269,-0.462979,0.000146244,-0.423497,1.59613,-3.00614,-0.0493143,-0.000710992,0.00799915,0.00229605,251,464,-0.0190008,-0.087359,84.5091,106.406,84.4597,106.485,6.02803e-05,5.65007e-05,0.000207216
-11.5668,10.0488,-297.636,0.000591673,0.0030766,0.00396814,-2.95014e-05,-0.000117063,-6.12696e-05,2.02195e-06,-0.000148586,-0.475182,0.000149608,-0.452776,1.58244,-3.03976,-0.036695,0.00068653,0.00587486,0.00222951,258,464,-0.0197699,-0.0882536,86.2025,107.149,86.1537,107.229,5.77627e-05,5.50592e-05,0.000199293
-11.2695,10.0359,-297.59,0.000540006,0.0031263,0.00400648,-2.4217e-05,-0.000113345,-6.7349e-05,1.19768e-05,-0.000149539,-0.493123,0.000155873,-0.4928,1.56561,-3.16772,-0.024029,0.00313671,0.00332593,0.00215894,265,464,-0.0213373,-0.0905334,87.8548,107.882,87.807,107.962,5.634e-05,5.35477e-05,0.000195254
-10.9728,10.0229,-297.545,0.000541846,0.00314968,0.00391004,-1.96169e-05,-0.00010794,-7.57346e-05,2.38913e-05,-0.000151448,-0.521445,0.000164698,-0.505646,1.53501,-3.28874,-0.0141458,0.00643029,0.000522377,0.00203662,272,464,-0.0205157,-0.0925134,89.4759,108.62,89.4288,108.7,5.43017e-05,5.09351e-05,0.000188891
-10.676,10.01,-297.499,0.000588294,0.00316241,0.00377415,-1.76097e-05,-0.000101689,-8.53904e-05,3.55287e-05,-0.000154827,-0.556655,0.000175313,-0.47534,1.53196,-3.26484,-0.00564683,0.0103843,-0.00218899,0.00204912,279,464,-0.0182689,-0.0937456,91.1031,109.355,91.0556,109.434,5.35412e-05,5.12908e-05,0.000186822
-10.3789,9.99707,-297.452,0.000651036,0.00314976,0.00358413,-1.94688e-05,-9.55819e-05,-9.49035e-05,4.47243e-05,-0.000159775,-0.594713,0.00018621,-0.432155,1.5549,-3.28187,0.00355724,0.0140762,-0.00433531,0.00213696,286,464,-0.0151673,-0.0937375,92.755,110.093,92.7071,110.172,5.34423e-05,5.35241e-05,0.000186566
-10.0807,9.98403,-297.4,0.000638762,0.00309168,0.00350023,-2.46803e-05,-8.96616e-05,-0.000102736,5.058e-05,-0.000164922,-0.632247,0.00019519,-0.425389,1.54988,-3.24668,0.0131904,0.0174101,-0.00563197,0.00219374,293,464,-0.0146929,-0.0924426,94.456,110.839,94.4091,110.915,5.47141e-05,5.55661e-05,0.000190387
-9.7797,9.97123,-297.339,0.000553727,0.00296701,0.00331668,-3.05183e-05,-8.34664e-05,-0.000109953,5.61028e-05,-0.000170088,-0.667259,0.000204009,-0.433107,1.48523,-3.11631,0.0210844,0.0197005,-0.00558422,0.00215108,300,464,-0.0152232,-0.091367,96.3103,111.579,96.2674,111.65,5.52041e-05,5.50779e-05,0.000191304
-9.47329,9.95811,-297.259,0.000502768,0.00285942,0.0030633,-3.75027e-05,-7.66998e-05,-0.000115781,6.03264e-05,-0.000174529,-0.701556,0.000211254,-0.415265,1.43488,-2.91212,0.0268631,0.020565,-0.00459779,0.00212455,307,464,-0.0143923,-0.0901244,98.4491,112.343,98.4096,112.41,5.51282e-05,5.39952e-05,0.00019049
-9.16216,9.94426,-297.163,0.000539084,0.00278167,0.00302423,-4.44518e-05,-7.02901e-05,-0.000119156,6.24832e-05,-0.000177225,-0.731398,0.000215375,-0.406197,1.43394,-2.77704,0.0316693,0.0201498,-0.0031926,0.00213941,314,464,-0.0130709,-0.0895471,100.844,113.152,100.804,113.216,5.53508e-05,5.45108e-05,0.000190651
-8.84689,9.93063,-297.053,0.000682386,0.00277149,0.00315434,-4.95801e-05,-6.51178e-05,-0.000119545,6.24479e-05,-0.000177146,-0.75295,0.000215274,-0.448971,1.48408,-2.92048,0.0353118,0.0181972,-0.00224094,0.00218036,321,464,-0.0104651,-0.0913892,103.469,113.955,103.424,114.016,5.62215e-05,5.5841e-05,0.000193498
-8.53578,9.91685,-296.955,0.000786383,0.00278313,0.00323223,-5.35105e-05,-6.13033e-05,-0.000117257,5.99146e-05,-0.000174728,-0.76879,0.00021116,-0.500739,1.52864,-3.08691,0.0373244,0.0143634,-0.00177824,0.00219367,328,464,-0.00842759,-0.0922514,105.882,114.757,105.833,114.819,5.66056e-05,5.5642e-05,0.000195078
-8.23179,9.90363,-296.879,0.000795702,0.00279106,0.00315127,-5.748e-05,-5.83986e-05,-0.000112922,5.4984e-05,-0.000170863,-0.783364,0.00020399,-0.511931,1.52879,-3.13891,0.0389321,0.00909805,-0.00162449,0.0021664,335,464,-0.00751925,-0.0922821,107.922,115.52,107.873,115.582,5.5831e-05,5.43462e-05,0.000192588
-7.9331,9.89097,-296.821,0.000722409,0.00279343,0.00300556,-6.25058e-05,-5.54106e-05,-0.000106402,4.75028e-05,-0.000165419,-0.802063,0.000193592,-0.447473,1.49934,-3.06495,0.0417611,0.00294094,-0.00132087,0.0021389,342,464,-0.00816949,-0.0918592,109.684,116.246,109.639,116.308,5.4315e-05,5.39811e-05,0.00018759
-7.63959,9.87853,-296.778,0.000658679,0.0027398,0.00292929,-6.72435e-05,-5.14288e-05,-9.79741e-05,3.89566e-05,-0.000157629,-0.825665,0.000180292,-0.384952,1.48803,-2.9653,0.0446728,-0.00329731,-0.000464672,0.00214928,349,464,-0.00906962,-0.0911262,111.176,116.955,111.133,117.015,5.38105e-05,5.40856e-05,0.000186047
-7.34979,9.86625,-296.748,0.000601699,0.00268735,0.00293465,-6.93143e-05,-4.61033e-05,-8.93353e-05,3.23772e-05,-0.000147795,-0.849991,0.000166363,-0.33776,1.45747,-2.8801,0.0468085,-0.00968771,0.000402011,0.00222,356,464,-0.0104229,-0.0905382,112.472,117.65,112.431,117.708,5.48918e-05,5.5584e-05,0.000189654
-7.06134,9.85374,-296.721,0.000594224,0.00269943,0.00272956,-7.25917e-05,-3.88211e-05,-8.15064e-05,2.75307e-05,-0.000138943,-0.887536,0.000154559,-0.326475,1.46214,-2.77541,0.0472426,-0.014998,0.000838569,0.00228387,363,464,-0.00901911,-0.0906842,113.698,118.353,113.658,118.411,5.70199e-05,5.67143e-05,0.000196784
-6.7729,9.84122,-296.694,0.000601791,0.00271445,0.00254363,-7.90972e-05,-3.01683e-05,-7.51815e-05,2.44291e-05,-0.000133695,-0.942697,0.000147435,-0.31624,1.4609,-2.69217,0.0480982,-0.0194242,-0.000551365,0.00224106,370,464,-0.00739548,-0.0909616,114.925,119.056,114.886,119.115,5.76753e-05,5.48999e-05,0.000199007
-6.4821,9.82827,-296.658,0.000634452,0.00270376,0.0023592,-8.80626e-05,-2.06675e-05,-7.04827e-05,2.37588e-05,-0.000132489,-1.00838,0.000145827,-0.320692,1.4312,-2.64907,0.0482409,-0.0228356,-0.00326742,0.0021511,377,464,-0.00514031,-0.090895,116.28,119.786,116.242,119.845,5.71269e-05,5.23847e-05,0.000197195
-6.18756,9.81517,-296.609,0.000669495,0.00266139,0.00228689,-9.76228e-05,-1.04551e-05,-6.7293e-05,2.61352e-05,-0.000134213,-1.07277,0.00014901,-0.315547,1.41743,-2.64665,0.0444818,-0.0252013,-0.00598088,0.00208523,384,464,-0.0036635,-0.0918561,117.84,120.533,117.802,120.589,5.56557e-05,5.02496e-05,0.000192246
-5.88918,9.80215,-296.546,0.000678664,0.0026143,0.00237392,-0.000106859,3.99873e-07,-6.52951e-05,3.12663e-05,-0.000137726,-1.12921,0.000155731,-0.313183,1.41769,-2.62362,0.0363631,-0.026239,-0.00849394,0.00205986,391,464,-0.00401533,-0.0928012,119.613,121.283,119.574,121.335,5.48302e-05,4.90893e-05,0.000189374
-5.58952,9.78909,-296.479,0.000686803,0.00265729,0.00249327,-0.000115492,1.07871e-05,-6.34273e-05,3.71441e-05,-0.000141849,-1.17696,0.000163614,-0.308669,1.47172,-2.6138,0.0262785,-0.0269863,-0.0117991,0.00204437,398,464,-0.00468014,-0.093252,121.461,122.031,121.421,122.085,5.44935e-05,4.96287e-05,0.000188198
-5.29056,9.77603,-296.412,0.000647945,0.00272233,0.00247713,-0.000124439,2.01846e-05,-5.99512e-05,4.18043e-05,-0.000146059,-1.22469,0.000170841,-0.32406,1.54372,-2.63622,0.0147191,-0.0265307,-0.0159634,0.00200908,405,464,-0.00552136,-0.0932225,123.275,122.777,123.235,122.834,5.36026e-05,4.96028e-05,0.000185109
-4.99235,9.76318,-296.348,0.000607324,0.00271491,0.00237285,-0.00013236,2.78236e-05,-5.45528e-05,4.46375e-05,-0.000149174,-1.27182,0.000175796,-0.343444,1.59175,-2.72502,0.00141485,-0.0248862,-0.0192186,0.0019862,412,464,-0.00569497,-0.0923062,125.052,123.514,125.014,123.572,5.26277e-05,4.92119e-05,0.000181708
-4.69385,9.75036,-296.282,0.000533855,0.00266792,0.00225864,-0.000136095,3.41071e-05,-4.78012e-05,4.66132e-05,-0.000148601,-1.31491,0.000176583,-0.341105,1.58916,-2.81927,-0.0120954,-0.0223,-0.0212212,0.00197194,419,464,-0.00660732,-0.0919457,126.849,124.253,126.815,124.309,5.21752e-05,4.87498e-05,0.000180083
-4.39347,9.73744,-296.208,0.000464288,0.00259915,0.00207046,-0.000134991,3.88683e-05,-3.97957e-05,4.75445e-05,-0.000143667,-1.35614,0.000172428,-0.285317,1.55254,-2.89897,-0.0231082,-0.0191136,-0.0222513,0.00195451,426,464,-0.00686409,-0.091191,128.755,125.001,128.724,125.054,5.17745e-05,4.78177e-05,0.000178618
-4.09127,9.72409,-296.128,0.000417515,0.00258883,0.00186307,-0.000130141,4.2158e-05,-3.09349e-05,4.75437e-05,-0.000135527,-1.39842,0.000164534,-0.26229,1.49264,-3.05631,-0.0306438,-0.0152331,-0.0227437,0.0019183,433,464,-0.00646825,-0.091145,130.768,125.773,130.74,125.826,5.03937e-05,4.72096e-05,0.000173746
-3.7883,9.71067,-296.043,0.000409197,0.00261221,0.00170949,-0.000121733,4.36466e-05,-2.14222e-05,4.63765e-05,-0.000124463,-1.44405,0.000153016,-0.250884,1.48771,-3.15868,-0.0358091,-0.0107063,-0.0224844,0.00192625,440,464,-0.00554292,-0.0917936,132.833,126.55,132.806,126.603,5.00941e-05,4.79371e-05,0.00017261
-3.4854,9.69727,-295.958,0.000394274,0.00262446,0.00155874,-0.000110633,4.34045e-05,-1.12593e-05,4.42232e-05,-0.000111452,-1.49822,0.000138946,-0.25657,1.47957,-3.15117,-0.0388413,-0.00629656,-0.0213732,0.0019658,447,464,-0.00479531,-0.092025,134.9,127.325,134.875,127.379,5.07223e-05,4.92092e-05,0.000174624
-3.18262,9.68403,-295.873,0.000385214,0.00263157,0.00148925,-9.6404e-05,4.22224e-05,-8.63248e-07,4.22278e-05,-9.64094e-05,-1.56457,0.000123082,-0.276926,1.44457,-2.93889,-0.0388797,-0.00273602,-0.019382,0.00203338,454,464,-0.00450343,-0.092839,136.971,128.094,136.947,128.148,5.26427e-05,5.0549e-05,0.000181073
-2.87841,9.67081,-295.782,0.000330607,0.00264217,0.00148926,-8.11719e-05,4.12239e-05,9.8827e-06,4.20167e-05,-8.19647e-05,1.49074,0.000109213,-0.313714,1.40327,-2.89091,-0.0359441,-0.000170436,-0.0167468,0.00212901,461,464,-0.00585577,-0.0929804,139.129,128.864,139.106,128.918,5.55276e-05,5.16876e-05,0.000190841
-2.5723,9.65744,-295.682,0.000312604,0.00263255,0.00151928,-6.77837e-05,4.10293e-05,2.09521e-05,4.49242e-05,-7.16786e-05,1.387,0.000101863,-0.361611,1.39876,-2.92883,-0.0302802,0.00196657,-0.0138581,0.0022094,468,464,-0.00647488,-0.0921538,141.404,129.645,141.382,129.7,5.8329e-05,5.27409e-05,0.000200485
-2.2655,9.64396,-295.58,0.000333704,0.00262154,0.00169685,-5.57561e-05,4.18138e-05,3.10038e-05,5.0832e-05,-6.47743e-05,1.28773,0.00010036,-0.383059,1.4057,-2.90448,-0.0232464,0.0040575,-0.0107211,0.00229838,475,464,-0.00717805,-0.091657,143.73,130.435,143.705,130.489,6.12236e-05,5.41603e-05,0.000210524
-1.95996,9.63112,-295.481,0.000353145,0.00259362,0.00176679,-4.39549e-05,4.32126e-05,3.92335e-05,5.82702e-05,-5.90125e-05,1.20434,0.00010157,-0.378001,1.41634,-2.82801,-0.0144418,0.00612689,-0.00753329,0.00231668,482,464,-0.00713155,-0.0912778,145.994,131.191,145.969,131.244,6.17896e-05,5.55457e-05,0.00021234
-1.65785,9.61839,-295.393,0.000340478,0.00254838,0.00175727,-3.23999e-05,4.50322e-05,4.58868e-05,6.63539e-05,-5.37216e-05,1.13582,0.00010418,-0.346521,1.43309,-2.71358,-0.0054151,0.00788672,-0.00523842,0.00229983,489,464,-0.00729631,-0.0901165,148.074,131.935,148.049,131.987,6.11245e-05,5.62987e-05,0.000209682
-1.36039,9.60545,-295.32,0.00030662,0.00257677,0.00168223,-2.09945e-05,4.67785e-05,5.15673e-05,7.45968e-05,-4.88128e-05,1.07608,0.000107651,-0.350523,1.45932,-2.65778,-0.00043989,0.00907217,-0.00359318,0.00229708,496,464,-0.0075936,-0.0899374,149.896,132.68,149.872,132.734,6.08867e-05,5.65284e-05,0.000208521
-1.06683,9.59232,-295.26,0.000298973,0.00258513,0.00159365,-1.07357e-05,4.80998e-05,5.62416e-05,8.21526e-05,-4.47886e-05,1.02636,0.00011151,-0.380983,1.4423,-2.88299,0.000227198,0.00992147,-0.00131439,0.00228544,503,464,-0.0071178,-0.0895473,151.504,133.43,151.48,133.484,6.07558e-05,5.69502e-05,0.000207646
-0.775696,9.57952,-295.208,0.000306072,0.00260441,0.00153602,-2.35211e-07,4.84989e-05,6.0445e-05,8.93035e-05,-4.10399e-05,0.976998,0.000115431,-0.39017,1.45421,-3.22521,-0.000814653,0.0103931,0.00146207,0.00227289,510,464,-0.00652764,-0.0907292,152.98,134.159,152.957,134.213,6.04353e-05,5.72894e-05,0.000206271
-0.48342,9.5667,-295.151,0.000348539,0.00264577,0.00148208,1.06991e-05,4.83027e-05,6.38842e-05,9.60944e-05,-3.70926e-05,0.928513,0.000119056,-0.369069,1.47776,-3.45611,-0.000228569,0.0107569,0.0042513,0.0023049,517,464,-0.00510966,-0.0933334,154.528,134.891,154.504,134.945,6.2027e-05,5.74446e-05,0.000211573
-0.188769,9.55372,-295.085,0.000382482,0.0027211,0.00144539,1.86352e-05,4.69991e-05,6.67433e-05,0.000101051,-3.54162e-05,0.890084,0.000122655,-0.314705,1.47608,-3.46952,6.67897e-05,0.0115665,0.00752042,0.00232684,524,464,-0.00406099,-0.096378,156.218,135.636,156.194,135.691,6.2611e-05,5.6542e-05,0.000213499
0.10804,9.54076,-295.01,0.000437397,0.00283032,0.00132811,2.76557e-05,4.45841e-05,7.007e-05,0.000106699,-3.44595e-05,0.845505,0.000127472,-0.260969,1.44563,-3.45385,-0.0066795,0.0123742,0.0122093,0.00236342,531,464,-0.00194826,-0.1003,158.041,136.382,158.016,136.44,6.2615e-05,5.72872e-05,0.00021355
0.405426,9.5279,-294.932,0.000465154,0.00286073,0.00136886,3.63415e-05,4.03947e-05,7.41186e-05,0.000112514,-3.57782e-05,0.799066,0.000134034,-0.231202,1.42879,-3.33503,-0.0155226,0.0126223,0.019027,0.00239582,538,464,-0.00154152,-0.101441,159.906,137.127,159.88,137.185,6.21683e-05,5.93889e-05,0.000211589
0.702334,9.51519,-294.855,0.000485108,0.00288511,0.00135313,4.2897e-05,3.45428e-05,7.84081e-05,0.000117239,-3.97994e-05,0.758786,0.000141404,-0.243713,1.45843,-3.35407,-0.0225488,0.011958,0.0275145,0.00241473,545,464,-0.000909346,-0.101475,161.752,137.863,161.725,137.922,6.23549e-05,6.10704e-05,0.000211403
0.997808,9.50274,-294.782,0.000526021,0.00285855,0.00141669,4.44585e-05,2.70557e-05,8.25121e-05,0.000118727,-4.72126e-05,0.732864,0.000148089,-0.287141,1.52596,-3.47822,-0.026631,0.0104715,0.0373519,0.00247927,552,464,-0.000217173,-0.0986186,163.524,138.583,163.495,138.644,6.41197e-05,6.27716e-05,0.000216941
1.29132,9.49025,-294.715,0.000534559,0.00285356,0.00127648,3.86016e-05,1.84544e-05,8.64485e-05,0.000115561,-5.85054e-05,0.727396,0.000153422,-0.304987,1.58516,-3.5432,-0.028899,0.00794071,0.0478563,0.00255113,559,464,0.00107763,-0.0952742,165.187,139.3,165.159,139.363,6.57858e-05,6.40929e-05,0.000222504
1.58298,9.47746,-294.654,0.000547543,0.00288029,0.00117178,2.49662e-05,1.01605e-05,8.99467e-05,0.000107814,-7.26875e-05,0.74434,0.000157303,-0.315042,1.64498,-3.49314,-0.0291847,0.00339487,0.0583029,0.00259814,566,464,0.00217733,-0.0938808,166.748,140.03,166.721,140.097,6.71187e-05,6.55004e-05,0.000226586
1.8723,9.46439,-294.601,0.000549753,0.00289842,0.00121019,-2.27256e-07,4.74524e-06,9.4396e-05,9.66877e-05,-9.21697e-05,0.798564,0.000163571,-0.305378,1.65646,-3.23643,-0.0223203,-0.00373375,0.0674356,0.0026191,573,464,0.00198031,-0.0940461,168.179,140.773,168.151,140.841,6.91776e-05,6.63251e-05,0.000232864
0,0,0,0,0,0,0,0,0,0,0,0,0,0,0,0,0,0,0,-1,580,464,0,0,0,0,0,0,0,0,0
0,0,0,0,0,0,0,0,0,0,0,0,0,0,0,0,0,0,0,-1,587,464,0,0,0,0,0,0,0,0,0
0,0,0,0,0,0,0,0,0,0,0,0,0,0,0,0,0,0,0,-1,594,464,0,0,0,0,0,0,0,0,0
0,0,0,0,0,0,0,0,0,0,0,0,0,0,0,0,0,0,0,-1,601,464,0,0,0,0,0,0,0,0,0
0,0,0,0,0,0,0,0,0,0,0,0,0,0,0,0,0,0,0,-1,62,471,0,0,0,0,0,0,0,0,0
0,0,0,0,0,0,0,0,0,0,0,0,0,0,0,0,0,0,0,-1,69,471,0,0,0,0,0,0,0,0,0
0,0,0,0,0,0,0,0,0,0,0,0,0,0,0,0,0,0,0,-1,76,471,0,0,0,0,0,0,0,0,0
-18.8516,10.0925,-298.134,0.00056773,0.00289224,0.000348539,-3.26042e-05,8.72319e-06,5.05026e-06,9.33138e-06,-3.32124e-05,1.45094,3.87306e-05,-0.395475,1.54651,-3.00971,0.073779,-0.00876321,0.0155939,0.00221432,83,471,0.00771657,-0.0804294,52.1686,90.2319,52.1469,90.3105,5.71465e-05,5.66492e-05,0.000205175
-18.5754,10.0799,-298.163,0.000580544,0.00294674,0.000397475,-1.73992e-05,8.82571e-06,9.04947e-06,1.16453e-05,-2.02187e-05,1.26876,2.7926e-05,-0.35949,1.57671,-2.97033,0.0522221,-0.00742546,0.00686765,0.00224992,90,471,0.00760196,-0.0804187,52.8112,90.9222,52.7887,91.0035,5.80031e-05,5.73368e-05,0.000207769
-18.2974,10.0676,-298.186,0.000612525,0.00300441,0.000416829,3.76401e-06,6.88523e-06,1.91483e-05,2.45364e-05,-1.38872e-05,0.826059,3.36992e-05,-0.317799,1.55713,-2.9436,0.0373319,-0.00569917,-0.00141044,0.00233958,97,471,0.00820433,-0.0801186,53.5367,91.5963,53.5129,91.6808,6.01611e-05,5.95872e-05,0.000214064
-18.017,10.0554,-298.202,0.000603996,0.00299923,0.000556335,2.53457e-05,2.98969e-06,3.23187e-05,4.83649e-05,-2.00295e-05,0.618904,6.09021e-05,-0.278625,1.50086,-3.12281,0.0313679,-0.00422075,-0.00668696,0.00242644,104,471,0.00688021,-0.0794967,54.3734,92.2747,54.349,92.3595,6.25891e-05,6.14997e-05,0.000221051
-17.7348,10.0433,-298.212,0.000613501,0.00296474,0.000720248,4.41972e-05,-2.21004e-06,4.64186e-05,7.28887e-05,-3.09015e-05,0.553623,9.2304e-05,-0.294309,1.50664,-3.55257,0.030764,-0.0028887,-0.00880594,0.00248133,111,471,0.00582416,-0.0788316,55.2948,92.9516,55.2691,93.0351,6.43963e-05,6.22283e-05,0.000226477
-17.4506,10.0311,-298.216,0.000633968,0.00290865,0.000818967,5.96007e-05,-8.39262e-06,6.04105e-05,9.49236e-05,-4.37156e-05,0.529105,0.000122765,-0.320467,1.55068,-3.86838,0.0315164,-0.00117141,-0.00925053,0.00247718,118,471,0.00559696,-0.077693,56.3052,93.6338,56.2782,93.7153,6.5028e-05,6.18819e-05,0.000227917
-17.1646,10.0189,-298.215,0.000665315,0.00290057,0.000861881,7.07731e-05,-1.54439e-05,7.30904e-05,0.000112521,-5.71914e-05,0.518956,0.000149556,-0.346815,1.56293,-3.93278,0.0329722,0.00111011,-0.00873078,0.00246205,125,471,0.00604996,-0.0772824,57.4048,94.3185,57.3767,94.3999,6.53331e-05,6.15855e-05,0.000227573
-16.8777,10.0067,-298.21,0.000682194,0.00294636,0.00111084,7.65614e-05,-2.31556e-05,8.30339e-05,0.000123556,-7.015e-05,0.515019,0.000169866,-0.379932,1.52695,-3.78815,0.0361357,0.00365276,-0.00761297,0.00240435,132,471,0.00445005,-0.0765391,58.5434,95.004,58.5129,95.0884,6.41831e-05,6.05607e-05,0.000224406
-16.5897,9.99417,-298.201,0.000714335,0.0030206,0.00145873,7.87686e-05,-3.08954e-05,8.89192e-05,0.000128403,-8.05295e-05,0.509112,0.000182517,-0.361636,1.45443,-3.5872,0.0395533,0.00605258,-0.00748476,0.00235722,139,471,0.00242385,-0.0752992,59.7405,95.7014,59.7064,95.7905,6.2498e-05,6.01917e-05,0.00021938
-16.2997,9.98163,-298.187,0.000762359,0.00308978,0.0020749,7.76386e-05,-3.89051e-05,9.13124e-05,0.000127688,-8.89548e-05,0.501395,0.000188615,-0.343307,1.45163,-3.39232,0.0411519,0.00840385,-0.00727096,0.00235359,146,471,-0.00137841,-0.075136,61.0297,96.4047,60.9897,96.4973,6.13539e-05,6.04388e-05,0.00021545
-16.0059,9.96896,-298.16,0.000798696,0.00309189,0.00259992,7.33111e-05,-4.75e-05,8.94695e-05,0.000120858,-9.50464e-05,0.488471,0.000187423,-0.279296,1.53133,-3.26027,0.0394922,0.0109086,-0.00693075,0.00235603,153,471,-0.0046884,-0.0763603,62.5025,97.124,62.458,97.2154,6.15311e-05,6.01123e-05,0.000215171
-15.7096,9.95621,-298.125,0.000791781,0.00308923,0.00301918,6.44154e-05,-5.65039e-05,8.30052e-05,0.000106646,-9.87343e-05,0.470637,0.000177908,-0.250275,1.61392,-3.271,0.0354753,0.0134079,-0.00701946,0.00240688,160,471,-0.00819861,-0.0782597,64.0986,97.8521,64.0514,97.9415,6.30488e-05,5.99048e-05,0.000219404
-15.4126,9.94339,-298.087,0.000793486,0.00310678,0.00340611,5.04505e-05,-6.56709e-05,7.23371e-05,8.5146e-05,-0.000100366,0.447224,0.000160839,-0.26116,1.63784,-3.36627,0.0292675,0.0156,-0.00780574,0.00241386,167,471,-0.0112389,-0.0803218,65.7298,98.5842,65.6798,98.6725,6.40636e-05,5.8529e-05,0.00022214
-15.1169,9.93096,-298.053,0.000787444,0.00311056,0.00367921,3.34123e-05,-7.42941e-05,5.78716e-05,5.86116e-05,-9.94934e-05,0.410675,0.00013844,-0.308932,1.60434,-3.45127,0.0212475,0.0170255,-0.00831134,0.00237441,174,471,-0.0135231,-0.0816415,67.2965,99.2937,67.2448,99.3809,6.35903e-05,5.68873e-05,0.000219759
-14.8244,9.91862,-298.029,0.000749891,0.0031378,0.00392147,1.62105e-05,-8.19045e-05,4.05184e-05,3.07798e-05,-9.64738e-05,0.345178,0.000114996,-0.348723,1.5443,-3.44472,0.0118507,0.0178578,-0.00788166,0.00230273,181,471,-0.0163316,-0.0824121,68.6993,99.9922,68.6469,100.08,6.18919e-05,5.46862e-05,0.00021404
-14.5351,9.906,-298.013,0.000687949,0.00316616,0.00403011,7.23252e-07,-8.82314e-05,2.20615e-05,5.8941e-06,-9.34023e-05,0.230228,9.64844e-05,-0.316162,1.50662,-3.33986,6.47144e-05,0.0182012,-0.00639555,0.00221613,188,471,-0.0186528,-0.0822467,69.9433,100.7,69.8916,100.79,5.97099e-05,5.17268e-05,0.000206454
-14.2455,9.89353,-297.997,0.00067351,0.00317706,0.00402036,-1.26718e-05,-9.4092e-05,3.94001e-06,-1.24816e-05,-9.42822e-05,0.0482408,8.87025e-05,-0.259616,1.47394,-3.12389,-0.0123346,0.0180396,-0.0045714,0.00218352,195,471,-0.0188479,-0.0818892,71.1979,101.401,71.1466,101.491,5.88268e-05,5.0259e-05,0.000203852
-13.9542,9.88111,-297.975,0.000697375,0.00312035,0.00413705,-2.28715e-05,-9.99049e-05,-1.22934e-05,-2.09572e-05,-0.000101819,-0.154475,9.31262e-05,-0.224055,1.45302,-3.02821,-0.0252061,0.0173151,-0.0032815,0.002214,202,471,-0.0190389,-0.0804529,72.5369,102.104,72.484,102.193,5.96748e-05,5.11443e-05,0.000206391
-13.6612,9.86874,-297.946,0.000704747,0.00304534,0.00409984,-2.9761e-05,-0.000106108,-2.56151e-05,-2.19633e-05,-0.000113906,-0.295504,0.000104667,-0.2365,1.44359,-2.99634,-0.0381122,0.0155545,-0.00214603,0.00232021,209,471,-0.0184103,-0.0794006,73.9653,102.809,73.9126,102.894,6.22006e-05,5.4858e-05,0.000214209
-13.3668,9.85632,-297.914,0.000658248,0.00301587,0.00407587,-3.51814e-05,-0.000111947,-3.63151e-05,-2.07246e-05,-0.000126404,-0.378862,0.000117422,-0.243255,1.45573,-3.00279,-0.0482029,0.0127346,-0.000271884,0.00235949,216,471,-0.0192726,-0.0799666,75.4588,103.516,75.4076,103.6,6.22571e-05,5.7784e-05,0.000214645
-13.0706,9.84351,-297.874,0.000615636,0.00304488,0.00413845,-3.90856e-05,-0.000117123,-4.4384e-05,-1.90077e-05,-0.000137201,-0.424821,0.000128753,-0.291125,1.50236,-3.0199,-0.0546407,0.00937239,0.00235928,0.00234064,223,471,-0.0207674,-0.0809215,77.0472,104.245,76.9966,104.329,6.09859e-05,5.93156e-05,0.000210732
-12.7733,9.83073,-297.831,0.0005884,0.00308618,0.00415487,-4.01787e-05,-0.000121087,-4.95111e-05,-1.66962e-05,-0.000144569,-0.442866,0.000136986,-0.341717,1.52948,-2.94411,-0.057297,0.00596062,0.00505336,0.00226901,230,471,-0.0215488,-0.0830862,78.686,104.973,78.636,105.058,6.00354e-05,5.84276e-05,0.000207948
-12.4751,9.8175,-297.785,0.000580702,0.00309416,0.00410546,-3.706e-05,-0.000123542,-5.23863e-05,-1.23738e-05,-0.000148228,-0.440372,0.000142445,-0.417657,1.55814,-2.97148,-0.0578894,0.00336132,0.00689336,0.00226548,237,471,-0.0213069,-0.0849956,80.3747,105.728,80.3252,105.811,6.0191e-05,5.72485e-05,0.000208452
-12.1765,9.80434,-297.736,0.000598027,0.00309247,0.00402281,-3.2252e-05,-0.000124347,-5.46577e-05,-6.8303e-06,-0.000149768,-0.435346,0.000146473,-0.450712,1.57244,-2.95488,-0.0555225,0.00204603,0.00708588,0.00223896,244,471,-0.020175,-0.0864146,82.0875,106.48,82.0381,106.562,5.92254e-05,5.58758e-05,0.000204654
-11.8778,9.79143,-297.687,0.000580896,0.00310122,0.00397887,-2.95016e-05,-0.000123607,-5.70137e-05,-2.63192e-06,-0.000150477,-0.440412,0.000149178,-0.454464,1.57844,-2.91633,-0.0483336,0.0029893,0.00575382,0.00225202,251,471,-0.0202036,-0.0877434,83.8081,107.219,83.7595,107.3,5.95017e-05,5.55487e-05,0.000205396
-11.5793,9.7785,-297.638,0.000566072,0.00312761,0.00390859,-2.63414e-05,-0.000121288,-6.22804e-05,4.49599e-06,-0.000152125,-0.45975,0.000154422,-0.466585,1.58046,-2.92799,-0.036409,0.00446386,0.0031567,0.00222533,258,471,-0.0199825,-0.0889576,85.5161,107.958,85.4684,108.039,5.84197e-05,5.44027e-05,0.000201909
-11.2818,9.76581,-297.591,0.000521332,0.00316597,0.00394496,-2.155e-05,-0.000117584,-7.0124e-05,1.54213e-05,-0.000154555,-0.485191,0.000162815,-0.492924,1.57344,-3.03561,-0.0246547,0.00659181,0.000419037,0.00216812,265,471,-0.0213482,-0.0907262,87.1798,108.682,87.1329,108.764,5.71808e-05,5.26008e-05,0.000198152
-10.9846,9.75304,-297.544,0.000520525,0.00314015,0.00387667,-1.79311e-05,-0.000112309,-8.01917e-05,2.79257e-05,-0.000158166,-0.519456,0.000173819,-0.504348,1.56199,-3.19751,-0.015533,0.00918603,-0.00250837,0.00203029,272,471,-0.0207668,-0.0920487,88.8271,109.414,88.7808,109.493,5.4178e-05,5.00328e-05,0.000188254
-10.6873,9.74027,-297.497,0.000584194,0.0031302,0.00387996,-1.70215e-05,-0.000106431,-9.11061e-05,3.97569e-05,-0.00016321,-0.557312,0.000186297,-0.481636,1.56017,-3.26499,-0.00741226,0.0121702,-0.00522089,0.00198333,279,471,-0.0191379,-0.0923814,90.486,110.144,90.4379,110.222,5.20562e-05,5.07081e-05,0.000181445
-10.3897,9.72739,-297.448,0.000654519,0.00315152,0.00374444,-1.9272e-05,-0.000100917,-0.000101737,4.95269e-05,-0.000169716,-0.594604,0.000199153,-0.437464,1.56182,-3.32905,0.00172093,0.0146915,-0.00712417,0.0020607,286,471,-0.0162906,-0.0924798,92.159,110.878,92.1097,110.958,5.11915e-05,5.28023e-05,0.000178407
-10.0913,9.71434,-297.395,0.000652452,0.00314578,0.00362114,-2.45717e-05,-9.57305e-05,-0.00011052,5.59548e-05,-0.000176257,-0.629673,0.000209904,-0.415102,1.55415,-3.22425,0.0112497,0.0166936,-0.00801581,0.00210488,293,471,-0.0153055,-0.09194,93.8746,111.623,93.8263,111.703,5.21715e-05,5.40831e-05,0.000181284
-9.78996,9.70153,-297.333,0.000588478,0.00304363,0.00345238,-3.08999e-05,-9.03315e-05,-0.000118679,6.17269e-05,-0.000182958,-0.662726,0.000220403,-0.421307,1.49401,-2.99279,0.0189546,0.0176913,-0.00736859,0.00209813,300,471,-0.0154495,-0.0914868,95.7454,112.367,95.7003,112.442,5.3304e-05,5.4152e-05,0.000184496
-9.48127,9.68843,-297.246,0.0005619,0.00291204,0.0032868,-3.88854e-05,-8.43253e-05,-0.000125254,6.56923e-05,-0.000188903,-0.695678,0.000228931,-0.420105,1.43572,-2.73448,0.024759,0.01719,-0.00592347,0.00206977,307,471,-0.0146674,-0.0903491,98.005,113.137,97.9621,113.207,5.34972e-05,5.33872e-05,0.000184416
-9.16805,9.67461,-297.143,0.000615986,0.00280117,0.00327225,-4.69833e-05,-7.8581e-05,-0.000129012,6.7194e-05,-0.000192758,-0.724471,0.000233716,-0.451515,1.44827,-2.628,0.0300784,0.0155637,-0.00401982,0.00206967,314,471,-0.013067,-0.0899148,100.511,113.953,100.467,114.017,5.31689e-05,5.3467e-05,0.000182837
-8.84985,9.66099,-297.023,0.000736081,0.00277381,0.00332925,-5.32247e-05,-7.38257e-05,-0.000129526,6.64102e-05,-0.000193461,-0.745719,0.000233848,-0.509957,1.50986,-2.81374,0.0345971,0.012628,-0.00240334,0.00211581,321,471,-0.0104576,-0.0913719,103.29,114.765,103.242,114.826,5.30315e-05,5.46901e-05,0.000182408
-8.53523,9.64726,-296.913,0.000797387,0.0027779,0.00324495,-5.85518e-05,-6.98931e-05,-0.000127256,6.31598e-05,-0.000191605,-0.763132,0.00022979,-0.536896,1.56794,-3.01922,0.0375559,0.00800705,-0.00128943,0.00214132,328,471,-0.00823015,-0.0915843,105.887,115.574,105.838,115.635,5.38856e-05,5.49798e-05,0.000185684
-8.23118,9.63416,-296.838,0.0007668,0.0027945,0.00296392,-6.39374e-05,-6.63832e-05,-0.00012308,5.79262e-05,-0.000188247,-0.780431,0.000222928,-0.515806,1.57076,-3.0837,0.0398408,0.00209729,-0.000711429,0.00213521,335,471,-0.00679608,-0.0911226,107.93,116.333,107.884,116.395,5.47744e-05,5.42156e-05,0.000188961
-7.93493,9.62215,-296.787,0.000709493,0.00278802,0.00282502,-6.99302e-05,-6.24364e-05,-0.00011707,5.09464e-05,-0.000183313,-0.801396,0.000213397,-0.431157,1.51993,-3.06244,0.0432054,-0.00459884,-0.000230619,0.0021175,342,471,-0.00709165,-0.0903528,109.566,117.022,109.522,117.085,5.39702e-05,5.40728e-05,0.000186538
-7.64675,9.60982,-296.762,0.000659894,0.00275242,0.00279661,-7.55138e-05,-5.71661e-05,-0.000109326,4.33706e-05,-0.00017605,-0.827256,0.000201271,-0.360707,1.50251,-2.97742,0.0467973,-0.0111025,0.000656473,0.0021328,349,471,-0.00801275,-0.0894528,110.776,117.717,110.734,117.779,5.41278e-05,5.41294e-05,0.000187358
-7.36259,9.59789,-296.75,0.000636058,0.00268421,0.00291286,-7.8513e-05,-5.02065e-05,-0.000101309,3.79331e-05,-0.000166653,-0.854801,0.000188504,-0.315468,1.47315,-2.8839,0.0498141,-0.0174554,0.00148072,0.00222461,356,471,-0.00936698,-0.0889738,111.774,118.386,111.732,118.445,5.57028e-05,5.58597e-05,0.000192593
-7.07711,9.58539,-296.733,0.000646825,0.00267773,0.00279806,-8.25773e-05,-4.12602e-05,-9.3673e-05,3.40052e-05,-0.000157843,-0.89393,0.000177308,-0.316998,1.46729,-2.88237,0.0511125,-0.0221647,0.00172737,0.00228925,363,471,-0.00818067,-0.0895672,112.842,119.086,112.801,119.144,5.72997e-05,5.6966e-05,0.000197858
-6.78828,9.57278,-296.705,0.00064489,0.00268598,0.00264508,-8.89907e-05,-3.10342e-05,-8.71405e-05,3.18201e-05,-0.000151845,-0.945919,0.000170003,-0.31286,1.48265,-2.80988,0.0526005,-0.025698,7.26868e-06,0.00225224,370,471,-0.00704716,-0.090596,114.089,119.795,114.049,119.853,5.77268e-05,5.52922e-05,0.000199195
-6.49605,9.55967,-296.664,0.000676118,0.00268937,0.00244878,-9.7205e-05,-2.02007e-05,-8.19927e-05,3.18799e-05,-0.000149286,-1.00491,0.000167516,-0.320503,1.47067,-2.80523,0.0528255,-0.0280147,-0.0029893,0.00214787,377,471,-0.00475634,-0.0911244,115.521,120.537,115.481,120.595,5.67276e-05,5.21084e-05,0.000195754
-6.19901,9.54678,-296.607,0.000708648,0.00265308,0.00237048,-0.000106469,-8.84681e-06,-7.82369e-05,3.45567e-05,-0.000149872,-1.0643,0.000169809,-0.316419,1.44586,-2.77663,0.0485526,-0.0291727,-0.00605753,0.00204525,384,471,-0.00329667,-0.0919499,117.216,121.278,117.176,121.333,5.46793e-05,4.97354e-05,0.000188827
-5.89869,9.53394,-296.538,0.000686183,0.00260614,0.00237371,-0.000116736,2.95517e-06,-7.53298e-05,3.9318e-05,-0.000153099,-1.12107,0.000176082,-0.288173,1.43949,-2.6598,0.0396291,-0.0287997,-0.00903189,0.00199271,391,471,-0.00379384,-0.0917039,119.093,122.023,119.054,122.075,5.3117e-05,4.89727e-05,0.000183477
-5.59712,9.52101,-296.464,0.000671716,0.00262792,0.00241206,-0.000127019,1.40971e-05,-7.23754e-05,4.46164e-05,-0.000157538,-1.17174,0.00018395,-0.286453,1.48097,-2.5991,0.0288064,-0.028066,-0.0128106,0.00197694,398,471,-0.00439059,-0.0910271,121.044,122.77,121.005,122.824,5.25265e-05,4.90351e-05,0.000181482
-5.29615,9.50818,-296.391,0.000634374,0.00267975,0.00240781,-0.000137203,2.40632e-05,-6.7607e-05,4.86556e-05,-0.000161795,-1.22192,0.000190833,-0.310816,1.55383,-2.60527,0.0163975,-0.0263209,-0.0174676,0.001955,405,471,-0.00526495,-0.0903959,122.968,123.51,122.93,123.568,5.1937e-05,4.86466e-05,0.000179427
-4.99559,9.49529,-296.318,0.000607448,0.00267994,0.0023623,-0.000146023,3.20782e-05,-6.07436e-05,5.08227e-05,-0.000164768,-1.27148,0.000195206,-0.353634,1.62549,-2.7474,0.00233593,-0.0236757,-0.0210299,0.00193336,412,471,-0.00554915,-0.0902524,124.876,124.256,124.839,124.314,5.13797e-05,4.79616e-05,0.000177464
-4.69463,9.48237,-296.244,0.000556337,0.00261953,0.00229769,-0.000150582,3.85202e-05,-5.2525e-05,5.21301e-05,-0.000164191,-1.31726,0.000195539,-0.36065,1.6129,-2.89717,-0.0119077,-0.020573,-0.0233064,0.0019139,419,471,-0.00628,-0.09123,126.811,125.009,126.775,125.063,5.08803e-05,4.71309e-05,0.000175676
-4.39232,9.46936,-296.163,0.000508345,0.00256074,0.00212327,-0.000150503,4.32782e-05,-4.30575e-05,5.24147e-05,-0.00015964,-1.36171,0.00019131,-0.299339,1.55431,-2.98695,-0.0233383,-0.0174798,-0.0245941,0.00190565,426,471,-0.00612703,-0.0919453,128.825,125.769,128.793,125.819,5.04651e-05,4.67206e-05,0.00017415
-4.08887,9.45609,-296.078,0.000463756,0.00256872,0.00189877,-0.000146549,4.64315e-05,-3.28525e-05,5.18709e-05,-0.000151989,-1.40671,0.000183507,-0.271924,1.46603,-3.11279,-0.0310838,-0.0143,-0.0252077,0.00190884,433,471,-0.0055774,-0.0928304,130.909,126.542,130.88,126.592,4.97572e-05,4.73076e-05,0.00017162
-3.78526,9.44277,-295.992,0.000461705,0.00260556,0.00179274,-0.000138731,4.77103e-05,-2.21277e-05,5.03006e-05,-0.000141322,-1.45427,0.000172077,-0.272722,1.43577,-3.18267,-0.0365188,-0.0110047,-0.0247815,0.00196743,440,471,-0.00485446,-0.093764,133.012,127.318,132.983,127.369,5.04229e-05,4.91169e-05,0.000173878
-3.48247,9.42948,-295.907,0.000428807,0.00262797,0.00170685,-0.000128031,4.72948e-05,-1.10319e-05,4.79863e-05,-0.000128723,-1.5082,0.000158269,-0.281294,1.40717,-3.13541,-0.0398133,-0.00819888,-0.0233038,0.00205525,447,471,-0.00503666,-0.0940441,135.077,128.091,135.05,128.143,5.22559e-05,5.10739e-05,0.000180144
-3.1805,9.41654,-295.824,0.000394279,0.00261104,0.00168492,-0.000113379,4.5796e-05,-1.13243e-07,4.57961e-05,-0.000113379,-1.57008,0.000141931,-0.303092,1.36528,-2.9055,-0.0398757,-0.00648553,-0.021031,0.00213233,454,471,-0.00570345,-0.0943714,137.105,128.846,137.079,128.897,5.46437e-05,5.2884e-05,0.000188139
-2.87824,9.40382,-295.74,0.000308591,0.00260256,0.0016218,-9.64217e-05,4.42977e-05,1.0895e-05,4.51362e-05,-9.72602e-05,1.49398,0.000126043,-0.339862,1.33075,-2.83906,-0.0366318,-0.00568063,-0.0183141,0.0022047,461,471,-0.00735121,-0.0937709,139.157,129.59,139.133,129.641,5.71634e-05,5.38473e-05,0.000196452
-2.57513,9.39081,-295.651,0.000295104,0.00258082,0.00163328,-8.0322e-05,4.36565e-05,2.20405e-05,4.74582e-05,-8.41237e-05,1.39999,0.000115419,-0.382943,1.34163,-2.82417,-0.030751,-0.00494222,-0.0155111,0.0022624,468,471,-0.00769937,-0.0921714,141.265,130.351,141.242,130.403,5.91878e-05,5.43012e-05,0.000203278
-2.27079,9.37763,-295.557,0.000338347,0.00256679,0.00176103,-6.54787e-05,4.41398e-05,3.21876e-05,5.28923e-05,-7.42311e-05,1.30529,0.000110608,-0.40391,1.37005,-2.80358,-0.0238723,-0.00379253,-0.0125671,0.00229709,475,471,-0.00746045,-0.0904774,143.455,131.124,143.429,131.176,6.11435e-05,5.49954e-05,0.00021011
-1.96753,9.36491,-295.466,0.000331535,0.00254802,0.00174063,-5.10651e-05,4.55875e-05,4.05849e-05,6.03688e-05,-6.58463e-05,1.22152,0.00010934,-0.392675,1.39331,-2.69292,-0.015385,-0.0021541,-0.00955275,0.00228006,482,471,-0.00742178,-0.0895907,145.591,131.872,145.566,131.924,6.08525e-05,5.52556e-05,0.000209147
-1.66752,9.35237,-295.385,0.000319243,0.00251991,0.00167587,-3.68821e-05,4.7714e-05,4.74783e-05,6.90031e-05,-5.81712e-05,1.14928,0.000110269,-0.364037,1.42745,-2.72416,-0.00646485,-0.00019911,-0.00725471,0.00222907,489,471,-0.00720615,-0.0892355,147.552,132.606,147.527,132.657,5.89754e-05,5.53518e-05,0.00020241
-1.37101,9.3392,-295.316,0.000298987,0.00255436,0.00165426,-2.26421e-05,5.00493e-05,5.35341e-05,7.84099e-05,-5.10027e-05,1.08362,0.000112909,-0.380249,1.46603,-2.84632,-0.00135096,0.00182593,-0.00560146,0.00220485,496,471,-0.00757056,-0.0903283,149.32,133.365,149.297,133.416,5.78574e-05,5.56441e-05,0.000198181
-1.07806,9.32614,-295.258,0.000280753,0.0025706,0.00159926,-9.76458e-06,5.22577e-05,5.87379e-05,8.76682e-05,-4.51751e-05,1.02828,0.000116991,-0.402784,1.46512,-3.1023,-0.000503549,0.00422645,-0.00341974,0.00220092,503,471,-0.00761534,-0.0903262,150.893,134.112,150.871,134.164,5.69537e-05,5.58353e-05,0.00019447
-0.786529,9.31357,-295.204,0.000304482,0.00258281,0.00156942,2.21519e-06,5.39131e-05,6.3474e-05,9.65997e-05,-4.04714e-05,0.978763,0.000121979,-0.393459,1.45505,-3.31475,-0.00140349,0.00678342,-0.000711778,0.00221334,510,471,-0.00678629,-0.0908309,152.393,134.831,152.37,134.884,5.69549e-05,5.58058e-05,0.000194184
-0.493506,9.30084,-295.145,0.000346812,0.00260403,0.001518,1.36878e-05,5.52246e-05,6.75049e-05,0.000105084,-3.61712e-05,0.934632,0.00012709,-0.362818,1.43015,-3.40266,-0.000765491,0.00947487,0.00207544,0.00221321,517,471,-0.00534828,-0.0918653,153.985,135.562,153.961,135.615,5.85388e-05,5.52516e-05,0.000199462
-0.198036,9.28797,-295.075,0.000387519,0.00267269,0.00147976,2.1792e-05,5.56332e-05,7.09788e-05,0.00011168,-3.42552e-05,0.902409,0.00013218,-0.303916,1.3828,-3.42198,-0.000527594,0.0126568,0.00559491,0.00224567,524,471,-0.0040988,-0.0941446,155.723,136.305,155.698,136.359,5.96499e-05,5.47752e-05,0.000203412
0.0993357,9.27512,-294.999,0.000408879,0.00276974,0.00136333,3.08138e-05,5.4743e-05,7.50493e-05,0.000118775,-3.32186e-05,0.864445,0.000138407,-0.260673,1.35295,-3.41477,-0.00708316,0.0159297,0.0108649,0.00228255,531,471,-0.00282629,-0.0976437,157.578,137.05,157.554,137.107,5.94834e-05,5.65512e-05,0.000202743
0.39704,9.26236,-294.919,0.000393882,0.00282383,0.00132773,3.94156e-05,5.18765e-05,8.0045e-05,0.000125933,-3.4641e-05,0.824238,0.000146361,-0.221114,1.37883,-3.27075,-0.0153252,0.0186302,0.018275,0.00236879,538,471,-0.00298886,-0.099243,159.46,137.792,159.437,137.851,5.94168e-05,5.9486e-05,0.000202288
0.693829,9.24977,-294.843,0.000402832,0.00286353,0.00130577,4.5731e-05,4.71922e-05,8.53104e-05,0.000131775,-3.88519e-05,0.78968,0.0001549,-0.228475,1.43776,-3.24822,-0.0215117,0.0203466,0.0271978,0.0024181,545,471,-0.00261749,-0.10002,161.299,138.524,161.275,138.584,5.98474e-05,6.09751e-05,0.000203278
0.98883,9.23744,-294.771,0.000434649,0.00283159,0.00132266,4.68438e-05,4.08142e-05,9.01351e-05,0.000134015,-4.63565e-05,0.76868,0.000162238,-0.279682,1.51565,-3.36348,-0.0249448,0.0211656,0.037294,0.00247884,552,471,-0.0018394,-0.0978329,163.044,139.241,163.019,139.301,6.1481e-05,6.24793e-05,0.000208309
1.28114,9.22481,-294.709,0.000454744,0.00280278,0.00119522,4.06081e-05,3.34111e-05,9.42244e-05,0.000131303,-5.72835e-05,0.766312,0.000167461,-0.310405,1.5724,-3.48584,-0.026857,0.0209275,0.0477735,0.00253405,559,471,-0.000326622,-0.0943838,164.637,139.967,164.612,140.029,6.43404e-05,6.38059e-05,0.000217695
1.57127,9.21202,-294.654,0.000481819,0.00280996,0.00110492,2.75914e-05,2.64338e-05,9.73002e-05,0.000124315,-7.02893e-05,0.782424,0.000170683,-0.310967,1.59307,-3.46852,-0.0270923,0.0188853,0.0577315,0.00263017,566,471,0.0010387,-0.0931038,166.11,140.698,166.085,140.761,6.77165e-05,6.64141e-05,0.000228503
1.8597,9.19914,-294.604,0.00047797,0.00286682,0.00110622,4.45947e-06,2.27675e-05,0.00010097,0.000114998,-8.77707e-05,0.830605,0.000176129,-0.291563,1.60677,-3.24416,-0.0214671,0.0148269,0.0653938,0.00269442,573,471,0.00089307,-0.0946932,167.488,141.43,167.463,141.495,7.08722e-05,6.81502e-05,0.00023873
0,0,0,0,0,0,0,0,0,0,0,0,0,0,0,0,0,0,0,-1,580,471,0,0,0,0,0,0,0,0,0
0,0,0,0,0,0,0,0,0,0,0,0,0,0,0,0,0,0,0,-1,587,471,0,0,0,0,0,0,0,0,0
0,0,0,0,0,0,0,0,0,0,0,0,0,0,0,0,0,0,0,-1,594,471,0,0,0,0,0,0,0,0,0
0,0,0,0,0,0,0,0,0,0,0,0,0,0,0,0,0,0,0,-1,601,471,0,0,0,0,0,0,0,0,0
0,0,0,0,0,0,0,0,0,0,0,0,0,0,0,0,0,0,0,-1,62,478,0,0,0,0,0,0,0,0,0
0,0,0,0,0,0,0,0,0,0,0,0,0,0,0,0,0,0,0,-1,69,478,0,0,0,0,0,0,0,0,0
0,0,0,0,0,0,0,0,0,0,0,0,0,0,0,0,0,0,0,-1,76,478,0,0,0,0,0,0,0,0,0
-18.8662,9.82048,-298.141,0.000598046,0.00286514,0.000105019,-4.26041e-05,1.1859e-05,2.57464e-06,1.19805e-05,-4.27255e-05,1.52366,4.98084e-05,-0.391663,1.59739,-3.08621,0.075133,-0.0109549,0.0146638,0.00227865,83,478,0.0105244,-0.0783384,51.3733,91.1315,51.3523,91.2107,5.62499e-05,5.82957e-05,0.000202496
-18.5889,9.8078,-298.167,0.000617323,0.00292668,0.000187739,-2.96356e-05,1.22568e-05,7.77647e-06,1.36537e-05,-3.10326e-05,1.39305,3.9663e-05,-0.356734,1.62511,-3.0805,0.0534644,-0.00970819,0.00813366,0.00227847,90,478,0.0102846,-0.0780558,52.0658,91.8249,52.0436,91.9074,5.66686e-05,5.83677e-05,0.000203266
-18.3115,9.79562,-298.192,0.000613962,0.00296129,0.000227275,-8.57017e-06,9.96632e-06,1.85355e-05,2.14217e-05,-2.00255e-05,1.01723,3.59011e-05,-0.314719,1.61246,-3.0593,0.0388758,-0.00795209,0.000845434,0.00231903,97,478,0.00987476,-0.0773171,52.7657,92.4941,52.7432,92.5789,5.78483e-05,5.94348e-05,0.000205913
-18.0326,9.78365,-298.212,0.000591058,0.00298683,0.000404583,1.40111e-05,5.26969e-06,3.1918e-05,4.18562e-05,-2.25754e-05,0.717354,5.66261e-05,-0.288816,1.55599,-3.15006,0.03348,-0.00621939,-0.00416971,0.00233196,104,478,0.00785699,-0.0771486,53.5276,93.1542,53.5044,93.2404,5.85811e-05,5.98417e-05,0.000207142
-17.7524,9.77171,-298.228,0.000582104,0.00296935,0.000624118,3.4711e-05,-9.64874e-07,4.60756e-05,6.6281e-05,-3.2535e-05,0.60071,8.72247e-05,-0.305502,1.53546,-3.51006,0.0335559,-0.00428914,-0.00642987,0.00235622,111,478,0.0058636,-0.0774645,54.3526,93.8176,54.3282,93.9025,5.95153e-05,6.02664e-05,0.000209752
-17.4697,9.75961,-298.237,0.000588932,0.00292601,0.000818921,5.24263e-05,-8.1372e-06,6.01476e-05,8.94848e-05,-4.51958e-05,0.552193,0.00011872,-0.331832,1.55901,-3.79965,0.034813,-0.0017822,-0.00728968,0.00234964,118,478,0.00449466,-0.0771679,55.2918,94.493,55.2661,94.5759,6.07219e-05,6.01886e-05,0.000213061
-17.184,9.7475,-298.236,0.000616583,0.00290805,0.000890269,6.61474e-05,-1.5884e-05,7.30381e-05,0.000108898,-5.86349e-05,0.529558,0.000147249,-0.381194,1.54827,-3.86575,0.0364124,0.00133444,-0.00735847,0.00233762,125,478,0.00463356,-0.0766664,56.3737,95.1715,56.3467,95.2538,6.14586e-05,5.96568e-05,0.000214526
-16.8976,9.73523,-298.233,0.000662493,0.00295306,0.00120482,7.45973e-05,-2.38333e-05,8.3298e-05,0.000122133,-7.13687e-05,0.518572,0.000169489,-0.414166,1.50784,-3.73438,0.0395332,0.00470914,-0.00686805,0.00229963,132,478,0.003223,-0.0753499,57.4908,95.8552,57.4601,95.9408,6.06297e-05,5.84973e-05,0.000212332
-16.609,9.72258,-298.223,0.000720594,0.00302168,0.00153891,7.93585e-05,-3.13729e-05,8.95283e-05,0.000129258,-8.1272e-05,0.508473,0.000183896,-0.416721,1.46949,-3.55006,0.0428117,0.00782207,-0.00708085,0.00227506,139,478,0.00195541,-0.0737437,58.7148,96.5606,58.6799,96.651,5.91226e-05,5.75106e-05,0.000207556
-16.3171,9.71012,-298.202,0.000765778,0.0030831,0.00205585,8.103e-05,-3.90497e-05,9.24081e-05,0.00013119,-8.92099e-05,0.497307,0.000192023,-0.383004,1.45999,-3.3403,0.0441549,0.0106719,-0.00722823,0.00229194,146,478,-0.00112356,-0.0744182,60.0982,97.2628,60.0583,97.3556,5.82478e-05,5.77396e-05,0.000204565
-16.0218,9.69738,-298.171,0.000782426,0.00308681,0.00251429,7.95191e-05,-4.70098e-05,9.12205e-05,0.000127266,-9.47569e-05,0.482212,0.000192964,-0.283752,1.54301,-3.17532,0.0421941,0.0135147,-0.00735078,0.00231735,153,478,-0.00439626,-0.0765017,61.6443,97.9893,61.6008,98.0803,5.85669e-05,5.77864e-05,0.000204271
-15.7249,9.68464,-298.135,0.000735437,0.0030911,0.00292153,7.31996e-05,-5.50569e-05,8.55355e-05,0.000115977,-9.7834e-05,0.463735,0.000185388,-0.230496,1.61196,-3.15189,0.0378071,0.0161878,-0.00786552,0.00234097,160,478,-0.00881917,-0.0795666,63.2677,98.7189,63.2228,98.8072,5.98347e-05,5.77547e-05,0.000207943
-15.4287,9.67202,-298.1,0.000697154,0.00311152,0.00329085,6.12279e-05,-6.29738e-05,7.55464e-05,9.69216e-05,-9.86675e-05,0.441385,0.000169387,-0.235797,1.60922,-3.22986,0.0311133,0.0183412,-0.00883025,0.00233059,167,478,-0.0127125,-0.0821183,64.8565,99.4398,64.8102,99.5268,6.08532e-05,5.73405e-05,0.00021084
-15.1348,9.65987,-298.071,0.000700672,0.00312661,0.00357759,4.55845e-05,-7.02721e-05,6.15502e-05,7.21791e-05,-9.68666e-05,0.407851,0.000146917,-0.291628,1.57887,-3.33672,0.0226002,0.0195908,-0.00932732,0.0022948,174,478,-0.0148703,-0.0827891,66.3353,100.132,66.2867,100.219,6.10348e-05,5.64277e-05,0.000210829
-14.8447,9.64757,-298.054,0.000677227,0.0031467,0.00377898,2.90592e-05,-7.67117e-05,4.46627e-05,4.53953e-05,-9.30478e-05,0.350652,0.00012224,-0.343304,1.54691,-3.29873,0.0127778,0.0201728,-0.0088083,0.00224573,181,478,-0.0169858,-0.0824905,67.6189,100.824,67.5695,100.912,6.0004e-05,5.4526e-05,0.000207412
-14.5559,9.63528,-298.04,0.000680156,0.00315441,0.00393473,1.38076e-05,-8.23432e-05,2.68726e-05,2.08083e-05,-8.9344e-05,0.254851,0.000101363,-0.332751,1.52688,-3.22691,0.000847021,0.020301,-0.00716677,0.00216409,188,478,-0.018063,-0.0815452,68.8361,101.513,68.7854,101.603,5.80693e-05,5.14512e-05,0.000200896
-14.2656,9.62308,-298.021,0.000692986,0.00318213,0.003949,4.7277e-07,-8.81597e-05,9.49026e-06,1.47754e-06,-8.91644e-05,0.105481,8.99123e-05,-0.291536,1.52161,-2.97538,-0.0113634,0.0200029,-0.00517245,0.00211476,195,478,-0.017793,-0.0812822,70.1312,102.2,70.0798,102.291,5.66128e-05,4.95528e-05,0.000196607
-13.973,9.61069,-297.995,0.000696048,0.00316398,0.00404118,-1.00422e-05,-9.45621e-05,-6.1543e-06,-9.59639e-06,-9.50079e-05,-0.0723064,9.05917e-05,-0.263538,1.49074,-2.89394,-0.0239896,0.019259,-0.00353627,0.00208888,202,478,-0.0183501,-0.0810819,71.5364,102.903,71.4842,102.993,5.59973e-05,4.94575e-05,0.000194464
-13.6782,9.59838,-297.962,0.000681538,0.00312155,0.00397289,-1.78532e-05,-0.000101817,-1.92939e-05,-1.36319e-05,-0.000106038,-0.215394,9.99222e-05,-0.287961,1.48407,-2.89623,-0.0366286,0.017592,-0.00204867,0.00214556,209,478,-0.0180548,-0.0809938,73.0507,103.606,72.9994,103.694,5.78544e-05,5.22117e-05,0.000200111
-13.3821,9.58578,-297.924,0.000611148,0.00308048,0.00393272,-2.43968e-05,-0.000109049,-3.02398e-05,-1.47042e-05,-0.000118741,-0.310179,0.000112115,-0.303066,1.48287,-2.95276,-0.0465761,0.0150375,2.56296e-05,0.0021642,216,478,-0.0193751,-0.0816976,74.6278,104.327,74.5788,104.413,5.83773e-05,5.45559e-05,0.000201765
-13.0852,9.57283,-297.882,0.000550792,0.00308259,0.00404674,-2.91965e-05,-0.000115905,-3.89852e-05,-1.42461e-05,-0.000130856,-0.366192,0.000124346,-0.337861,1.50865,-2.97877,-0.0530356,0.0121403,0.0026952,0.00218266,223,478,-0.0216884,-0.0821381,76.2512,105.065,76.2031,105.15,5.78805e-05,5.60556e-05,0.000200235
-12.7875,9.55985,-297.838,0.000504834,0.00310334,0.00417612,-3.12896e-05,-0.000121643,-4.52299e-05,-1.25392e-05,-0.000140394,-0.392992,0.000134563,-0.384098,1.52489,-2.87468,-0.0557056,0.00928325,0.00529643,0.00223132,230,478,-0.023785,-0.0830456,77.9144,105.806,77.8665,105.891,5.79462e-05,5.73139e-05,0.000200684
-12.4886,9.5467,-297.789,0.000477857,0.00310387,0.00414759,-2.94346e-05,-0.000125698,-4.95056e-05,-8.51947e-06,-0.000146613,-0.399734,0.000142545,-0.44579,1.54746,-2.87009,-0.0563275,0.0071792,0.00685289,0.0022518,237,478,-0.0241625,-0.0840624,79.6351,106.559,79.5881,106.643,5.88955e-05,5.73758e-05,0.000203752
-12.1896,9.53372,-297.739,0.000503777,0.00310859,0.00407684,-2.58646e-05,-0.00012763,-5.3256e-05,-3.09102e-06,-0.000150404,-0.404092,0.000148882,-0.489638,1.57321,-2.8577,-0.0539922,0.00616684,0.00659924,0.0022329,244,478,-0.0229166,-0.0855242,81.3696,107.303,81.3224,107.386,5.85144e-05,5.6254e-05,0.000202336
-11.8904,9.52098,-297.688,0.000524504,0.00313371,0.00402239,-2.36568e-05,-0.000127637,-5.72404e-05,1.67984e-06,-0.000152974,-0.416713,0.000153821,-0.466185,1.59539,-2.79848,-0.0471391,0.00709885,0.00492256,0.00225147,251,478,-0.02195,-0.0874924,83.1135,108.034,83.0661,108.117,5.93082e-05,5.55067e-05,0.000205096
-11.5917,9.50831,-297.638,0.000557841,0.00317147,0.00399316,-2.05207e-05,-0.000125752,-6.42503e-05,9.90886e-06,-0.000156182,-0.442313,0.000161364,-0.464332,1.59499,-2.81043,-0.0360693,0.00805101,0.00226682,0.00223845,258,478,-0.020876,-0.0893594,84.8361,108.761,84.7879,108.844,5.87178e-05,5.41069e-05,0.000203231
-11.2937,9.49585,-297.59,0.000540751,0.00317288,0.00400303,-1.61901e-05,-0.000122274,-7.38629e-05,2.1703e-05,-0.000160167,-0.474009,0.000172048,-0.472845,1.59399,-2.91871,-0.0253101,0.00926758,-0.000332795,0.00218746,265,478,-0.0213265,-0.0911486,86.5227,109.478,86.4749,109.56,5.77395e-05,5.22884e-05,0.000199836
-10.9958,9.48313,-297.541,0.000548319,0.00314654,0.00399306,-1.37744e-05,-0.000117285,-8.55171e-05,3.44291e-05,-0.000165489,-0.513279,0.00018512,-0.502929,1.59239,-3.14736,-0.0168626,0.0106527,-0.00321816,0.00204755,272,478,-0.0209916,-0.0927537,88.2078,110.209,88.1599,110.288,5.44112e-05,5.06378e-05,0.000188503
-10.6978,9.47029,-297.492,0.000588476,0.00315345,0.00399304,-1.43355e-05,-0.000111764,-9.76006e-05,4.60326e-05,-0.000172132,-0.553928,0.000199178,-0.492551,1.58439,-3.25791,-0.00894315,0.0122384,-0.0059083,0.00198686,279,478,-0.0199281,-0.0930876,89.9017,110.944,89.8526,111.023,5.15668e-05,5.11528e-05,0.000178966
-10.3995,9.45744,-297.44,0.000621258,0.00318542,0.00381913,-1.74644e-05,-0.00010661,-0.000109186,5.58968e-05,-0.000179971,-0.591609,0.00021348,-0.451261,1.57877,-3.31196,0.000269487,0.0133156,-0.00763506,0.00201521,286,478,-0.017718,-0.0930345,91.6131,111.679,91.5642,111.76,5.02479e-05,5.20207e-05,0.000174258
-10.1005,9.44461,-297.386,0.00064125,0.00320762,0.0037148,-2.33137e-05,-0.000101724,-0.000118744,6.25297e-05,-0.000187568,-0.625949,0.000225433,-0.418325,1.55984,-3.2015,0.00984695,0.0139123,-0.00821495,0.00202915,293,478,-0.0163536,-0.0927016,93.3615,112.415,93.3127,112.497,5.06515e-05,5.2426e-05,0.000175566
0,0,0,0,0,0,0,0,0,0,0,0,0,0,0,0,0,0,0,-1,300,478,0,0,0,0,0,0,0,0,0
-9.48793,9.41847,-297.228,0.000626594,0.00297646,0.00354242,-3.97146e-05,-9.1135e-05,-0.000134615,7.16236e-05,-0.000202473,-0.691039,0.000246226,-0.423588,1.46958,-2.7148,0.0236738,0.0120287,-0.00540845,0.00203306,307,478,-0.0150575,-0.0904834,97.6293,113.949,97.5824,114.021,5.27814e-05,5.18992e-05,0.000181607
-9.17316,9.40498,-297.12,0.000689473,0.00285744,0.00351848,-4.9131e-05,-8.57738e-05,-0.000138559,7.23124e-05,-0.000207217,-0.719665,0.000251301,-0.453092,1.47088,-2.57447,0.0295783,0.00953647,-0.00322465,0.00201126,314,478,-0.0131586,-0.0902265,100.218,114.755,100.17,114.821,5.18781e-05,5.16661e-05,0.000178161
-8.85296,9.39128,-296.994,0.000756224,0.00282363,0.0034283,-5.67131e-05,-8.11566e-05,-0.000139082,7.06832e-05,-0.000208553,-0.741574,0.000251459,-0.510055,1.51484,-2.71252,0.0350002,0.0060136,-0.00115711,0.00205065,321,478,-0.0107393,-0.0913834,103.101,115.578,103.051,115.642,5.02578e-05,5.29582e-05,0.000172868
-8.53585,9.3777,-296.876,0.000766237,0.00280504,0.00314274,-6.3704e-05,-7.68521e-05,-0.000136752,6.66322e-05,-0.000207188,-0.76138,0.00024733,-0.524654,1.55525,-2.93169,0.0389571,0.00109617,0.00043484,0.00213173,328,478,-0.00823508,-0.0911944,105.828,116.389,105.781,116.452,5.12574e-05,5.49336e-05,0.00017664
0,0,0,0,0,0,0,0,0,0,0,0,0,0,0,0,0,0,0,-1,335,478,0,0,0,0,0,0,0,0,0
-7.94286,9.35373,-296.774,0.000726929,0.00280041,0.0027498,-7.78229e-05,-6.74765e-05,-0.000127134,5.45899e-05,-0.000199889,-0.805732,0.000232051,-0.409816,1.54832,-3.03377,0.0455729,-0.0115764,0.00179063,0.00215413,342,478,-0.00609118,-0.0903255,109.126,117.77,109.082,117.834,5.46095e-05,5.53622e-05,0.000188872
-7.66077,9.34139,-296.769,0.000704195,0.00279845,0.00281421,-8.44829e-05,-6.1017e-05,-0.000120061,4.78825e-05,-0.000193382,-0.834106,0.000221245,-0.35382,1.55774,-2.98273,0.0495063,-0.0177937,0.00245882,0.00214238,349,478,-0.0070704,-0.0896604,110.014,118.454,109.97,118.518,5.56778e-05,5.49426e-05,0.000192786
-7.3791,9.329,-296.765,0.000679601,0.00274581,0.00291076,-8.88158e-05,-5.27069e-05,-0.000112642,4.33181e-05,-0.000184841,-0.864863,0.00020988,-0.311458,1.54659,-2.89621,0.0531614,-0.0236503,0.00293873,0.00219229,356,478,-0.00830439,-0.0891787,110.878,119.142,110.834,119.203,5.70133e-05,5.51322e-05,0.000197286
-7.09416,9.31668,-296.75,0.000679156,0.00270386,0.00276825,-9.39957e-05,-4.255e-05,-0.000105188,4.00147e-05,-0.00017656,-0.905315,0.000199599,-0.310784,1.54008,-2.94848,0.055252,-0.0275269,0.00270384,0.00222227,363,478,-0.00716938,-0.0900226,111.916,119.832,111.873,119.891,5.76214e-05,5.45831e-05,0.000199098
-6.80408,9.30415,-296.718,0.000682171,0.00269138,0.0026841,-0.000100446,-3.13169e-05,-9.84269e-05,3.8438e-05,-0.000170201,-0.954257,0.000192323,-0.309932,1.5604,-2.93048,0.0572742,-0.0300576,0.000424225,0.00219558,370,478,-0.00642462,-0.0917221,113.23,120.543,113.188,120.599,5.75637e-05,5.24622e-05,0.00019869
-6.50874,9.29096,-296.667,0.000712006,0.00269601,0.00253805,-0.000107927,-1.97283e-05,-9.27463e-05,3.88692e-05,-0.000166524,-1.00732,0.000188981,-0.313218,1.53593,-3.01082,0.0575374,-0.0312335,-0.00300947,0.00212413,377,478,-0.00455129,-0.0927224,114.829,121.296,114.787,121.352,5.65276e-05,4.96953e-05,0.000195178
-6.20922,9.27822,-296.601,0.000727541,0.00268701,0.00250099,-0.00011696,-7.86532e-06,-8.83375e-05,4.14089e-05,-0.000166234,-1.06199,0.000190347,-0.299723,1.51569,-2.99465,0.0527693,-0.0311483,-0.00659749,0.0020411,384,478,-0.00383057,-0.0930343,116.659,122.034,116.617,122.089,5.4583e-05,4.85309e-05,0.000188567
-5.90763,9.26548,-296.528,0.000679648,0.00263299,0.00248124,-0.000128308,4.17989e-06,-8.45204e-05,4.53229e-05,-0.000169451,-1.11778,0.000196081,-0.252785,1.50786,-2.825,0.043089,-0.0293315,-0.0102419,0.00196305,391,478,-0.00476551,-0.0916175,118.604,122.777,118.564,122.831,5.24889e-05,4.83821e-05,0.000181333
-5.60497,9.25263,-296.45,0.000654218,0.0026039,0.00244989,-0.00014019,1.53623e-05,-8.05331e-05,4.95446e-05,-0.000174373,-1.16939,0.000203715,-0.247579,1.53313,-2.71269,0.0315288,-0.027133,-0.0146831,0.00192991,398,478,-0.00506346,-0.0897151,120.614,123.527,120.575,123.581,5.09348e-05,4.84194e-05,0.000175992
-5.30215,9.23983,-296.371,0.000622052,0.00260734,0.00236163,-0.000151407,2.53669e-05,-7.45699e-05,5.26213e-05,-0.000178662,-1.22039,0.000209977,-0.274951,1.57894,-2.64018,0.0182148,-0.0240861,-0.0199338,0.00190695,405,478,-0.00514054,-0.0882437,122.639,124.273,122.601,124.329,4.99171e-05,4.81664e-05,0.00017241
-4.99903,9.22691,-296.289,0.00062577,0.00260345,0.00235444,-0.000160924,3.32532e-05,-6.64657e-05,5.38247e-05,-0.000181495,-1.27064,0.000213557,-0.323873,1.62219,-2.75097,0.00345964,-0.0205095,-0.0238666,0.0018872,412,478,-0.00494568,-0.0885481,124.688,125.029,124.65,125.084,4.93059e-05,4.75652e-05,0.000170284
-4.69549,9.21399,-296.206,0.00058904,0.00257615,0.0022852,-0.000166157,3.95638e-05,-5.70803e-05,5.43402e-05,-0.000180933,-1.31749,0.000213358,-0.332478,1.60786,-2.8679,-0.0113614,-0.0169501,-0.0263896,0.00187565,419,478,-0.00532854,-0.0910192,126.766,125.789,126.73,125.841,4.90326e-05,4.67891e-05,0.00016929
-4.39143,9.20102,-296.12,0.000538111,0.00256196,0.00212699,-0.000166972,4.4291e-05,-4.65626e-05,5.40982e-05,-0.00017678,-1.36321,0.000209144,-0.290317,1.55516,-2.97253,-0.0232076,-0.0140061,-0.0278231,0.00189235,426,478,-0.00542428,-0.0933322,128.879,126.553,128.846,126.602,4.92932e-05,4.71221e-05,0.000170074
-4.08709,9.18785,-296.031,0.000484157,0.00259361,0.00197664,-0.000163761,4.75597e-05,-3.54997e-05,5.33639e-05,-0.000169565,-1.40873,0.000201615,-0.276413,1.4652,-3.07241,-0.0313059,-0.0116098,-0.0284393,0.00193947,433,478,-0.00567457,-0.0946019,131.015,127.326,130.985,127.375,5.00136e-05,4.8447e-05,0.000172512
-3.78369,9.17486,-295.945,0.00046558,0.00262857,0.0018935,-0.000156416,4.91058e-05,-2.40771e-05,5.18887e-05,-0.000159199,-1.45572,0.000190519,-0.283481,1.41714,-3.14036,-0.0370643,-0.00962018,-0.0277853,0.00205421,440,478,-0.00552629,-0.0952488,133.109,128.086,133.08,128.137,5.23269e-05,5.11901e-05,0.000180505
-3.48208,9.16194,-295.865,0.000394626,0.00261521,0.0018216,-0.000146023,4.91346e-05,-1.25317e-05,4.9936e-05,-0.000146825,-1.50693,0.000177152,-0.272247,1.36889,-3.08699,-0.0405093,-0.00848725,-0.0258903,0.00214591,447,478,-0.0067335,-0.095072,135.11,128.842,135.083,128.892,5.49615e-05,5.31563e-05,0.000189537
-3.18229,9.14931,-295.789,0.000350206,0.00255581,0.00179426,-0.00013099,4.80909e-05,-1.52986e-06,4.81039e-05,-0.000131003,-1.56225,0.000160554,-0.2908,1.31787,-2.91711,-0.0405331,-0.00866106,-0.0232991,0.00220293,454,478,-0.00756619,-0.0946257,137.02,129.582,136.994,129.63,5.67783e-05,5.45014e-05,0.000195563
-2.88278,9.1367,-295.714,0.000282152,0.00253358,0.0017199,-0.000112472,4.69872e-05,9.32896e-06,4.75311e-05,-0.000113016,1.51256,0.000142841,-0.334133,1.28976,-2.8771,-0.0370947,-0.00959968,-0.020505,0.00227116,461,478,-0.00867537,-0.0938646,138.919,130.319,138.896,130.366,5.90845e-05,5.57727e-05,0.000203107
-2.58191,9.12399,-295.633,0.00029394,0.00252885,0.00171738,-9.38612e-05,4.67472e-05,2.02796e-05,4.96136e-05,-9.67276e-05,1.43038,0.000128906,-0.396844,1.33179,-2.83645,-0.0311533,-0.0102822,-0.0177794,0.00233595,468,478,-0.00830505,-0.0928124,140.905,131.063,140.881,131.111,6.10503e-05,5.66185e-05,0.00020958
-2.28006,9.11131,-295.548,0.000340331,0.00255474,0.00171408,-7.63709e-05,4.76646e-05,3.04063e-05,5.47174e-05,-8.34237e-05,1.34287,0.000120492,-0.431654,1.3839,-2.81333,-0.0245745,-0.0102201,-0.0149928,0.00235311,475,478,-0.00706972,-0.0913027,142.955,131.805,142.93,131.856,6.2617e-05,5.70083e-05,0.000215057
-1.97884,9.09865,-295.464,0.00032525,0.00257811,0.00165943,-5.93703e-05,4.96911e-05,3.89784e-05,6.21896e-05,-7.18688e-05,1.2605,0.000116199,-0.422146,1.41459,-2.65034,-0.0166086,-0.00931037,-0.0121083,0.00231928,482,478,-0.00702762,-0.0907198,144.976,132.548,144.951,132.601,6.17949e-05,5.65496e-05,0.000212344
-1.67982,9.08593,-295.387,0.000322311,0.00255818,0.00163647,-4.25351e-05,5.24141e-05,4.63126e-05,7.12621e-05,-6.13832e-05,1.18429,0.00011498,-0.380954,1.45289,-2.71351,-0.00798088,-0.00761,-0.0097604,0.00226664,489,478,-0.00688109,-0.0902364,146.881,133.292,146.857,133.344,5.92074e-05,5.59898e-05,0.000203278
-1.38341,9.07264,-295.318,0.000286821,0.00253714,0.00163183,-2.54886e-05,5.54169e-05,5.30488e-05,8.1677e-05,-5.17487e-05,1.11114,0.000116515,-0.386274,1.47383,-2.91055,-0.0028026,-0.00529753,-0.008086,0.00221655,496,478,-0.00770169,-0.0905482,148.643,134.062,148.62,134.113,5.71837e-05,5.60903e-05,0.000195924
-1.09025,9.05974,-295.259,0.000262511,0.00251109,0.00161041,-1.00297e-05,5.83835e-05,5.91838e-05,9.25349e-05,-4.4181e-05,1.04743,0.000120843,-0.373261,1.47047,-3.1048,-0.00184478,-0.00197534,-0.00603803,0.00221423,503,478,-0.00809434,-0.0894914,150.228,134.805,150.206,134.855,5.60712e-05,5.61622e-05,0.000191504
-0.797546,9.04742,-295.201,0.000304659,0.0025139,0.00163116,3.40298e-06,6.10025e-05,6.49285e-05,0.000103232,-3.88264e-05,0.994141,0.000127171,-0.34366,1.45839,-3.22024,-0.00270701,0.00197777,-0.00342578,0.00222166,510,478,-0.00713674,-0.0889746,151.797,135.514,151.773,135.565,5.63145e-05,5.55589e-05,0.000191964
-0.503271,9.03481,-295.137,0.000364345,0.00253441,0.00165559,1.54075e-05,6.33946e-05,7.00019e-05,0.000113401,-3.45987e-05,0.950502,0.000134091,-0.322259,1.40183,-3.26383,-0.00221348,0.00629803,-0.000626475,0.00222403,517,478,-0.00578019,-0.0889821,153.461,136.243,153.436,136.295,5.79288e-05,5.43844e-05,0.000197215
-0.206629,9.02205,-295.064,0.000389651,0.00260872,0.00159966,2.37002e-05,6.49366e-05,7.45593e-05,0.000121676,-3.30392e-05,0.920294,0.000141127,-0.283079,1.33614,-3.38614,-0.00221985,0.0112065,0.00311575,0.00224029,524,478,-0.00478777,-0.0907494,155.267,136.985,155.242,137.039,5.91084e-05,5.37523e-05,0.000201187
0.0910446,9.00922,-294.986,0.000358132,0.00268363,0.00144309,3.25432e-05,6.48816e-05,7.98304e-05,0.000130164,-3.27391e-05,0.885319,0.000149251,-0.273295,1.28788,-3.41804,-0.00839609,0.0162629,0.00885555,0.00225534,531,478,-0.00453315,-0.0929945,157.139,137.733,157.115,137.789,5.95485e-05,5.57141e-05,0.000202597
0.388657,8.99653,-294.907,0.000328252,0.00274758,0.0013552,4.08253e-05,6.26856e-05,8.59935e-05,0.000138441,-3.49299e-05,0.848612,0.000158813,-0.234709,1.33189,-3.19164,-0.0156523,0.0208621,0.0167433,0.0023467,538,478,-0.00471565,-0.0949133,159.015,138.474,158.993,138.532,5.97519e-05,5.90436e-05,0.00020331
0.685369,8.9841,-294.831,0.000349951,0.00280936,0.00131797,4.67625e-05,5.86633e-05,9.22284e-05,0.000145133,-3.97072e-05,0.817613,0.000168532,-0.22772,1.41562,-3.01728,-0.0206586,0.0246045,0.0259702,0.00241095,545,478,-0.00394366,-0.0965689,160.851,139.201,160.828,139.261,5.98633e-05,6.0668e-05,0.000203528
0.980153,8.97187,-294.76,0.000405092,0.00280524,0.00132964,4.74887e-05,5.30319e-05,9.75402e-05,0.00014784,-4.73193e-05,0.799602,0.000176328,-0.267977,1.4833,-3.05363,-0.0232074,0.0276602,0.0361432,0.00246169,552,478,-0.00258327,-0.0959803,162.584,139.915,162.56,139.975,6.07056e-05,6.1833e-05,0.000205906
1.27198,8.95933,-294.7,0.000438424,0.00277673,0.00122493,4.10729e-05,4.65318e-05,0.000101292,0.000145131,-5.75268e-05,0.798868,0.000180891,-0.323239,1.52577,-3.30328,-0.0246576,0.0300206,0.0463771,0.00249108,559,478,-0.000925439,-0.0943639,164.15,140.639,164.126,140.699,6.35282e-05,6.28057e-05,0.000214937
1.56124,8.94677,-294.647,0.000449204,0.00278411,0.00106643,2.8879e-05,4.06585e-05,0.000103151,0.000138088,-6.85503e-05,0.813916,0.0001823,-0.329972,1.5395,-3.4641,-0.0251093,0.0312506,0.0556149,0.00260903,566,478,0.000483662,-0.0941673,165.571,141.359,165.548,141.42,6.78594e-05,6.57597e-05,0.000229104
1.84928,8.93409,-294.599,0.000439364,0.00285163,0.00110595,8.16808e-06,3.8411e-05,0.000105045,0.000129418,-8.28384e-05,0.856883,0.000185289,-0.303082,1.55821,-3.32817,-0.0216448,0.031489,0.0617797,0.0027059,573,478,-9.68774e-05,-0.0961921,166.928,142.082,166.904,142.145,7.15939e-05,6.81402e-05,0.000241329
0,0,0,0,0,0,0,0,0,0,0,0,0,0,0,0,0,0,0,-1,580,478,0,0,0,0,0,0,0,0,0
0,0,0,0,0,0,0,0,0,0,0,0,0,0,0,0,0,0,0,-1,587,478,0,0,0,0,0,0,0,0,0
0,0,0,0,0,0,0,0,0,0,0,0,0,0,0,0,0,0,0,-1,594,478,0,0,0,0,0,0,0,0,0
0,0,0,0,0,0,0,0,0,0,0,0,0,0,0,0,0,0,0,-1,601,478,0,0,0,0,0,0,0,0,0
0,0,0,0,0,0,0,0,0,0,0,0,0,0,0,0,0,0,0,-1,62,485,0,0,0,0,0,0,0,0,0
0,0,0,0,0,0,0,0,0,0,0,0,0,0,0,0,0,0,0,-1,69,485,0,0,0,0,0,0,0,0,0
0,0,0,0,0,0,0,0,0,0,0,0,0,0,0,0,0,0,0,-1,76,485,0,0,0,0,0,0,0,0,0
-18.8794,9.54861,-298.144,0.000634962,0.0028899,-3.49187e-05,-5.29301e-05,1.3697e-05,3.5681e-08,1.3697e-05,-5.29301e-05,1.57026,6.09441e-05,-0.392725,1.62229,-3.20144,0.0745629,-0.00703963,0.0118679,0.00235063,83,485,0.0125778,-0.0778063,50.6432,92.0261,50.622,92.107,5.73508e-05,6.0145e-05,0.00020614
-18.6011,9.53594,-298.167,0.000636982,0.00292823,4.86389e-05,-4.20333e-05,1.45376e-05,7.1829e-06,1.54354e-05,-4.2931e-05,1.44645,5.2383e-05,-0.361485,1.65093,-3.17937,0.0530609,-0.00632721,0.00786794,0.0023381,90,485,0.0119313,-0.0769353,51.3901,92.7193,51.3681,92.8028,5.82291e-05,5.98273e-05,0.000208288
-18.323,9.52379,-298.19,0.000605065,0.00292365,7.26435e-05,-2.08615e-05,1.21048e-05,1.9285e-05,2.0991e-05,-2.97477e-05,1.13901,4.41586e-05,-0.323837,1.64777,-3.15673,0.0390743,-0.00516594,0.00198403,0.00234707,97,485,0.0109859,-0.0754526,52.1183,93.3869,52.097,93.4715,5.90028e-05,5.99334e-05,0.000209793
-18.0437,9.51175,-298.209,0.000587674,0.00294704,0.000277083,2.69151e-06,6.81537e-06,3.34072e-05,3.82242e-05,-2.87174e-05,0.81622,5.81677e-05,-0.305143,1.60138,-3.20447,0.0344303,-0.00393448,-0.0023929,0.00228051,104,485,0.00888397,-0.0749735,52.8999,94.0492,52.8777,94.1353,5.71443e-05,5.84788e-05,0.000202599
-17.7637,9.49973,-298.226,0.000587843,0.00293024,0.000520399,2.51112e-05,-3.04373e-07,4.79524e-05,6.20111e-05,-3.72042e-05,0.655871,8.68136e-05,-0.309774,1.56961,-3.44345,0.0353261,-0.00225969,-0.00443657,0.00224581,111,485,0.00691713,-0.0752632,53.715,94.714,53.6911,94.7989,5.60952e-05,5.78163e-05,0.000198034
-17.4823,9.48767,-298.238,0.000603624,0.00291123,0.000788684,4.50145e-05,-8.41232e-06,6.22242e-05,8.60171e-05,-4.94149e-05,0.582641,0.000118707,-0.330937,1.56025,-3.6668,0.0373248,0.000178785,-0.00533478,0.00224546,118,485,0.00514153,-0.0754974,54.5951,95.3831,54.5691,95.4667,5.69103e-05,5.79039e-05,0.000199884
-17.198,9.47553,-298.242,0.000621319,0.00290409,0.000954173,6.11885e-05,-1.69064e-05,7.52354e-05,0.000106906,-6.26237e-05,0.546031,0.000148477,-0.378933,1.54,-3.69648,0.0393955,0.0033205,-0.00564852,0.00224662,125,485,0.00426172,-0.0750998,55.6112,96.0596,55.5836,96.1431,5.83034e-05,5.77684e-05,0.0002041
-16.9113,9.46346,-298.238,0.000673574,0.00294402,0.00131628,7.22595e-05,-2.52838e-05,8.5559e-05,0.000121971,-7.49957e-05,0.52635,0.000172188,-0.410561,1.51013,-3.62355,0.0427351,0.00676225,-0.00550513,0.00224683,132,485,0.00262416,-0.0738338,56.741,96.733,56.7091,96.8194,5.90525e-05,5.78069e-05,0.000206872
-16.6218,9.45105,-298.225,0.000733857,0.00297883,0.00163271,7.95922e-05,-3.28892e-05,9.19116e-05,0.000131105,-8.44017e-05,0.510837,0.000188089,-0.416369,1.504,-3.4958,0.0460031,0.00986374,-0.00579252,0.00226889,139,485,0.0015728,-0.0724788,58.0081,97.4283,57.9722,97.5176,5.88589e-05,5.70537e-05,0.000205858
-16.329,9.43843,-298.202,0.000751758,0.00301817,0.00197849,8.4161e-05,-4.04393e-05,9.49495e-05,0.000135425,-9.17029e-05,0.495059,0.000197909,-0.371811,1.50569,-3.35217,0.0472783,0.0126577,-0.00607471,0.00226745,146,485,-0.000775128,-0.0729934,59.4358,98.1412,59.3969,98.2318,5.76493e-05,5.586e-05,0.000201998
-16.0335,9.42565,-298.17,0.000749097,0.00303811,0.00233662,8.55228e-05,-4.78895e-05,9.40646e-05,0.000134133,-9.64996e-05,0.476977,0.000200618,-0.276374,1.54494,-3.29292,0.0452575,0.0154399,-0.00648934,0.00224248,153,485,-0.00372985,-0.0752939,60.9901,98.8693,60.9488,98.9587,5.68509e-05,5.46567e-05,0.000197918
-15.7378,9.41306,-298.137,0.000684645,0.00307092,0.00267365,8.17688e-05,-5.50774e-05,8.88083e-05,0.000125456,-9.87642e-05,0.457165,0.000194638,-0.216606,1.58482,-3.28909,0.0406941,0.0180212,-0.00731918,0.00223662,160,485,-0.00805213,-0.0791082,62.5555,99.5891,62.5138,99.6767,5.73708e-05,5.52467e-05,0.00019919
-15.4437,9.40086,-298.108,0.000629099,0.00312531,0.00300071,7.18349e-05,-6.17767e-05,7.92254e-05,0.000108662,-9.86034e-05,0.435121,0.000179567,-0.200782,1.57257,-3.31257,0.0336182,0.0200574,-0.00846441,0.00223413,167,485,-0.0120688,-0.0823036,64.0389,100.284,63.9965,100.371,5.79213e-05,5.64593e-05,0.000200528
-15.1525,9.38876,-298.088,0.000633964,0.00315753,0.00331143,5.76554e-05,-6.77002e-05,6.55349e-05,8.56601e-05,-9.5705e-05,0.403839,0.000157147,-0.242001,1.55492,-3.33472,0.0246041,0.0212423,-0.00908087,0.00220527,174,485,-0.0144055,-0.083147,65.3849,100.968,65.3401,101.056,5.78782e-05,5.66047e-05,0.000200025
-14.8638,9.37645,-298.075,0.000634768,0.00317152,0.00353738,4.18638e-05,-7.28266e-05,4.90546e-05,5.99826e-05,-9.09455e-05,0.353818,0.000131621,-0.289217,1.55428,-3.22388,0.0142634,0.0218059,-0.00867506,0.0021833,181,485,-0.0161182,-0.08259,66.5979,101.658,66.5513,101.747,5.77471e-05,5.56793e-05,0.000199494
-14.5741,9.36431,-298.059,0.000664569,0.0031792,0.00373973,2.70394e-05,-7.75016e-05,3.19768e-05,3.60447e-05,-8.65069e-05,0.274509,0.000109091,-0.288269,1.55073,-3.09817,0.00208306,0.0220267,-0.00710215,0.00212595,188,485,-0.0169068,-0.0813888,67.8636,102.341,67.8147,102.431,5.67739e-05,5.30686e-05,0.000196027
-14.2823,9.35206,-298.036,0.000705456,0.00321842,0.0038673,1.40788e-05,-8.28874e-05,1.54803e-05,1.64902e-05,-8.52988e-05,0.154531,9.46277e-05,-0.269038,1.56756,-2.87475,-0.0101251,0.0219989,-0.00508159,0.00206795,195,485,-0.0168621,-0.0813632,69.2283,103.032,69.1771,103.125,5.46948e-05,5.10203e-05,0.000190064
-13.9876,9.3396,-298.003,0.00069551,0.00323881,0.00395063,3.52782e-06,-8.94219e-05,6.31482e-07,3.53211e-06,-8.94262e-05,0.00679339,9.12435e-05,-0.257145,1.5438,-2.83884,-0.0226552,0.0216347,-0.00317629,0.00204326,202,485,-0.0177218,-0.0826595,70.7402,103.741,70.6885,103.834,5.37212e-05,5.04687e-05,0.000186917
-13.6915,9.3271,-297.965,0.000655419,0.00324545,0.00386888,-5.02611e-06,-9.71955e-05,-1.21305e-05,-3.45636e-06,-9.87653e-05,-0.128691,9.70832e-05,-0.28528,1.51398,-2.93578,-0.0351125,0.0204811,-0.00137399,0.00209929,209,485,-0.0180126,-0.0842405,72.3218,104.456,72.2719,104.547,5.50612e-05,5.2146e-05,0.000191252
-13.3949,9.3145,-297.925,0.000588941,0.00322486,0.00387772,-1.25133e-05,-0.000105334,-2.31372e-05,-7.06565e-06,-0.000110781,-0.231238,0.000107423,-0.315188,1.48714,-3.08126,-0.0450536,0.0186448,0.000956634,0.00214305,216,485,-0.0196525,-0.0857955,73.9238,105.178,73.8757,105.267,5.59963e-05,5.36509e-05,0.000194238
-13.0978,9.30165,-297.884,0.000524249,0.00318382,0.0040397,-1.79305e-05,-0.000113491,-3.24342e-05,-7.96191e-06,-0.000123459,-0.298186,0.000119677,-0.342859,1.485,-3.08105,-0.0517125,0.0165761,0.00383807,0.00220554,223,485,-0.0224138,-0.0857627,75.5527,105.914,75.5054,106.001,5.6804e-05,5.58003e-05,0.00019684
-12.7995,9.28883,-297.837,0.000476238,0.00313993,0.00428226,-2.06928e-05,-0.000120765,-3.97603e-05,-6.8189e-06,-0.000134639,-0.335729,0.000131363,-0.38067,1.4926,-2.91071,-0.0545669,0.0145166,0.00661058,0.00226043,230,485,-0.0253762,-0.0848904,77.2477,106.65,77.1999,106.736,5.71393e-05,5.76535e-05,0.000198198
-12.5002,9.276,-297.787,0.000443969,0.00311778,0.00430375,-1.98113e-05,-0.000126286,-4.55414e-05,-2.98981e-06,-0.000143107,-0.353822,0.000141636,-0.420465,1.52669,-2.82355,-0.0552281,0.0130086,0.00820221,0.00227597,237,485,-0.0262393,-0.0847358,78.9932,107.389,78.9461,107.473,5.85346e-05,5.80854e-05,0.000202543
-12.2009,9.26336,-297.737,0.000474349,0.0031256,0.00425806,-1.72675e-05,-0.000129313,-5.09679e-05,2.448e-06,-0.000149028,-0.369094,0.000150267,-0.466305,1.55423,-2.80922,-0.0528628,0.0122527,0.00784709,0.00227618,244,485,-0.0250709,-0.0857473,80.7453,108.116,80.6976,108.2,5.89951e-05,5.74637e-05,0.000203973
-11.9017,9.2508,-297.686,0.000531359,0.00315701,0.00417262,-1.54169e-05,-0.000130071,-5.68015e-05,7.95795e-06,-0.000153446,-0.390397,0.000157576,-0.445235,1.58337,-2.79277,-0.0463079,0.0129318,0.00620244,0.00228687,251,485,-0.0229641,-0.0874916,82.4891,108.839,82.4403,108.923,5.98588e-05,5.65667e-05,0.000206789
-11.6035,9.23832,-297.637,0.000594499,0.00320451,0.00414494,-1.22174e-05,-0.000128696,-6.56518e-05,1.73043e-05,-0.000158217,-0.422579,0.000167541,-0.455115,1.61286,-2.86842,-0.0360922,0.0131074,0.00382631,0.0022632,258,485,-0.021171,-0.0894816,84.1893,109.556,84.1389,109.641,5.92701e-05,5.40022e-05,0.000204659
-11.3055,9.22596,-297.589,0.000604152,0.0031896,0.00412719,-8.39602e-06,-0.000125602,-7.70137e-05,2.9776e-05,-0.000163774,-0.460164,0.000180514,-0.463198,1.62299,-2.99062,-0.0262,0.013142,0.00155931,0.00216629,265,485,-0.0207301,-0.0912065,85.8773,110.27,85.8267,110.352,5.71026e-05,5.16741e-05,0.000197276
-11.0073,9.21319,-297.54,0.000599799,0.00316115,0.0041226,-7.39382e-06,-0.000121005,-9.02255e-05,4.24191e-05,-0.000170818,-0.504449,0.00019551,-0.508303,1.61049,-3.17909,-0.0181925,0.013059,-0.00123215,0.00202484,272,485,-0.0207275,-0.0928588,87.5762,111.005,87.5259,111.085,5.33617e-05,5.09971e-05,0.000184506
-10.7088,9.20027,-297.488,0.000607841,0.00315875,0.00409156,-9.77177e-06,-0.000115802,-0.000103509,5.35091e-05,-0.000179083,-0.548726,0.00021099,-0.511518,1.58996,-3.23265,-0.0102899,0.0129945,-0.00396007,0.00199524,279,485,-0.0202052,-0.0928774,89.297,111.747,89.2466,111.827,5.05863e-05,5.12778e-05,0.000174919
-10.4096,9.18741,-297.434,0.000625342,0.00319369,0.00391606,-1.42189e-05,-0.000110782,-0.000116024,6.31688e-05,-0.00018817,-0.58823,0.000226461,-0.480292,1.56908,-3.24103,-0.00085916,0.0124324,-0.00562902,0.00201543,286,485,-0.0183605,-0.0927426,91.0526,112.486,91.0028,112.567,4.95925e-05,5.17237e-05,0.000171428
-10.1098,9.17459,-297.377,0.000652838,0.00321557,0.00374857,-2.09819e-05,-0.00010579,-0.000126288,6.98309e-05,-0.000196602,-0.623426,0.000239286,-0.436391,1.55492,-3.10524,0.00886031,0.0115003,-0.00605547,0.00201791,293,485,-0.0163262,-0.092586,92.8441,113.223,92.7946,113.306,5.08619e-05,5.16607e-05,0.000175719
0,0,0,0,0,0,0,0,0,0,0,0,0,0,0,0,0,0,0,-1,300,485,0,0,0,0,0,0,0,0,0
-9.4952,9.148,-297.213,0.000722739,0.00304102,0.00369699,-3.98358e-05,-9.49418e-05,-0.000143063,7.83031e-05,-0.000213081,-0.690266,0.000261189,-0.409704,1.51305,-2.67166,0.0231109,0.0074789,-0.00282413,0.00203349,307,485,-0.0139031,-0.0910699,97.2201,114.788,97.1693,114.863,5.38501e-05,4.97919e-05,0.000184982
-9.17954,9.13515,-297.102,0.000777396,0.00294334,0.00364376,-5.05581e-05,-8.94667e-05,-0.000147134,7.84026e-05,-0.000218427,-0.719669,0.000266426,-0.4364,1.49971,-2.57275,0.0295263,0.00443184,-0.000445725,0.0019823,314,485,-0.0119964,-0.0909362,99.8575,115.565,99.8056,115.635,5.17704e-05,4.94381e-05,0.0001778
-8.85777,9.12143,-296.97,0.000778264,0.0028978,0.00343173,-5.95401e-05,-8.45034e-05,-0.000147728,7.62323e-05,-0.000220276,-0.743253,0.000266693,-0.48037,1.5033,-2.70096,0.0357876,0.000635147,0.0019821,0.00201643,321,485,-0.0102641,-0.0914376,102.821,116.398,102.771,116.465,4.90865e-05,5.19083e-05,0.000168955
-8.53856,9.1082,-296.845,0.000743418,0.00283662,0.00307325,-6.82659e-05,-7.94129e-05,-0.000145411,7.16783e-05,-0.000219357,-0.766243,0.000262638,-0.486813,1.50707,-2.93032,0.0406894,-0.00425436,0.00398095,0.00217936,328,485,-0.00827953,-0.0904815,105.659,117.2,105.612,117.265,5.02055e-05,5.62024e-05,0.000173118
-8.23703,9.09643,-296.778,0.000730407,0.00280897,0.00280037,-7.68796e-05,-7.39284e-05,-0.00014144,6.6044e-05,-0.000216852,-0.790614,0.000256336,-0.436026,1.52457,-3.01535,0.0442073,-0.0099856,0.00517561,0.00225155,335,485,-0.00644109,-0.0898821,107.574,117.892,107.53,117.957,5.39827e-05,5.79931e-05,0.0001865
-7.95548,9.08597,-296.776,0.000734875,0.00281942,0.00271759,-8.51787e-05,-6.76751e-05,-0.000136313,6.01669e-05,-0.000213021,-0.817456,0.000248626,-0.374085,1.5363,-2.98815,0.0480234,-0.0160955,0.00561631,0.00222443,342,485,-0.00566005,-0.0905138,108.438,118.476,108.394,118.541,5.52411e-05,5.7271e-05,0.00019096
-7.67614,9.07292,-296.78,0.000736831,0.00284272,0.00276384,-9.31263e-05,-6.01201e-05,-0.000129895,5.43161e-05,-0.000207563,-0.848584,0.000239388,-0.333864,1.57484,-2.95115,0.0521594,-0.0215776,0.00587961,0.00217248,349,485,-0.00592001,-0.0907523,109.178,119.19,109.134,119.256,5.65272e-05,5.59451e-05,0.000195719
-7.39615,9.0606,-296.782,0.000714669,0.00280233,0.00280387,-9.91626e-05,-5.08322e-05,-0.000123115,5.04664e-05,-0.000200461,-0.882307,0.000229887,-0.31287,1.59671,-2.95138,0.0564122,-0.0266013,0.00571771,0.00216118,356,485,-0.0066815,-0.0905379,109.952,119.87,109.908,119.934,5.74726e-05,5.3945e-05,0.000199019
-7.11001,9.04821,-296.763,0.000715482,0.00276171,0.00268201,-0.000105735,-4.00014e-05,-0.000115935,4.76357e-05,-0.000193373,-0.923521,0.000221074,-0.310509,1.6136,-3.00966,0.0593312,-0.0296084,0.00467886,0.00216047,363,485,-0.0056804,-0.0918971,111.054,120.568,111.011,120.628,5.75582e-05,5.12384e-05,0.000199042
-6.81727,9.03541,-296.722,0.000705936,0.00274029,0.00262183,-0.000112488,-2.83956e-05,-0.000109018,4.6403e-05,-0.000187287,-0.96945,0.00021429,-0.31279,1.61551,-3.05871,0.0618515,-0.0312723,0.00160309,0.0021426,370,485,-0.00542803,-0.0939042,112.509,121.299,112.467,121.356,5.72835e-05,4.87346e-05,0.000197882
-6.51821,9.02251,-296.658,0.000739706,0.00275108,0.00260032,-0.000119484,-1.6811e-05,-0.000102797,4.67554e-05,-0.00018305,-1.01698,0.000210361,-0.290279,1.59848,-3.14632,0.0622278,-0.031566,-0.00244307,0.00211516,377,485,-0.00438689,-0.0946451,114.31,122.046,114.267,122.103,5.66297e-05,4.67967e-05,0.000195653
-6.21749,9.00977,-296.589,0.000731821,0.00274966,0.00261845,-0.000128487,-5.27859e-06,-9.77122e-05,4.86279e-05,-0.000182394,-1.06666,0.000210954,-0.260032,1.59124,-3.08364,0.0572614,-0.0305823,-0.00673869,0.00204623,384,485,-0.00465579,-0.0943461,116.205,122.787,116.162,122.845,5.47517e-05,4.70008e-05,0.00018919
-5.91564,8.99703,-296.514,0.000672428,0.00270488,0.00257244,-0.000140968,6.08707e-06,-9.30467e-05,5.11513e-05,-0.000186032,-1.11977,0.000216195,-0.220296,1.58481,-2.95838,0.0471126,-0.0277954,-0.0113042,0.00194849,391,485,-0.00567377,-0.0921002,118.165,123.532,118.124,123.589,5.21276e-05,4.76705e-05,0.000180098
-5.61268,8.98416,-296.435,0.000643205,0.00264392,0.00247894,-0.000154362,1.64216e-05,-8.81714e-05,5.37733e-05,-0.000191714,-1.17009,0.000223505,-0.208057,1.57398,-2.83209,0.0349034,-0.024638,-0.0165804,0.00192164,398,485,-0.00557332,-0.0896023,120.191,124.288,120.152,124.344,5.0431e-05,4.85745e-05,0.000174198
-5.30844,8.9712,-296.351,0.000624866,0.00259741,0.00234356,-0.000166324,2.56336e-05,-8.11524e-05,5.53434e-05,-0.000196034,-1.21985,0.000228783,-0.223626,1.56649,-2.72787,0.0206807,-0.0208606,-0.0225539,0.00191622,405,485,-0.00492089,-0.0880862,122.294,125.051,122.256,125.106,4.93818e-05,4.90276e-05,0.000170476
-5.00255,8.95833,-296.261,0.000641339,0.00255769,0.00235223,-0.000176122,3.29189e-05,-7.2148e-05,5.54019e-05,-0.000198604,-1.26871,0.000231336,-0.248477,1.58439,-2.71077,0.00530454,-0.0168984,-0.0269427,0.00190126,412,485,-0.00449796,-0.0883183,124.496,125.815,124.458,125.868,4.86219e-05,4.82589e-05,0.000167882
-4.69624,8.94561,-296.168,0.00060205,0.00255414,0.00229568,-0.000181774,3.88652e-05,-6.19831e-05,5.50854e-05,-0.000197994,-1.31485,0.000230527,-0.258787,1.57175,-2.69768,-0.0100073,-0.0133434,-0.0297141,0.00188903,419,485,-0.00505523,-0.0908918,126.728,126.573,126.691,126.623,4.83737e-05,4.7492e-05,0.000166974
-4.39081,8.93274,-296.077,0.000535893,0.00258645,0.00221823,-0.000183315,4.36245e-05,-5.08547e-05,5.44994e-05,-0.00019419,-1.36013,0.000226414,-0.252623,1.52554,-2.7452,-0.0223742,-0.0107939,-0.03123,0.00190667,426,485,-0.00616986,-0.0939934,128.918,127.336,128.884,127.385,4.89251e-05,4.81799e-05,0.000168764
-4.08659,8.91959,-295.989,0.00045823,0.00261925,0.00214624,-0.000180658,4.72863e-05,-3.93684e-05,5.38941e-05,-0.000187266,-1.4045,0.000219239,-0.26373,1.45053,-2.82611,-0.0310403,-0.0091998,-0.0318179,0.00198191,433,485,-0.00758927,-0.0952949,131.05,128.11,131.019,128.16,5.07181e-05,5.01651e-05,0.000174932
-3.78489,8.907,-295.909,0.000433537,0.00262241,0.00208124,-0.000173674,4.95324e-05,-2.76752e-05,5.29126e-05,-0.000177054,-1.44926,0.000208605,-0.27158,1.40029,-2.89656,-0.0372444,-0.00839364,-0.0309729,0.00211269,440,485,-0.00769825,-0.095665,133.053,128.851,133.022,128.901,5.36908e-05,5.28775e-05,0.00018522
-3.48543,8.89451,-295.835,0.000360499,0.00257274,0.00198433,-0.000163552,5.04984e-05,-1.60294e-05,5.16922e-05,-0.000164745,-1.49646,0.000195778,-0.252892,1.34397,-2.957,-0.0408925,-0.00869532,-0.028676,0.00218699,447,485,-0.00874125,-0.0951026,134.937,129.585,134.91,129.633,5.58948e-05,5.46867e-05,0.000192763
-3.18712,8.88198,-295.765,0.000317996,0.00248721,0.00192317,-0.000148308,5.04857e-05,-5.16097e-06,5.06196e-05,-0.000148442,-1.54486,0.000179197,-0.272624,1.30521,-2.92551,-0.0409712,-0.010368,-0.0257518,0.00224962,454,485,-0.00924524,-0.0938165,136.765,130.32,136.739,130.365,5.79097e-05,5.60371e-05,0.000199518
-2.88878,8.86964,-295.694,0.000243549,0.00244843,0.00177841,-0.000128731,5.03467e-05,5.48132e-06,5.05144e-05,-0.000128898,1.54023,0.000160242,-0.332141,1.29222,-2.95216,-0.0375721,-0.0125724,-0.022915,0.00232922,461,485,-0.00998418,-0.0926237,138.6,131.043,138.577,131.087,6.06725e-05,5.79021e-05,0.000208625
-2.59049,8.85758,-295.622,0.000276226,0.00246831,0.00178482,-0.000108208,5.09823e-05,1.63337e-05,5.2641e-05,-0.000109866,1.4696,0.000143615,-0.424968,1.3378,-2.93631,-0.0318316,-0.0142334,-0.0203317,0.00238112,468,485,-0.00917745,-0.0920864,140.444,131.749,140.42,131.795,6.22965e-05,5.87687e-05,0.000213872
-2.29099,8.84514,-295.545,0.000328613,0.00254962,0.00169086,-8.84806e-05,5.26461e-05,2.66159e-05,5.74988e-05,-9.33333e-05,1.39045,0.000131848,-0.459423,1.39984,-2.81542,-0.0257236,-0.014935,-0.017762,0.00240064,475,485,-0.00719028,-0.0915499,142.362,132.476,142.338,132.526,6.36364e-05,5.93916e-05,0.000218635
-1.99121,8.83239,-295.466,0.000327026,0.00261135,0.00160886,-6.91343e-05,5.53191e-05,3.56267e-05,6.47961e-05,-7.86113e-05,1.31081,0.000124386,-0.443059,1.44805,-2.61498,-0.0184761,-0.0146431,-0.0150576,0.0023978,482,485,-0.00665431,-0.0919517,144.301,133.222,144.277,133.276,6.27127e-05,5.8694e-05,0.000215592
-1.69233,8.8196,-295.389,0.000306971,0.00261393,0.0014877,-4.97988e-05,5.8478e-05,4.37764e-05,7.39625e-05,-6.52832e-05,1.23081,0.000120668,-0.389936,1.49264,-2.66496,-0.0103579,-0.0133626,-0.0127037,0.00232378,489,485,-0.00626155,-0.0921296,146.197,133.972,146.174,134.025,5.95674e-05,5.74743e-05,0.000204643
-1.39564,8.80638,-295.319,0.000261855,0.00257942,0.00142559,-3.00983e-05,6.1857e-05,5.15945e-05,8.49875e-05,-5.32288e-05,1.14935,0.000120747,-0.360476,1.52038,-2.83409,-0.00513147,-0.0111491,-0.0110394,0.0022582,496,485,-0.00690184,-0.0921498,147.974,134.742,147.954,134.794,5.73544e-05,5.72927e-05,0.000196601
-1.10161,8.79367,-295.257,0.000256459,0.00253063,0.00143972,-1.22054e-05,6.5261e-05,5.90976e-05,9.71874e-05,-4.41319e-05,1.07548,0.000125228,-0.320513,1.51057,-2.98478,-0.00393412,-0.00757145,-0.00918992,0.00225674,503,485,-0.00705098,-0.0905972,149.61,135.479,149.59,135.53,5.66775e-05,5.69876e-05,0.000193659
-0.807662,8.78139,-295.195,0.000314047,0.00249388,0.00152861,2.67166e-06,6.85665e-05,6.6259e-05,0.000109618,-3.83795e-05,1.01612,0.000133027,-0.272046,1.47317,-3.0651,-0.00476213,-0.00309134,-0.00674517,0.00226904,510,485,-0.00614492,-0.0888621,151.251,136.193,151.228,136.243,5.75462e-05,5.63164e-05,0.000196183
-0.512356,8.76881,-295.128,0.000375158,0.0024798,0.00168622,1.52818e-05,7.17837e-05,7.27897e-05,0.000121613,-3.45471e-05,0.970509,0.000142072,-0.262888,1.40763,-3.15855,-0.00461277,0.00195583,-0.00398522,0.0022978,517,485,-0.00565308,-0.0873602,152.976,136.927,152.95,136.977,5.96336e-05,5.52168e-05,0.000202963
-0.215272,8.75624,-295.053,0.000374471,0.00252404,0.00164347,2.39069e-05,7.41606e-05,7.88299e-05,0.000131771,-3.37039e-05,0.939681,0.000151462,-0.247612,1.33647,-3.41769,-0.00504587,0.00779096,-0.000154752,0.00231411,524,485,-0.0053687,-0.0877535,154.808,137.662,154.782,137.714,6.08621e-05,5.409e-05,0.000206826
0.0824902,8.74353,-294.974,0.000315832,0.00256732,0.00154686,3.26319e-05,7.4797e-05,8.55786e-05,0.000141852,-3.44228e-05,0.90617,0.000161833,-0.264711,1.29787,-3.52146,-0.0106843,0.0136893,0.00579776,0.00232932,531,485,-0.00617217,-0.0880796,156.685,138.407,156.661,138.461,6.17286e-05,5.55127e-05,0.000209563
0.379829,8.73092,-294.896,0.000288404,0.00262587,0.00147001,4.04562e-05,7.33893e-05,9.29567e-05,0.000151327,-3.74812e-05,0.87306,0.000173137,-0.253362,1.33379,-3.32802,-0.0167406,0.0194274,0.013924,0.00238289,538,485,-0.00635943,-0.0896272,158.546,139.147,158.524,139.203,6.22746e-05,5.91864e-05,0.000211697
0.676089,8.71856,-294.822,0.000332545,0.00270648,0.00141773,4.58581e-05,7.04034e-05,0.000100084,0.000158965,-4.27029e-05,0.846405,0.000184069,-0.243226,1.40158,-3.09256,-0.0205236,0.0247449,0.0232673,0.00242259,545,485,-0.00494139,-0.0923802,160.357,139.872,160.334,139.93,6.19134e-05,6.09658e-05,0.000210476
0.97073,8.70638,-294.752,0.000425199,0.00277477,0.00138458,4.61125e-05,6.6097e-05,0.000105744,0.000162319,-5.01098e-05,0.832506,0.000192334,-0.265119,1.43202,-3.00933,-0.0223504,0.0299733,0.0333905,0.0024539,552,485,-0.00240665,-0.0945164,162.083,140.584,162.058,140.644,6.18533e-05,6.18408e-05,0.000209925
1.26246,8.69371,-294.691,0.000474036,0.00280486,0.00129972,3.93921e-05,6.11659e-05,0.00010898,0.000159801,-5.92432e-05,0.835182,0.000196248,-0.308333,1.46439,-3.17636,-0.0237566,0.0353373,0.0433635,0.00243081,559,485,-0.000576755,-0.0955428,163.644,141.317,163.618,141.378,6.33123e-05,6.14863e-05,0.00021411
1.55193,8.68144,-294.638,0.00045567,0.00280195,0.00111619,2.75877e-05,5.69648e-05,0.000109463,0.000152721,-6.81682e-05,0.852093,0.000195911,-0.310476,1.49068,-3.41199,-0.0253194,0.0408035,0.0520123,0.00251998,566,485,0.000257982,-0.0963755,165.077,142.026,165.053,142.086,6.70442e-05,6.3131e-05,0.000226028
1.84042,8.66885,-294.588,0.000425932,0.00284954,0.00113714,8.76964e-06,5.63106e-05,0.00010958,0.000144669,-7.95883e-05,0.892205,0.000196919,-0.292678,1.53406,-3.36466,-0.0258085,0.0468732,0.0570435,0.00264214,573,485,-0.000674571,-0.0977821,166.46,142.748,166.437,142.809,7.10984e-05,6.48138e-05,0.000239176
0,0,0,0,0,0,0,0,0,0,0,0,0,0,0,0,0,0,0,-1,580,485,0,0,0,0,0,0,0,0,0
0,0,0,0,0,0,0,0,0,0,0,0,0,0,0,0,0,0,0,-1,587,485,0,0,0,0,0,0,0,0,0
0,0,0,0,0,0,0,0,0,0,0,0,0,0,0,0,0,0,0,-1,594,485,0,0,0,0,0,0,0,0,0
0,0,0,0,0,0,0,0,0,0,0,0,0,0,0,0,0,0,0,-1,601,485,0,0,0,0,0,0,0,0,0
0,0,0,0,0,0,0,0,0,0,0,0,0,0,0,0,0,0,0,-1,62,492,0,0,0,0,0,0,0,0,0
0,0,0,0,0,0,0,0,0,0,0,0,0,0,0,0,0,0,0,-1,69,492,0,0,0,0,0,0,0,0,0
0,0,0,0,0,0,0,0,0,0,0,0,0,0,0,0,0,0,0,-1,76,492,0,0,0,0,0,0,0,0,0
-18.8921,9.2768,-298.146,0.000658548,0.00291136,-0.000130809,-6.3747e-05,1.78751e-05,-1.2278e-06,1.78935e-05,-6.37655e-05,-1.55576,7.43452e-05,-0.408709,1.61555,-3.18893,0.0705286,0.00365829,0.00725206,0.00236982,83,492,0.013945,-0.0771891,49.9412,92.9191,49.9198,93.0017,5.86947e-05,6.07521e-05,0.00020986
-18.6127,9.26412,-298.165,0.000659119,0.00292199,-1.33162e-05,-5.46562e-05,1.86398e-05,8.02742e-06,1.95087e-05,-5.55251e-05,1.46298,6.74303e-05,-0.380561,1.64305,-3.14478,0.0494461,0.00360876,0.00624974,0.00235215,90,492,0.0129982,-0.0764641,50.7385,93.6138,50.7164,93.6976,6.00809e-05,6.0133e-05,0.000213645
-18.3333,9.25204,-298.184,0.000655671,0.00290192,8.07301e-05,-3.31447e-05,1.57675e-05,2.17761e-05,2.40574e-05,-4.14346e-05,1.20705,5.73794e-05,-0.345104,1.6592,-3.15454,0.0364187,0.00382629,0.00232695,0.00234408,97,492,0.0121801,-0.0751962,51.5304,94.2789,51.5077,94.3626,6.0852e-05,5.95362e-05,0.000215806
-18.0523,9.23991,-298.198,0.000612412,0.00290955,0.000209643,-8.57043e-06,9.73164e-06,3.69346e-05,3.86319e-05,-3.74707e-05,0.906834,6.59094e-05,-0.331605,1.63362,-3.19919,0.0328166,0.00405829,-0.000907279,0.00223988,104,492,0.0100797,-0.0743947,52.4006,94.9475,52.3782,95.0323,5.86098e-05,5.69179e-05,0.000207729
-17.7715,9.22798,-298.212,0.000594011,0.00289591,0.00037535,1.55251e-05,1.61553e-06,5.20333e-05,6.10663e-05,-4.39257e-05,0.718962,9.13288e-05,-0.33884,1.59974,-3.36391,0.0348621,0.00480948,-0.00231208,0.00214037,111,492,0.00829725,-0.0741632,53.2538,95.6062,53.2308,95.6904,5.63179e-05,5.49555e-05,0.000199337
-17.4902,9.21603,-298.225,0.000581758,0.00290226,0.000668594,3.75679e-05,-7.58965e-06,6.65048e-05,8.52222e-05,-5.52439e-05,0.62175,0.000122567,-0.340475,1.57948,-3.5143,0.0380474,0.0064006,-0.00288673,0.00217511,118,492,0.00561624,-0.0741065,54.1266,96.2661,54.102,96.3505,5.60466e-05,5.50015e-05,0.000197847
-17.2066,9.2039,-298.231,0.000593422,0.00292103,0.0010279,5.62042e-05,-1.70811e-05,7.94908e-05,0.000107091,-6.79683e-05,0.56943,0.000152863,-0.371673,1.57289,-3.55597,0.0411313,0.0087368,-0.00315623,0.00223278,125,492,0.00299585,-0.0735282,55.1095,96.9385,55.082,97.0241,5.84425e-05,5.67231e-05,0.000205071
-16.92,9.19184,-298.227,0.000656526,0.00294478,0.0014395,6.99637e-05,-2.62758e-05,8.96136e-05,0.00012356,-7.98719e-05,0.539006,0.000177526,-0.391682,1.55492,-3.52056,0.0451628,0.0113651,-0.00315565,0.00225942,132,492,0.00122833,-0.0726217,56.2384,97.6109,56.2062,97.6983,6.01071e-05,5.79364e-05,0.000210457
-16.6304,9.17936,-298.214,0.000721198,0.0029464,0.00176003,7.98933e-05,-3.43843e-05,9.58149e-05,0.000134313,-8.88041e-05,0.516534,0.00019456,-0.388306,1.53883,-3.41939,0.048701,0.0136113,-0.00338221,0.00229113,139,492,0.000262952,-0.0720441,57.5087,98.3122,57.4723,98.4,6.0043e-05,5.75246e-05,0.000209855
-16.3384,9.16673,-298.193,0.000740258,0.00295982,0.00199076,8.73976e-05,-4.22231e-05,9.86907e-05,0.000140656,-9.54815e-05,0.494862,0.000205745,-0.342923,1.51583,-3.3249,0.0502243,0.0155248,-0.00375941,0.00227727,146,492,-0.0010995,-0.072001,58.8982,99.025,58.8597,99.1135,5.88067e-05,5.59144e-05,0.000205488
-16.0444,9.1542,-298.166,0.000729452,0.00298366,0.00220049,9.1668e-05,-4.95575e-05,9.77694e-05,0.000141658,-9.95475e-05,0.47265,0.000209948,-0.265682,1.51978,-3.34511,0.0485249,0.0174716,-0.00446664,0.00219735,153,492,-0.00305537,-0.0739191,60.3782,99.7371,60.3385,99.825,5.65757e-05,5.38711e-05,0.00019659
-15.7504,9.14188,-298.138,0.000682447,0.00306712,0.0024424,9.04457e-05,-5.62216e-05,9.26165e-05,0.000135246,-0.000101022,0.450538,0.000205328,-0.206046,1.53154,-3.38171,0.0441026,0.0192768,-0.00567008,0.00214177,160,492,-0.00622189,-0.0777303,61.8607,100.437,61.8206,100.526,5.52621e-05,5.38561e-05,0.000191847
-15.4585,9.12963,-298.116,0.000627306,0.00314628,0.00271146,8.24849e-05,-6.20034e-05,8.315e-05,0.000120391,-9.99098e-05,0.427733,0.000191061,-0.180711,1.52727,-3.40237,0.0368473,0.0206604,-0.00709555,0.00214883,167,492,-0.0097965,-0.0816619,63.2361,101.13,63.1957,101.219,5.50185e-05,5.53449e-05,0.000190328
-15.1686,9.11747,-298.1,0.00063702,0.00321619,0.00305821,6.97663e-05,-6.67108e-05,6.9609e-05,9.90055e-05,-9.595e-05,0.39767,0.000168843,-0.199178,1.53738,-3.35692,0.027425,0.0213587,-0.0079501,0.00215403,174,492,-0.0123494,-0.0835024,64.5127,101.814,64.4694,101.905,5.5175e-05,5.59482e-05,0.000190662
-14.8795,9.10534,-298.086,0.000644584,0.00324866,0.00330124,5.48106e-05,-7.05938e-05,5.35186e-05,7.45451e-05,-9.03283e-05,0.353272,0.000143003,-0.231136,1.53598,-3.21574,0.0165538,0.0216003,-0.00778495,0.00215177,181,492,-0.0140659,-0.0839195,65.7499,102.495,65.7045,102.587,5.54827e-05,5.58706e-05,0.000192047
-14.5883,9.09334,-298.065,0.000670718,0.00324435,0.00355227,4.05521e-05,-7.4225e-05,3.72083e-05,5.15588e-05,-8.52317e-05,0.28761,0.000119654,-0.234302,1.54328,-3.07683,0.00400493,0.0217503,-0.00642149,0.0021048,188,492,-0.0153374,-0.0832451,67.0887,103.174,67.0408,103.266,5.55225e-05,5.43471e-05,0.000192065
-14.2944,9.08108,-298.035,0.000714731,0.00326373,0.00381367,2.80698e-05,-7.87975e-05,2.17573e-05,3.23296e-05,-8.30573e-05,0.193342,0.000103097,-0.235066,1.54051,-2.96508,-0.00845449,0.0219547,-0.00442464,0.00205708,195,492,-0.0162708,-0.0833597,68.5623,103.87,68.5111,103.964,5.38624e-05,5.26913e-05,0.000187576
-13.9979,9.06844,-297.997,0.000705412,0.00332605,0.00398689,1.75876e-05,-8.48205e-05,7.92174e-06,1.81968e-05,-8.54297e-05,0.0767462,9.58326e-05,-0.243796,1.52105,-2.99778,-0.021112,0.0220982,-0.00223344,0.00206541,202,492,-0.0178691,-0.08543,70.1619,104.591,70.1097,104.686,5.36589e-05,5.279e-05,0.000186892
-13.7011,9.05567,-297.957,0.000679526,0.00337668,0.00402344,8.40634e-06,-9.23473e-05,-4.22128e-06,8.58289e-06,-9.25239e-05,-0.0417994,9.71002e-05,-0.268441,1.48637,-3.12898,-0.0335885,0.0217431,-5.61145e-05,0.00212847,209,492,-0.018782,-0.0875209,71.78,105.321,71.7281,105.416,5.4993e-05,5.4053e-05,0.00019127
-13.4038,9.04292,-297.915,0.00062729,0.00336784,0.00409489,1.7222e-07,-0.000100624,-1.50679e-05,2.3765e-06,-0.000102829,-0.145259,0.000104037,-0.314083,1.45624,-3.28044,-0.0437795,0.0209671,0.00267558,0.0021843,216,492,-0.0205672,-0.0889588,73.4211,106.052,73.3702,106.145,5.59668e-05,5.53553e-05,0.000194237
-13.1059,9.03025,-297.871,0.000574217,0.00329402,0.00431598,-5.52537e-06,-0.000109316,-2.47184e-05,6.0827e-08,-0.000114902,-0.222259,0.000114933,-0.346989,1.4611,-3.23652,-0.0508253,0.0201023,0.0059784,0.00222855,223,492,-0.0234686,-0.0882184,75.0932,106.782,75.0423,106.872,5.69104e-05,5.65491e-05,0.000197081
-12.8067,9.01771,-297.822,0.000520106,0.00319037,0.00459006,-8.5635e-06,-0.000117452,-3.30033e-05,6.58474e-07,-0.000126674,-0.272477,0.000127005,-0.368366,1.46322,-2.98338,-0.0539828,0.0192262,0.0091907,0.00225344,230,492,-0.0267627,-0.0861327,76.8324,107.509,76.7811,107.595,5.6612e-05,5.76438e-05,0.000196192
-12.5071,9.00509,-297.771,0.000486373,0.00314967,0.00464704,-8.31915e-06,-0.000123895,-4.02711e-05,4.32871e-06,-0.000136543,-0.304313,0.000138758,-0.38737,1.49499,-2.81934,-0.0546924,0.018665,0.0111354,0.00226696,237,492,-0.0279063,-0.085081,78.5968,108.238,78.546,108.323,5.76673e-05,5.80965e-05,0.000199365
-12.208,8.99266,-297.721,0.00050399,0.00316034,0.00462604,-6.52064e-06,-0.000127756,-4.74361e-05,9.8336e-06,-0.000144111,-0.332003,0.000149271,-0.420362,1.51768,-2.78124,-0.0522453,0.0183975,0.0110369,0.00227785,244,492,-0.0272347,-0.0857205,80.3343,108.955,80.283,109.04,5.86269e-05,5.74657e-05,0.000202622
-11.9101,8.98024,-297.674,0.000559048,0.00320064,0.00445198,-4.79123e-06,-0.000129277,-5.51705e-05,1.61401e-05,-0.000150208,-0.362618,0.000158894,-0.402943,1.5538,-2.79389,-0.0459584,0.0189591,0.00978019,0.00229269,251,492,-0.0244807,-0.087254,82.0165,109.669,81.9648,109.755,5.97997e-05,5.59525e-05,0.000206378
-11.6135,8.96791,-297.631,0.000638976,0.00324552,0.00440463,-1.40134e-06,-0.000128683,-6.56989e-05,2.64265e-05,-0.000156511,-0.400655,0.00017126,-0.426606,1.60509,-2.9216,-0.0365544,0.0184337,0.00799271,0.00225398,258,492,-0.0221146,-0.0894048,83.6327,110.377,83.579,110.463,5.91071e-05,5.34493e-05,0.00020403
-11.3168,8.9556,-297.587,0.000668834,0.00323516,0.00434971,1.9949e-06,-0.000126445,-7.85661e-05,3.92482e-05,-0.000163699,-0.442767,0.000186447,-0.437976,1.62263,-3.03651,-0.0272833,0.0173663,0.00627131,0.00213196,265,492,-0.0208867,-0.0913777,85.2556,111.086,85.2015,111.17,5.63356e-05,5.18875e-05,0.000194538
-11.019,8.94285,-297.538,0.000646179,0.00321605,0.00428451,1.58573e-06,-0.000122785,-9.31496e-05,5.13998e-05,-0.000172599,-0.491079,0.000203233,-0.503482,1.59408,-3.18431,-0.0193469,0.0158464,0.0037361,0.00198768,272,492,-0.0208661,-0.0928536,86.9343,111.821,86.8813,111.903,5.20469e-05,5.1093e-05,0.000180108
-10.7202,8.93001,-297.486,0.000635203,0.00320315,0.00419823,-2.83253e-06,-0.000118479,-0.000107607,6.15035e-05,-0.000182815,-0.538857,0.000220109,-0.515719,1.58061,-3.17098,-0.0112044,0.0141469,0.00102506,0.00198835,279,492,-0.0203769,-0.0928278,88.6693,112.561,88.6172,112.643,4.99584e-05,5.12179e-05,0.000172493
-10.4205,8.91727,-297.43,0.000646044,0.00319042,0.00398851,-9.1219e-06,-0.00011417,-0.000121022,7.02823e-05,-0.000193574,-0.580662,0.000236676,-0.490535,1.56949,-3.14147,-0.00141993,0.0119503,-0.000625892,0.00200355,286,492,-0.0183954,-0.0924783,90.4532,113.298,90.4023,113.379,4.97308e-05,5.12822e-05,0.000171556
-10.12,8.90454,-297.371,0.000699523,0.00318664,0.00383391,-1.72403e-05,-0.00010965,-0.000131976,7.63852e-05,-0.000203276,-0.617015,0.000250366,-0.440021,1.5527,-2.98618,0.00858234,0.00952264,-0.00100801,0.00202688,293,492,-0.0157974,-0.0923305,92.2798,114.035,92.2285,114.117,5.18291e-05,5.1483e-05,0.000178704
-9.81649,8.89168,-297.301,0.00075983,0.00313308,0.00376663,-2.69562e-05,-0.000105015,-0.000142009,8.1289e-05,-0.00021326,-0.651291,0.000263483,-0.383719,1.55942,-2.78456,0.0168375,0.00681706,0.000476197,0.0020571,300,492,-0.0136624,-0.0917582,94.2688,114.789,94.2163,114.868,5.43876e-05,5.10581e-05,0.00018728
-9.50566,8.8782,-297.207,0.000810184,0.00305262,0.00381271,-3.88786e-05,-9.95416e-05,-0.00014962,8.34534e-05,-0.000221874,-0.685392,0.000273329,-0.381706,1.54167,-2.65822,0.023455,0.00361501,0.00222762,0.00206195,307,492,-0.0126224,-0.0911017,96.645,115.591,96.5908,115.666,5.53128e-05,4.96309e-05,0.000189951
-9.18967,8.8657,-297.096,0.000830722,0.0029736,0.00373426,-5.09594e-05,-9.41698e-05,-0.000153928,8.28723e-05,-0.000228001,-0.715674,0.000278832,-0.413432,1.51484,-2.63565,0.0302919,0.000237313,0.00454619,0.00201437,314,492,-0.0113699,-0.090386,99.299,116.353,99.2449,116.425,5.27559e-05,4.98972e-05,0.000181129
-8.86719,8.85201,-296.961,0.000795885,0.00291497,0.00350747,-6.15331e-05,-8.89332e-05,-0.00015478,8.01518e-05,-0.000230618,-0.741257,0.000279452,-0.442916,1.49709,-2.76418,0.0372579,-0.00353612,0.0070469,0.0020603,321,492,-0.0103857,-0.0899602,102.299,117.19,102.248,117.259,4.98184e-05,5.27018e-05,0.000171538
-8.54567,8.8388,-296.829,0.000743104,0.00281407,0.00314448,-7.22186e-05,-8.31251e-05,-0.000152713,7.51381e-05,-0.000230482,-0.767551,0.000275836,-0.440904,1.46377,-2.90519,0.042924,-0.00808364,0.00917315,0.00229715,328,492,-0.00876913,-0.0880878,105.259,118.002,105.211,118.068,5.17278e-05,5.91252e-05,0.000178581
-8.23829,8.82628,-296.743,0.000755896,0.00276521,0.00297826,-8.25363e-05,-7.654e-05,-0.000149057,6.95494e-05,-0.000228626,-0.795454,0.000270199,-0.413458,1.48149,-2.98102,0.0468999,-0.0131874,0.0103967,0.00238222,335,492,-0.00708461,-0.0877052,107.485,118.748,107.439,118.812,5.56841e-05,6.13359e-05,0.000192538
-7.96398,8.81656,-296.764,0.00076041,0.00278951,0.00285554,-9.19589e-05,-6.90675e-05,-0.000144465,6.44043e-05,-0.000225431,-0.82493,0.000263601,-0.377546,1.49711,-2.93433,0.0508954,-0.018389,0.0104681,0.00229595,342,492,-0.00602565,-0.0895689,107.966,119.278,107.921,119.342,5.63062e-05,5.90209e-05,0.000194801
-7.68952,8.80428,-296.785,0.000774342,0.00283445,0.0028191,-0.000101186,-6.0401e-05,-0.000138795,5.94915e-05,-0.000221079,-0.858339,0.000256061,-0.353294,1.54207,-2.90893,0.0552949,-0.0228581,0.00997608,0.00220888,349,492,-0.00539551,-0.0910379,108.449,119.941,108.403,120.006,5.72473e-05,5.66112e-05,0.000198275
-7.41815,8.79303,-296.815,0.000758323,0.00284603,0.00276319,-0.000109169,-5.00383e-05,-0.00013282,5.64668e-05,-0.000215674,-0.894912,0.000248762,-0.339284,1.58704,-2.95971,0.060133,-0.0268772,0.00883981,0.00215274,356,492,-0.00533402,-0.0919297,108.764,120.545,108.72,120.609,5.76686e-05,5.29556e-05,0.000199718
-7.12439,8.77957,-296.771,0.000763672,0.00282954,0.002657,-0.000117467,-3.84574e-05,-0.000126137,5.42167e-05,-0.000210141,-0.937154,0.000241851,-0.334893,1.61901,-3.03179,0.0637624,-0.0291563,0.00676043,0.00211093,363,492,-0.00435966,-0.0936399,110.271,121.313,110.227,121.375,5.65517e-05,4.8543e-05,0.000195668
-6.82582,8.76686,-296.71,0.000743691,0.00282362,0.00260325,-0.000124855,-2.64112e-05,-0.00011922,5.33487e-05,-0.000204615,-0.981172,0.000235859,-0.310218,1.6214,-3.08751,0.0665869,-0.0303554,0.00278732,0.00209162,370,492,-0.00441503,-0.0949822,112.039,122.052,111.996,122.113,5.59505e-05,4.59054e-05,0.000193407
-6.52606,8.75404,-296.644,0.000762138,0.002826,0.00264575,-0.000131629,-1.47802e-05,-0.000112505,5.35664e-05,-0.000199975,-1.02488,0.000231455,-0.268229,1.63446,-3.16023,0.0670535,-0.0303169,-0.00191305,0.00209055,377,492,-0.00422208,-0.0953484,113.878,122.799,113.834,122.859,5.58595e-05,4.57506e-05,0.000193085
-6.22528,8.74114,-296.575,0.000721509,0.00283801,0.00265731,-0.000140747,-3.55901e-06,-0.000106737,5.47246e-05,-0.00019903,-1.07099,0.0002313,-0.230191,1.65731,-3.09457,0.0621688,-0.0291291,-0.00686908,0.00204208,384,492,-0.00527163,-0.0952403,115.776,123.551,115.733,123.612,5.46134e-05,4.67888e-05,0.000188679
-5.92364,8.72832,-296.501,0.000653921,0.00279153,0.00260381,-0.000154297,7.12909e-06,-0.00010134,5.59709e-05,-0.000203139,-1.12169,0.000236152,-0.19458,1.64903,-2.98938,0.0519102,-0.0262169,-0.0122591,0.00196349,391,492,-0.00644188,-0.0932614,117.724,124.303,117.684,124.363,5.2432e-05,4.81753e-05,0.000181087
-5.6197,8.71541,-296.419,0.000628912,0.00268172,0.00247308,-0.000169085,1.65736e-05,-9.57838e-05,5.71303e-05,-0.000209641,-1.17027,0.000243291,-0.18059,1.58696,-2.87262,0.0392336,-0.0229926,-0.0182651,0.00195395,398,492,-0.00592769,-0.0908601,119.804,125.068,119.765,125.125,5.08655e-05,4.96156e-05,0.000175608
-5.31248,8.70274,-296.325,0.000624935,0.00258822,0.0023026,-0.000181532,2.48333e-05,-8.80895e-05,5.73209e-05,-0.00021402,-1.21747,0.000247706,-0.181419,1.54325,-2.74474,0.0242012,-0.0193811,-0.0248724,0.00195935,405,492,-0.00462043,-0.0891273,122.071,125.828,122.033,125.882,5.0413e-05,4.9893e-05,0.00017388
-5.00443,8.69025,-296.227,0.000641221,0.00252507,0.00231091,-0.000191254,3.14466e-05,-7.85859e-05,5.63851e-05,-0.000216192,-1.26351,0.000249216,-0.184131,1.55029,-2.61033,0.00828925,-0.0158148,-0.0296943,0.00194205,412,492,-0.00417241,-0.0886728,124.393,126.58,124.356,126.631,4.99099e-05,4.90861e-05,0.000172155
-4.69667,8.67753,-296.128,0.000599994,0.00254375,0.00228049,-0.000197089,3.70358e-05,-6.80695e-05,5.53879e-05,-0.000215441,-1.30745,0.000247821,-0.189926,1.55657,-2.46767,-0.00745869,-0.0128641,-0.0327164,0.00192107,419,492,-0.00497562,-0.0905924,126.707,127.343,126.67,127.394,4.9494e-05,4.81892e-05,0.000170699
-4.39117,8.66449,-296.037,0.000525238,0.00260731,0.00225338,-0.000199173,4.19228e-05,-5.67718e-05,5.46222e-05,-0.000211872,-1.35073,0.000243816,-0.217647,1.53343,-2.46708,-0.020369,-0.0110005,-0.0343726,0.00192682,426,492,-0.00669779,-0.0937207,128.903,128.118,128.869,128.168,4.98477e-05,4.90939e-05,0.000171869
-4.08901,8.65163,-295.956,0.000440216,0.0026281,0.00227901,-0.000196885,4.61015e-05,-4.52393e-05,5.42509e-05,-0.000205034,-1.39257,0.000236866,-0.258522,1.46566,-2.5594,-0.029731,-0.0101581,-0.0350387,0.00201308,433,492,-0.00900671,-0.0949148,130.924,128.876,130.892,128.927,5.16319e-05,5.1173e-05,0.000178108
-3.78917,8.63973,-295.882,0.000393061,0.0025912,0.00222871,-0.000190169,4.91685e-05,-3.357e-05,5.37879e-05,-0.000194788,-1.43405,0.000226523,-0.277443,1.40115,-2.67013,-0.0365974,-0.0101659,-0.0341206,0.00212842,440,492,-0.00975106,-0.0948999,132.826,129.582,132.796,129.631,5.40253e-05,5.33958e-05,0.000186407
-3.49066,8.62758,-295.812,0.00031474,0.00253624,0.00209625,-0.000180446,5.11784e-05,-2.19961e-05,5.32487e-05,-0.000182516,-1.47695,0.000214164,-0.260481,1.36153,-2.79867,-0.0407106,-0.0112435,-0.0315112,0.00219342,447,492,-0.0106596,-0.0942007,134.659,130.298,134.632,130.345,5.6112e-05,5.52683e-05,0.000193475
-3.19439,8.61509,-295.749,0.000262395,0.00245333,0.00193194,-0.000165411,5.22868e-05,-1.1256e-05,5.28673e-05,-0.000165991,-1.51927,0.000197797,-0.272068,1.31853,-2.89601,-0.0411094,-0.0134469,-0.0283452,0.00225691,454,492,-0.0106601,-0.0928625,136.373,131.029,136.349,131.073,5.79578e-05,5.69518e-05,0.000199658
-2.89837,8.60289,-295.686,0.000221828,0.00240674,0.00180776,-0.000145403,5.31738e-05,-7.0997e-07,5.31764e-05,-0.000145405,-1.56722,0.000178052,-0.344583,1.31904,-3.02718,-0.0379957,-0.0158259,-0.0255383,0.00232352,461,492,-0.0106892,-0.0915921,138.08,131.743,138.058,131.785,6.04423e-05,5.87089e-05,0.00020784
-2.60137,8.59078,-295.618,0.000244734,0.00244244,0.00168024,-0.000123615,5.48051e-05,1.01981e-05,5.53861e-05,-0.000124196,1.51389,0.000159283,-0.433818,1.35342,-3.02764,-0.032669,-0.0174123,-0.0231742,0.00237718,468,492,-0.00918641,-0.0920594,139.851,132.452,139.829,132.496,6.21674e-05,5.97362e-05,0.000213507
-2.3025,8.57835,-295.543,0.00030427,0.00255714,0.00154694,-0.000102177,5.73089e-05,2.08388e-05,5.99868e-05,-0.000104855,1.44299,0.000144509,-0.466738,1.42322,-2.90279,-0.027251,-0.0179906,-0.0208067,0.00242133,475,492,-0.00677733,-0.0925075,141.734,133.178,141.711,133.228,6.28929e-05,6.06136e-05,0.000216105
-2.00309,8.56568,-295.466,0.000324913,0.00263156,0.00145108,-8.08571e-05,6.06355e-05,3.05731e-05,6.69589e-05,-8.71806e-05,1.36684,0.000133871,-0.460778,1.47262,-2.68457,-0.0210183,-0.0176521,-0.0181861,0.00240078,482,492,-0.00560502,-0.0936583,143.653,133.923,143.63,133.975,6.14508e-05,5.97517e-05,0.000211127
-1.70412,8.55305,-295.389,0.000299647,0.00264849,0.00132572,-5.9267e-05,6.41612e-05,3.98776e-05,7.5924e-05,-7.10297e-05,1.28396,0.000127289,-0.40783,1.51886,-2.6727,-0.0137203,-0.0163811,-0.0157221,0.00231792,489,492,-0.00533813,-0.0945632,145.553,134.667,145.533,134.72,5.80423e-05,5.82999e-05,0.000199263
-1.40701,8.54012,-295.317,0.000257644,0.00260799,0.00122799,-3.71438e-05,6.78169e-05,4.9101e-05,8.72052e-05,-5.6532e-05,1.19472,0.000125421,-0.346653,1.54769,-2.75608,-0.00855259,-0.0141243,-0.0139511,0.00226585,496,492,-0.00563923,-0.0943549,147.355,135.426,147.336,135.477,5.63854e-05,5.75836e-05,0.000193276
-1.11213,8.52749,-295.253,0.000243706,0.00254852,0.00128406,-1.6965e-05,7.16246e-05,5.82546e-05,0.000100512,-4.58524e-05,1.11045,0.000129668,-0.276101,1.53488,-2.88821,-0.00702565,-0.0105177,-0.0121439,0.00227258,503,492,-0.00629259,-0.0923081,149.039,136.163,149.021,136.213,5.66894e-05,5.76251e-05,0.000193836
-0.817327,8.51517,-295.188,0.00027081,0.00248883,0.00142553,-5.87628e-07,7.56535e-05,6.70921e-05,0.000114699,-3.96327e-05,1.04375,0.000138825,-0.225367,1.50752,-3.05472,-0.00777936,-0.00601983,-0.00974698,0.0023052,510,492,-0.00650893,-0.0898749,150.729,136.885,150.708,136.934,5.86971e-05,5.75617e-05,0.000200313
-0.521483,8.50269,-295.118,0.000289,0.00244973,0.00168876,1.28276e-05,7.97226e-05,7.53662e-05,0.00012873,-3.61797e-05,0.994241,0.000150126,-0.223017,1.44849,-3.20585,-0.00803535,-0.000902342,-0.00703137,0.00236363,517,492,-0.0078225,-0.0872293,152.485,137.617,152.462,137.666,6.12386e-05,5.69772e-05,0.000208501
-0.224424,8.49034,-295.043,0.000276752,0.00245558,0.00175122,2.21007e-05,8.29861e-05,8.31339e-05,0.000141076,-3.59891e-05,0.96091,0.000162095,-0.222764,1.37415,-3.44868,-0.00896254,0.00513184,-0.00329183,0.00239173,524,492,-0.00853229,-0.0863584,154.317,138.344,154.293,138.394,6.25311e-05,5.52671e-05,0.000212228
0.0727633,8.47784,-294.967,0.000214532,0.00247334,0.00169347,3.0988e-05,8.4509e-05,9.15006e-05,0.000153082,-3.75851e-05,0.927662,0.00017493,-0.262128,1.33408,-3.53679,-0.0140476,0.0109889,0.00256563,0.00244701,531,492,-0.00966031,-0.085217,156.162,139.081,156.14,139.133,6.4101e-05,5.59667e-05,0.000217287
0.369186,8.46543,-294.892,0.000231066,0.00251831,0.00166268,3.83675e-05,8.4261e-05,0.000100124,0.000164034,-4.14055e-05,0.898044,0.000188185,-0.280988,1.34681,-3.40202,-0.0189338,0.016995,0.0105589,0.00249907,538,492,-0.00903692,-0.0861322,157.973,139.811,157.951,139.864,6.50576e-05,5.94721e-05,0.000221059
0.664887,8.453,-294.819,0.000314131,0.00263405,0.0015766,4.31006e-05,8.28036e-05,0.000108163,0.000172922,-4.70179e-05,0.876154,0.000200607,-0.279997,1.39103,-3.1804,-0.0216465,0.0231122,0.0196488,0.00248308,545,492,-0.00642678,-0.0896402,159.751,140.54,159.728,140.596,6.46635e-05,6.1345e-05,0.000219801
0.959108,8.44089,-294.751,0.000407735,0.00273952,0.0014361,4.27722e-05,8.0414e-05,0.000114238,0.000177371,-5.41852e-05,0.86704,0.00020978,-0.289599,1.39437,-3.02534,-0.0230302,0.0299031,0.0293788,0.00245029,552,492,-0.00316175,-0.0933089,161.452,141.25,161.427,141.309,6.36281e-05,6.16519e-05,0.000215919
1.25142,8.42842,-294.689,0.000460764,0.00283015,0.00131593,3.54885e-05,7.76542e-05,0.00011713,0.000175584,-6.24413e-05,0.874442,0.000213758,-0.312733,1.41905,-3.0307,-0.02478,0.0378787,0.0387942,0.00241892,559,492,-0.0010536,-0.0964419,163.048,141.975,163.022,142.036,6.43735e-05,6.06415e-05,0.000217556
1.54187,8.41627,-294.632,0.000473837,0.00285368,0.00120322,2.34148e-05,7.56431e-05,0.000116474,0.000168895,-6.98371e-05,0.895677,0.000212598,-0.305124,1.45574,-3.26157,-0.0279887,0.0474377,0.0466002,0.00250008,566,492,4.49841e-05,-0.098689,164.541,142.682,164.516,142.742,6.78849e-05,6.1073e-05,0.000228688
1.83144,8.40388,-294.578,0.0004516,0.00286395,0.00122348,5.83614e-06,7.69949e-05,0.00011492,0.000161718,-7.88866e-05,0.935519,0.000212445,-0.292132,1.50454,-3.35841,-0.0332586,0.0592809,0.0502994,0.00263038,573,492,-0.000658334,-0.0997747,165.988,143.4,165.963,143.46,7.19715e-05,6.21347e-05,0.000241683
0,0,0,0,0,0,0,0,0,0,0,0,0,0,0,0,0,0,0,-1,580,492,0,0,0,0,0,0,0,0,0
0,0,0,0,0,0,0,0,0,0,0,0,0,0,0,0,0,0,0,-1,587,492,0,0,0,0,0,0,0,0,0
0,0,0,0,0,0,0,0,0,0,0,0,0,0,0,0,0,0,0,-1,594,492,0,0,0,0,0,0,0,0,0
0,0,0,0,0,0,0,0,0,0,0,0,0,0,0,0,0,0,0,-1,601,492,0,0,0,0,0,0,0,0,0
0,0,0,0,0,0,0,0,0,0,0,0,0,0,0,0,0,0,0,-1,62,499,0,0,0,0,0,0,0,0,0
0,0,0,0,0,0,0,0,0,0,0,0,0,0,0,0,0,0,0,-1,69,499,0,0,0,0,0,0,0,0,0
0,0,0,0,0,0,0,0,0,0,0,0,0,0,0,0,0,0,0,-1,76,499,0,0,0,0,0,0,0,0,0
-18.9028,9.0048,-298.141,0.000669072,0.0029342,-0.000141105,-7.34025e-05,2.48981e-05,-2.14648e-06,2.4945e-05,-7.34494e-05,-1.54897,8.8596e-05,-0.404592,1.5803,-3.24367,0.0632059,0.0172789,0.00203275,0.00235368,83,499,0.0142757,-0.0771891,49.3298,93.8261,49.3082,93.91,5.90268e-05,6.03222e-05,0.000209309
-18.6219,8.99219,-298.156,0.000673358,0.00292473,2.25584e-06,-6.61824e-05,2.48265e-05,9.15909e-06,2.57391e-05,-6.7095e-05,1.47148,8.30133e-05,-0.382236,1.59084,-3.1827,0.0428112,0.0165145,0.00367807,0.00233498,90,499,0.0132278,-0.0760013,50.2021,94.5187,50.1794,94.6029,6.03846e-05,5.91484e-05,0.000212994
-18.3415,8.9799,-298.172,0.00067982,0.00288913,0.000103761,-4.44696e-05,2.12394e-05,2.47183e-05,2.94995e-05,-5.27297e-05,1.24829,7.21536e-05,-0.35325,1.60681,-3.23052,0.0309993,0.0159433,0.00154165,0.00232944,97,499,0.012605,-0.0745355,51.0479,95.1947,51.0243,95.2783,6.11509e-05,5.81716e-05,0.00021548
-18.0593,8.9678,-298.182,0.000641292,0.00286119,0.000187363,-1.90709e-05,1.44667e-05,4.11538e-05,4.21369e-05,-4.67412e-05,0.978862,7.70051e-05,-0.351669,1.59626,-3.2751,0.0285696,0.0152692,-0.000633245,0.00224467,104,499,0.0110254,-0.0731549,51.9743,95.8633,51.9513,95.9467,5.94414e-05,5.49696e-05,0.000209714
-17.778,8.9561,-298.195,0.000594839,0.00285454,0.000265836,6.47051e-06,5.5056e-06,5.69968e-05,6.29869e-05,-5.10108e-05,0.781166,9.89063e-05,-0.365479,1.58917,-3.39486,0.0319364,0.0150781,-0.00141907,0.00216695,111,499,0.00927649,-0.0721079,52.8487,96.5087,52.8264,96.5926,5.77488e-05,5.27567e-05,0.000204025
-17.4967,8.94434,-298.208,0.000546471,0.0028932,0.000497144,3.04739e-05,-4.59794e-06,7.17441e-05,8.67941e-05,-6.09181e-05,0.665537,0.000128575,-0.367066,1.59258,-3.4879,0.0366746,0.0157022,-0.00159485,0.00219331,118,499,0.00619229,-0.0719626,53.7215,97.1553,53.6989,97.2411,5.81527e-05,5.34061e-05,0.000205006
-17.2131,8.93228,-298.214,0.000542997,0.00293385,0.00094288,5.15101e-05,-1.49542e-05,8.46443e-05,0.000109212,-7.26563e-05,0.598339,0.00015856,-0.385577,1.59288,-3.55887,0.0413114,0.0170213,-0.00168324,0.00227578,125,499,0.00247045,-0.0719279,54.707,97.8219,54.6813,97.9096,6.07632e-05,5.62981e-05,0.000212852
-16.927,8.9202,-298.211,0.000629859,0.0029614,0.00146747,6.79657e-05,-2.49446e-05,9.44041e-05,0.000126726,-8.37045e-05,0.556749,0.000183503,-0.390092,1.56892,-3.52335,0.0465347,0.0185274,-0.00165429,0.0023249,132,499,0.000348599,-0.0719603,55.8157,98.4948,55.7839,98.5836,6.23189e-05,5.76451e-05,0.000217703
-16.6382,8.90772,-298.201,0.000716296,0.00296054,0.00183549,8.04488e-05,-3.36923e-05,0.000100254,0.000138738,-9.19817e-05,0.526643,0.000201172,-0.36985,1.51353,-3.38982,0.0506771,0.0195587,-0.00167509,0.00232941,139,499,-0.000476561,-0.0720609,57.0497,99.1943,57.013,99.2827,6.21298e-05,5.74185e-05,0.000216817
-16.3477,8.8953,-298.184,0.000748751,0.00296758,0.00203602,9.0853e-05,-4.19365e-05,0.000102731,0.000146777,-9.78607e-05,0.498514,0.00021327,-0.31286,1.46383,-3.24433,0.052749,0.0201622,-0.00204131,0.0022857,146,499,-0.00125887,-0.071865,58.3643,99.8932,58.3251,99.982,6.03709e-05,5.6025e-05,0.00021061
-16.0557,8.88302,-298.163,0.000745102,0.003001,0.00215387,9.79941e-05,-4.93037e-05,0.000101507,0.000149756,-0.000101066,0.471563,0.000218578,-0.261798,1.44549,-3.25586,0.0517136,0.0207941,-0.00292246,0.00215637,153,499,-0.0022939,-0.0730973,59.7466,100.588,59.7067,100.677,5.6686e-05,5.35526e-05,0.000197311
-15.7638,8.87076,-298.142,0.000740753,0.00309842,0.0023723,9.92457e-05,-5.56583e-05,9.62093e-05,0.000145305,-0.000101718,0.446496,0.000215035,-0.224323,1.45863,-3.34749,0.0477265,0.0213304,-0.00436563,0.0020666,160,499,-0.00422658,-0.0764011,61.1273,101.28,61.0859,101.371,5.41933e-05,5.2609e-05,0.000188376
-15.4729,8.85845,-298.123,0.000701202,0.00319976,0.00262903,9.32119e-05,-6.0843e-05,8.66566e-05,0.000132127,-9.97577e-05,0.422079,0.000201469,-0.212639,1.47892,-3.45387,0.0404521,0.021524,-0.005964,0.00205535,167,499,-0.00734121,-0.080723,62.452,101.973,62.4099,102.066,5.31034e-05,5.32429e-05,0.000183995
-15.1829,8.8463,-298.107,0.000679044,0.00328834,0.00296345,8.19202e-05,-6.47697e-05,7.31441e-05,0.000112159,-9.50082e-05,0.392014,0.000179617,-0.205933,1.5023,-3.41745,0.0306327,0.0211899,-0.00700043,0.00208693,174,499,-0.0106105,-0.0837085,63.7337,102.656,63.6897,102.75,5.33204e-05,5.42159e-05,0.000184567
-14.8924,8.83426,-298.088,0.000665042,0.00331606,0.00324447,6.7879e-05,-6.79347e-05,5.74642e-05,8.89298e-05,-8.89856e-05,0.351148,0.000154079,-0.214342,1.50043,-3.32642,0.0191219,0.0205622,-0.00705265,0.00210519,181,499,-0.0131704,-0.0848834,65.0374,103.335,64.9918,103.43,5.38882e-05,5.46181e-05,0.000186972
-14.5997,8.82224,-298.063,0.000652841,0.00331125,0.00350783,5.43121e-05,-7.09716e-05,4.19412e-05,6.70563e-05,-8.37158e-05,0.294994,0.000130838,-0.195484,1.50251,-3.18368,0.00600309,0.0201163,-0.00591126,0.00209875,188,499,-0.0154933,-0.0848187,66.4506,104.018,66.4034,104.113,5.40932e-05,5.435e-05,0.000187913
-14.304,8.8099,-298.028,0.000674806,0.00332353,0.00383925,4.2393e-05,-7.49372e-05,2.75936e-05,4.85585e-05,-8.11026e-05,0.219827,0.000113463,-0.207839,1.48079,-3.19818,-0.00700782,0.0200581,-0.00397152,0.00210563,195,499,-0.0175256,-0.0851929,68.014,104.724,67.9638,104.818,5.40242e-05,5.44075e-05,0.00018812
-14.0065,8.79713,-297.986,0.000694184,0.00339729,0.00413656,3.21003e-05,-8.03305e-05,1.48815e-05,3.40366e-05,-8.22669e-05,0.129393,0.000103568,-0.226104,1.45135,-3.24143,-0.0200227,0.0203378,-0.00153525,0.00214866,202,499,-0.0194021,-0.0868667,69.6699,105.454,69.6169,105.55,5.49702e-05,5.558e-05,0.000191064
-13.7088,8.78432,-297.943,0.000705806,0.00346325,0.00430038,2.24884e-05,-8.72569e-05,3.53506e-06,2.26022e-05,-8.73707e-05,0.0321671,0.000100595,-0.259065,1.41468,-3.36699,-0.0327544,0.02051,0.00104898,0.00219838,209,499,-0.0204021,-0.0887811,71.3326,106.186,71.2779,106.284,5.67736e-05,5.68142e-05,0.000196922
-13.4105,8.77164,-297.898,0.000688306,0.0034579,0.00444352,1.37139e-05,-9.52213e-05,-7.0005e-06,1.4162e-05,-9.56693e-05,-0.0639125,0.00010348,-0.307593,1.4138,-3.41972,-0.0434288,0.0205332,0.00425038,0.00223521,216,499,-0.0218855,-0.0897161,73.0281,106.917,72.9728,107.014,5.78818e-05,5.73565e-05,0.000200179
-13.1108,8.75931,-297.848,0.000641764,0.00337622,0.00467271,7.90853e-06,-0.000103922,-1.68869e-05,1.04029e-05,-0.000106416,-0.14665,0.000111981,-0.348857,1.43692,-3.31477,-0.0509994,0.0206345,0.00807305,0.0022508,223,499,-0.0246745,-0.0887988,74.7946,107.634,74.7391,107.727,5.81653e-05,5.7491e-05,0.000200967
-12.8108,8.74699,-297.797,0.000591193,0.00326745,0.00490458,4.79345e-06,-0.000112311,-2.60575e-05,1.03299e-05,-0.000117848,-0.209357,0.000123337,-0.371105,1.45602,-3.05572,-0.0545086,0.0208046,0.0119021,0.00223043,230,499,-0.0275437,-0.0869706,76.5744,108.352,76.5186,108.441,5.66405e-05,5.72457e-05,0.000196133
-12.5108,8.73444,-297.744,0.000565475,0.00321859,0.00498213,4.61897e-06,-0.000119105,-3.47614e-05,1.37165e-05,-0.000128203,-0.255973,0.000135583,-0.380836,1.48112,-2.8571,-0.0551428,0.0211535,0.0144752,0.00221999,237,499,-0.0286402,-0.0860207,78.3625,109.081,78.3069,109.168,5.64333e-05,5.69749e-05,0.000195422
-12.2124,8.72188,-297.697,0.00055396,0.00323397,0.00486982,5.83267e-06,-0.000123413,-4.36565e-05,1.9197e-05,-0.000136778,-0.297066,0.000147317,-0.386435,1.50486,-2.79055,-0.0524756,0.0213939,0.0149934,0.00222596,244,499,-0.0279728,-0.0867976,80.0639,109.804,80.0093,109.892,5.77163e-05,5.59711e-05,0.00019965
-11.9162,8.70956,-297.655,0.000597788,0.00327756,0.00461524,7.41402e-06,-0.00012564,-5.32442e-05,2.60973e-05,-0.000144323,-0.337475,0.000158986,-0.37048,1.54112,-2.82127,-0.0463469,0.0218869,0.014518,0.00225434,251,499,-0.0248594,-0.0879522,81.6561,110.51,81.6019,110.599,5.92548e-05,5.46574e-05,0.000204526
-11.6213,8.69748,-297.617,0.000658086,0.00331087,0.0044566,1.08932e-05,-0.00012605,-6.52269e-05,3.69886e-05,-0.000152145,-0.380568,0.00017362,-0.399933,1.59016,-2.96238,-0.0376265,0.0207925,0.013637,0.00221882,258,499,-0.0220898,-0.0893801,83.1873,111.202,83.1325,111.292,5.88343e-05,5.34311e-05,0.00020314
-11.3264,8.68517,-297.579,0.000692551,0.00329997,0.00439956,1.39152e-05,-0.000125045,-7.92762e-05,4.98496e-05,-0.000160979,-0.425579,0.000190851,-0.421494,1.60162,-3.07488,-0.0287235,0.0188388,0.0127015,0.00207033,265,499,-0.02072,-0.09078,84.7181,111.909,84.6627,111.997,5.52347e-05,5.2161e-05,0.000191095
-11.0297,8.67238,-297.534,0.000680322,0.00326948,0.00437269,1.22746e-05,-0.000122804,-9.49413e-05,6.1249e-05,-0.000171778,-0.476238,0.000209237,-0.50047,1.56973,-3.19386,-0.020506,0.0162077,0.0106569,0.00198575,272,499,-0.0207199,-0.0917539,86.3426,112.644,86.2878,112.73,5.10236e-05,5.11857e-05,0.000176953
-10.7307,8.65953,-297.481,0.000657533,0.00323565,0.00426653,5.87266e-06,-0.000119985,-0.000110403,7.00219e-05,-0.000184134,-0.526367,0.000227381,-0.523808,1.54445,-3.14248,-0.0118058,0.0132637,0.0081359,0.00198193,279,499,-0.0203456,-0.0912519,88.0859,113.388,88.0326,113.472,4.94264e-05,5.12075e-05,0.000171021
-10.4308,8.64688,-297.424,0.000648424,0.00317624,0.00404832,-2.50016e-06,-0.00011709,-0.000124604,7.735e-05,-0.00019694,-0.569904,0.000244953,-0.493424,1.52706,-3.02584,-0.00146558,0.00989154,0.00651242,0.00200061,286,499,-0.018758,-0.0908456,89.8767,114.124,89.8252,114.206,5.02096e-05,5.14385e-05,0.000173334
-10.1307,8.63435,-297.367,0.000710608,0.00312812,0.00393378,-1.22015e-05,-0.000113819,-0.000136292,8.2444e-05,-0.000208465,-0.60698,0.000259694,-0.433624,1.49303,-2.81599,0.00898186,0.00643744,0.00605399,0.00203465,293,499,-0.0162199,-0.0907027,91.6853,114.854,91.633,114.934,5.27442e-05,5.22478e-05,0.000181918
-9.82846,8.62169,-297.301,0.000782577,0.0030674,0.00386627,-2.32863e-05,-0.000110435,-0.000146942,8.64062e-05,-0.000220128,-0.641258,0.000273757,-0.372551,1.494,-2.64324,0.0177459,0.00303812,0.00737526,0.00208105,300,499,-0.0137881,-0.0902228,93.6113,115.597,93.5575,115.674,5.51019e-05,5.28144e-05,0.000189847
-9.5202,8.60906,-297.215,0.000859872,0.00304342,0.00395646,-3.64212e-05,-0.000105908,-0.000155042,8.77228e-05,-0.000230052,-0.675174,0.000284254,-0.378713,1.50207,-2.61547,0.0248712,-0.000462169,0.00877777,0.00209322,307,499,-0.0124652,-0.0903139,95.856,116.351,95.7993,116.426,5.56708e-05,5.16105e-05,0.000191478
-9.20476,8.59673,-297.106,0.000877125,0.00300389,0.00387632,-4.97533e-05,-0.000101106,-0.000159884,8.65032e-05,-0.000237363,-0.705781,0.000290442,-0.407649,1.51762,-2.69881,0.0322652,-0.00380556,0.0106916,0.00206978,314,499,-0.0113072,-0.0897161,98.4814,117.105,98.4249,117.178,5.38359e-05,5.24264e-05,0.000184744
-8.88215,8.58345,-296.971,0.000817339,0.00292334,0.00358412,-6.19399e-05,-9.58328e-05,-0.000161317,8.33188e-05,-0.000241092,-0.733065,0.000291813,-0.424843,1.5143,-2.83207,0.0399351,-0.0071712,0.0128679,0.00211757,321,499,-0.010415,-0.0885713,101.487,117.926,101.434,117.997,5.15285e-05,5.42036e-05,0.000177431
-8.55875,8.56994,-296.833,0.000812555,0.00281119,0.00319754,-7.46425e-05,-8.94049e-05,-0.000159803,7.79499e-05,-0.000241997,-0.76232,0.000288968,-0.414498,1.48063,-2.86726,0.0462818,-0.0109681,0.0147345,0.00241171,328,499,-0.00742634,-0.0873873,104.546,118.764,104.496,118.83,5.51456e-05,6.21414e-05,0.000190514
-8.24166,8.55612,-296.714,0.00083866,0.00276483,0.00304163,-8.67182e-05,-8.17708e-05,-0.000156716,7.24913e-05,-0.00024098,-0.79329,0.000284245,-0.398767,1.4778,-2.87552,0.0507043,-0.0150984,0.0156086,0.00257486,335,499,-0.00551018,-0.0883807,107.284,119.604,107.235,119.667,6.08226e-05,6.65037e-05,0.000209925
-7.94335,8.54103,-296.656,0.000867335,0.00280774,0.00296434,-9.73516e-05,-7.31377e-05,-0.000152789,6.80237e-05,-0.000238513,-0.824935,0.000278819,-0.382643,1.48181,-2.83994,0.0549445,-0.0191617,0.0149748,0.00245366,342,499,-0.00421618,-0.0909849,109.032,120.467,108.983,120.53,6.03662e-05,6.28383e-05,0.000208645
-7.69865,8.53564,-296.775,0.000886364,0.00286194,0.00289849,-0.000107943,-6.33664e-05,-0.00014789,6.39053e-05,-0.000235215,-0.86019,0.00027284,-0.378013,1.52232,-2.83985,0.0596547,-0.0225041,0.0134714,0.00231185,349,499,-0.0032493,-0.0930879,107.948,120.702,107.899,120.766,5.95166e-05,5.8542e-05,0.000206094
-7.42556,8.52381,-296.8,0.000881572,0.00289147,0.00281594,-0.000118019,-5.18232e-05,-0.000142653,6.15218e-05,-0.000231364,-0.899389,0.000267484,-0.360257,1.56766,-2.95076,0.0649591,-0.0254556,0.0112343,0.00217784,356,499,-0.00271949,-0.0940945,108.355,121.337,108.306,121.402,5.77779e-05,5.28381e-05,0.000200277
-7.13122,8.51099,-296.754,0.000838636,0.00287826,0.00272841,-0.000128349,-3.93689e-05,-0.000136435,5.9647e-05,-0.000227365,-0.943006,0.000262324,-0.348831,1.5899,-3.03772,0.0689543,-0.0270915,0.00810825,0.00208598,363,499,-0.00307057,-0.0946919,109.894,122.073,109.847,122.137,5.53754e-05,4.7852e-05,0.000191952
-6.83297,8.49858,-296.694,0.000799372,0.00285662,0.00275241,-0.000136873,-2.67894e-05,-0.00012946,5.88439e-05,-0.000222506,-0.986403,0.000257031,-0.310245,1.59274,-3.09868,0.0716608,-0.0279969,0.00329819,0.00206003,370,499,-0.00414335,-0.0940275,111.647,122.797,111.601,122.86,5.46868e-05,4.6673e-05,0.00018914
-6.53361,8.4858,-296.63,0.000787747,0.00284601,0.0027944,-0.000143927,-1.49896e-05,-0.000122103,5.8619e-05,-0.000217536,-1.02829,0.000252011,-0.266558,1.62855,-3.14643,0.071954,-0.0279435,-0.00197136,0.00205967,377,499,-0.0046742,-0.0937236,113.464,123.543,113.418,123.605,5.49089e-05,4.74449e-05,0.000189793
-6.23304,8.4727,-296.56,0.0007366,0.00285593,0.00277268,-0.000153325,-3.95352e-06,-0.000115448,5.88606e-05,-0.000216139,-1.0725,0.000250804,-0.215632,1.66429,-3.04308,0.0671898,-0.0269722,-0.00743486,0.00201954,384,499,-0.00574741,-0.0944447,115.35,124.308,115.306,124.371,5.40099e-05,4.81576e-05,0.000186493
-5.93123,8.45983,-296.486,0.000667953,0.00282025,0.00266229,-0.000167682,6.12154e-06,-0.000109202,5.87797e-05,-0.00022034,-1.12148,0.000254866,-0.192089,1.66597,-2.99437,0.0570736,-0.0245055,-0.0133794,0.00197515,391,499,-0.00655287,-0.0941071,117.307,125.067,117.266,125.128,5.2023e-05,4.97152e-05,0.000179516
-5.62535,8.44738,-296.398,0.000642571,0.00271506,0.00250797,-0.000183469,1.46329e-05,-0.000102888,5.84004e-05,-0.000227237,-1.1686,0.000261377,-0.164186,1.59571,-2.84711,0.0441572,-0.021836,-0.0198231,0.00201083,398,499,-0.00589075,-0.0927064,119.494,125.816,119.454,125.873,5.09602e-05,5.11047e-05,0.00017564
-5.3162,8.43463,-296.297,0.000636016,0.00260892,0.00231953,-0.000196027,2.1703e-05,-9.46896e-05,5.71214e-05,-0.000231445,-1.21286,0.00026467,-0.153536,1.54167,-2.71583,0.0285188,-0.019062,-0.0268226,0.00201145,405,499,-0.00450796,-0.091145,121.867,126.589,121.829,126.642,5.1305e-05,5.08671e-05,0.0001767
-5.00653,8.42221,-296.193,0.000638581,0.00253534,0.00228592,-0.00020536,2.7335e-05,-8.48863e-05,5.50098e-05,-0.000233035,-1.25564,0.000264859,-0.151211,1.55584,-2.52069,0.0122283,-0.0165126,-0.0319524,0.00198531,412,499,-0.00407614,-0.0900479,124.279,127.346,124.241,127.396,5.11247e-05,4.97922e-05,0.000176208
-4.69849,8.40959,-296.094,0.000607276,0.0025551,0.00224957,-0.00021119,3.22868e-05,-7.42856e-05,5.31618e-05,-0.000232065,-1.29685,0.000262712,-0.167669,1.57376,-2.34056,-0.00380083,-0.0146683,-0.0351971,0.00197911,419,499,-0.0045786,-0.0913881,126.609,128.108,126.573,128.158,5.1353e-05,4.92807e-05,0.000177052
-4.39442,8.39711,-296.007,0.000554894,0.00259078,0.00225029,-0.000213673,3.69969e-05,-6.31404e-05,5.20028e-05,-0.000228679,-1.33747,0.000258632,-0.206152,1.54644,-2.28148,-0.0172081,-0.0138437,-0.0370124,0.00199449,426,499,-0.00591308,-0.093827,128.731,128.854,128.696,128.903,5.21562e-05,5.05565e-05,0.000179873
-4.09461,8.38531,-295.935,0.000478756,0.00258903,0.00227526,-0.00021163,4.13436e-05,-5.18966e-05,5.15761e-05,-0.000221863,-1.37612,0.000251647,-0.255925,1.49097,-2.35231,-0.0273927,-0.0139086,-0.0378084,0.00205964,433,499,-0.00796745,-0.0943855,130.626,129.554,130.593,129.603,5.31085e-05,5.1901e-05,0.000183301
-3.79684,8.3734,-295.868,0.000406345,0.00254018,0.00224619,-0.000205244,4.4879e-05,-4.04891e-05,5.12699e-05,-0.000211635,-1.41424,0.000241389,-0.283298,1.42248,-2.5057,-0.0351525,-0.0146044,-0.0369698,0.00212379,440,499,-0.00948534,-0.0939303,132.414,130.259,132.383,130.306,5.38756e-05,5.32795e-05,0.00018596
-3.50061,8.3609,-295.806,0.000328699,0.00249127,0.00213443,-0.000196205,4.77056e-05,-2.91537e-05,5.11419e-05,-0.000199641,-1.45347,0.000229526,-0.266674,1.38924,-2.69673,-0.0400186,-0.0159631,-0.0342985,0.00218123,447,499,-0.0105277,-0.0930128,134.119,130.99,134.092,131.036,5.54851e-05,5.50848e-05,0.000191351
-3.20553,8.34841,-295.746,0.000261636,0.00243048,0.00192689,-0.000181916,4.98592e-05,-1.86743e-05,5.13542e-05,-0.000183411,-1.49091,0.000213766,-0.268843,1.35829,-2.94973,-0.0410541,-0.0178936,-0.0311847,0.00223906,454,499,-0.0106033,-0.0919917,135.767,131.719,135.743,131.763,5.72591e-05,5.70845e-05,0.00019719
-2.90993,8.33616,-295.685,0.000222368,0.00240099,0.00174373,-0.000162219,5.1867e-05,-8.46283e-06,5.22011e-05,-0.000162553,-1.53135,0.000193995,-0.326409,1.35965,-3.12887,-0.0385272,-0.0195199,-0.0286495,0.00230326,461,499,-0.0101927,-0.0912815,137.451,132.437,137.429,132.479,5.92812e-05,5.87497e-05,0.000203768
-2.61284,8.32396,-295.617,0.000211193,0.00245846,0.00152081,-0.000139909,5.46922e-05,2.24643e-06,5.47182e-05,-0.000139935,1.55925,0.000173876,-0.397563,1.3803,-3.20801,-0.0338962,-0.0201451,-0.0266398,0.00237076,468,499,-0.00888972,-0.0927134,139.224,133.153,139.205,133.197,6.12671e-05,5.97883e-05,0.000210334
-2.31374,8.31154,-295.541,0.000246819,0.00255824,0.00134367,-0.000117375,5.83248e-05,1.30285e-05,5.92856e-05,-0.000118336,1.49718,0.000156632,-0.43532,1.43516,-3.09409,-0.0294494,-0.0198134,-0.0245271,0.00238385,475,499,-0.00677119,-0.0938401,141.119,133.884,141.1,133.932,6.12514e-05,6.05005e-05,0.000210322
-2.01414,8.29901,-295.463,0.000285353,0.00263567,0.00123276,-9.46209e-05,6.26566e-05,2.333e-05,6.60444e-05,-9.80086e-05,1.4266,0.00014297,-0.444112,1.49168,-2.88531,-0.0245356,-0.0187116,-0.0220159,0.00235285,482,499,-0.00505169,-0.0953495,143.05,134.624,143.03,134.676,5.93394e-05,5.92459e-05,0.000203751
-1.71496,8.28659,-295.385,0.000283679,0.00265688,0.00114951,-7.12566e-05,6.6941e-05,3.36771e-05,7.47108e-05,-7.90264e-05,1.34405,0.000133158,-0.407645,1.53033,-2.78121,-0.0184004,-0.0168475,-0.0194667,0.00228417,489,499,-0.00450977,-0.096925,144.964,135.361,144.945,135.413,5.60321e-05,5.74695e-05,0.000192332
-1.41764,8.274,-295.313,0.00026797,0.00261916,0.0010327,-4.7126e-05,7.12963e-05,4.42191e-05,8.59857e-05,-6.18154e-05,1.25007,0.000128569,-0.330657,1.57592,-2.77074,-0.0134521,-0.0141596,-0.0175468,0.00224592,496,499,-0.00401927,-0.0970017,146.779,136.106,146.761,136.155,5.49858e-05,5.68549e-05,0.000188547
-1.12235,8.26158,-295.247,0.000213119,0.00257568,0.00108033,-2.4903e-05,7.58438e-05,5.49456e-05,0.000100012,-4.90715e-05,1.1564,0.000131599,-0.242531,1.58438,-2.86006,-0.0114942,-0.0104962,-0.015638,0.00226807,503,499,-0.00566771,-0.095345,148.486,136.835,148.47,136.884,5.64248e-05,5.76992e-05,0.000193157
-0.827304,8.2493,-295.181,0.000191746,0.00252153,0.00132123,-6.96567e-06,8.07789e-05,6.54858e-05,0.00011573,-4.19171e-05,1.08053,0.000141427,-0.197689,1.55568,-3.04017,-0.0119884,-0.00625377,-0.0131198,0.00233343,510,499,-0.00782528,-0.0927185,150.189,137.557,150.171,137.605,5.97677e-05,5.89917e-05,0.000204198
-0.5316,8.23698,-295.112,0.00015173,0.00246336,0.00161466,7.55901e-06,8.57045e-05,7.56002e-05,0.000131732,-3.84686e-05,1.02391,0.000154599,-0.204146,1.51057,-3.17609,-0.0125316,-0.00157958,-0.0103328,0.00243824,517,499,-0.0108043,-0.089218,151.937,138.284,151.918,138.332,6.31632e-05,5.9131e-05,0.000215176
-0.235171,8.22463,-295.039,0.000137802,0.00245066,0.0017385,1.79425e-05,8.97421e-05,8.52203e-05,0.000146315,-3.86309e-05,0.984747,0.000168976,-0.223366,1.42615,-3.33257,-0.0138699,0.00394983,-0.0066682,0.0025099,524,499,-0.011967,-0.087309,153.733,139.013,153.713,139.062,6.52283e-05,5.79053e-05,0.000221522
0.0609817,8.21225,-294.967,0.000115884,0.00243346,0.00169879,2.73652e-05,9.20399e-05,9.53975e-05,0.000160432,-4.10268e-05,0.948808,0.000184401,-0.278729,1.37755,-3.42581,-0.0182624,0.00890895,-0.000976397,0.00257621,531,499,-0.0121579,-0.0848126,155.519,139.743,155.5,139.794,6.67249e-05,5.80263e-05,0.000226293
0.356616,8.19996,-294.895,0.000186875,0.00244516,0.00168482,3.44059e-05,9.28521e-05,0.000105434,0.000173038,-4.57802e-05,0.920589,0.000199899,-0.323571,1.35769,-3.38482,-0.0219655,0.0141707,0.00674094,0.00258448,538,499,-0.0102294,-0.0844309,157.286,140.469,157.265,140.52,6.6722e-05,5.98992e-05,0.000226532
0.651592,8.18775,-294.825,0.000287986,0.00254386,0.00150233,3.85293e-05,9.2807e-05,0.000114496,0.000183336,-5.20001e-05,0.901765,0.000214126,-0.329824,1.375,-3.22634,-0.0237709,0.0199679,0.0154205,0.00253935,545,499,-0.00646171,-0.087419,159.023,141.188,159.001,141.242,6.59967e-05,6.09902e-05,0.000224088
0.945511,8.1757,-294.758,0.000376278,0.00266924,0.00132609,3.77649e-05,9.21482e-05,0.000121118,0.000189089,-5.91759e-05,0.89582,0.000224602,-0.332668,1.37095,-3.02753,-0.0249149,0.0271342,0.0245588,0.00248524,552,499,-0.00310506,-0.0916455,160.706,141.896,160.682,141.953,6.51904e-05,6.08816e-05,0.000221056
1.23812,8.16356,-294.694,0.00043329,0.00279248,0.00120423,3.00414e-05,9.13148e-05,0.000123842,0.000188253,-6.6897e-05,0.906657,0.000229146,-0.348731,1.38492,-2.94418,-0.0271133,0.0365104,0.0331765,0.00247066,559,499,-0.000924033,-0.0957104,162.319,142.606,162.295,142.666,6.625e-05,6.00031e-05,0.000223828
1.52919,8.15161,-294.635,0.000476801,0.00284059,0.00106522,1.76388e-05,9.12556e-05,0.000122023,0.000181901,-7.30064e-05,0.931884,0.000227371,-0.346699,1.41667,-3.10113,-0.0319231,0.0488721,0.0399292,0.00254131,566,499,0.00110692,-0.0983581,163.849,143.305,163.824,143.365,6.95845e-05,5.99812e-05,0.000234243
1.81984,8.13936,-294.577,0.000502951,0.00283516,0.00106423,1.32054e-06,9.42124e-05,0.000118363,0.000174916,-7.93832e-05,0.972368,0.00022535,-0.328856,1.46331,-3.28745,-0.041828,0.0648417,0.0423365,0.00267048,573,499,0.0017919,-0.0994963,165.361,144.022,165.336,144.08,7.36402e-05,6.06149e-05,0.000246998
0,0,0,0,0,0,0,0,0,0,0,0,0,0,0,0,0,0,0,-1,580,499,0,0,0,0,0,0,0,0,0
0,0,0,0,0,0,0,0,0,0,0,0,0,0,0,0,0,0,0,-1,587,499,0,0,0,0,0,0,0,0,0
0,0,0,0,0,0,0,0,0,0,0,0,0,0,0,0,0,0,0,-1,594,499,0,0,0,0,0,0,0,0,0
0,0,0,0,0,0,0,0,0,0,0,0,0,0,0,0,0,0,0,-1,601,499,0,0,0,0,0,0,0,0,0
0,0,0,0,0,0,0,0,0,0,0,0,0,0,0,0,0,0,0,-1,62,506,0,0,0,0,0,0,0,0,0
0,0,0,0,0,0,0,0,0,0,0,0,0,0,0,0,0,0,0,-1,69,506,0,0,0,0,0,0,0,0,0
0,0,0,0,0,0,0,0,0,0,0,0,0,0,0,0,0,0,0,-1,76,506,0,0,0,0,0,0,0,0,0
-18.9125,8.73259,-298.134,0.000694976,0.00293122,-0.000208418,-8.06861e-05,3.25179e-05,3.23476e-07,3.25188e-05,-8.06871e-05,1.56794,0.000100954,-0.389926,1.50582,-3.31997,0.0502118,0.0288949,-0.00324577,0.00227741,83,506,0.0154842,-0.076319,48.7702,94.7478,48.7482,94.8322,5.7989e-05,5.84039e-05,0.000204211
-18.6305,8.7201,-298.145,0.000702596,0.00290848,-8.07459e-05,-7.54909e-05,3.11691e-05,1.27053e-05,3.26617e-05,-7.69835e-05,1.45386,9.75072e-05,-0.370282,1.51436,-3.24461,0.0317449,0.0274709,2.91002e-05,0.00225293,90,506,0.0146583,-0.0749071,49.6975,95.435,49.6744,95.5194,5.88259e-05,5.71583e-05,0.000206498
-18.3486,8.70779,-298.157,0.00070956,0.00288277,6.89482e-06,-5.39255e-05,2.69431e-05,2.93892e-05,3.64954e-05,-6.34778e-05,1.25654,8.76241e-05,-0.361814,1.52601,-3.35308,0.0220759,0.0260898,-0.000898221,0.00224361,97,506,0.0141508,-0.0735874,50.6122,96.1123,50.5884,96.1965,5.93591e-05,5.59721e-05,0.000208629
-18.0658,8.69588,-298.165,0.000645876,0.00284822,2.9192e-05,-2.80719e-05,1.99179e-05,4.66561e-05,4.83878e-05,-5.65417e-05,1.02291,9.0963e-05,-0.375594,1.53362,-3.41003,0.0213844,0.0245026,-0.00231555,0.00220577,104,506,0.0124599,-0.0722213,51.5662,96.7712,51.5441,96.8548,5.84884e-05,5.36796e-05,0.000206036
-17.7849,8.68422,-298.179,0.0005551,0.00284127,0.000100574,-1.44153e-06,1.08971e-05,6.28954e-05,6.7925e-05,-5.84695e-05,0.834286,0.000109563,-0.387939,1.55659,-3.52533,0.0263906,0.023389,-0.00263972,0.00219752,111,506,0.00968902,-0.0706157,52.4278,97.4113,52.4078,97.4959,5.85184e-05,5.23979e-05,0.000206627
-17.5039,8.67248,-298.193,0.000508168,0.00288532,0.000436433,2.42424e-05,8.55314e-07,7.76096e-05,9.10344e-05,-6.59367e-05,0.710625,0.000136519,-0.392004,1.59159,-3.62079,0.0330301,0.0231155,-0.00241967,0.00225287,118,506,0.00578085,-0.0704205,53.2865,98.0543,53.2653,98.1412,6.01663e-05,5.32821e-05,0.000211868
-17.2209,8.66046,-298.2,0.000521803,0.00294129,0.000945686,4.75075e-05,-9.39977e-06,9.01447e-05,0.000113583,-7.54748e-05,0.632525,0.000164833,-0.400099,1.5978,-3.72623,0.039674,0.0235336,-0.00213357,0.00231749,125,506,0.00193992,-0.0709687,54.2453,98.7158,54.2202,98.8047,6.20317e-05,5.56663e-05,0.000217371
-16.9352,8.64849,-298.199,0.000617973,0.00297538,0.00150408,6.65537e-05,-1.93395e-05,9.92876e-05,0.000131785,-8.45707e-05,0.581275,0.000188851,-0.385863,1.55072,-3.6163,0.0464876,0.0240862,-0.00173807,0.00234163,132,506,-0.000248016,-0.0719538,55.333,99.3816,55.3012,99.4711,6.27475e-05,5.69667e-05,0.000219366
-16.6477,8.63636,-298.192,0.000709625,0.00299677,0.00184129,8.14317e-05,-2.81337e-05,0.000104525,0.00014466,-9.13622e-05,0.544024,0.000206131,-0.36552,1.46224,-3.45265,0.0515531,0.0240934,-0.00122326,0.00232391,139,506,-0.000725663,-0.0729836,56.5057,100.06,56.469,100.149,6.22425e-05,5.66995e-05,0.000217303
-16.3586,8.62411,-298.18,0.000746738,0.00303292,0.00201334,9.45224e-05,-3.62395e-05,0.000106346,0.000153978,-9.5695e-05,0.509785,0.000218178,-0.321395,1.39341,-3.28475,0.054435,0.0236257,-0.00125055,0.00225317,146,506,-0.00119734,-0.0736214,57.752,100.746,57.713,100.837,5.98605e-05,5.51767e-05,0.000209287
-16.0687,8.61181,-298.165,0.000762184,0.00307735,0.00214008,0.000104321,-4.32669e-05,0.000104613,0.000158548,-9.74943e-05,0.478229,0.000223831,-0.279235,1.37998,-3.20701,0.0543001,0.0232219,-0.00196964,0.00214783,153,506,-0.00183987,-0.0746128,59.0326,101.436,58.9922,101.528,5.67339e-05,5.33717e-05,0.000197878
-15.7781,8.59945,-298.148,0.000777016,0.00313712,0.00238491,0.000107826,-4.91897e-05,9.90548e-05,0.000155712,-9.70754e-05,0.450301,0.000220875,-0.23538,1.40351,-3.23329,0.0509846,0.0227887,-0.00328109,0.00205979,160,506,-0.00346134,-0.0762455,60.3447,102.131,60.302,102.224,5.43049e-05,5.2275e-05,0.000189314
-15.4871,8.58717,-298.129,0.000753174,0.00320559,0.00264615,0.000103577,-5.39192e-05,8.93996e-05,0.000143966,-9.43078e-05,0.424329,0.000207839,-0.23503,1.443,-3.42625,0.0439198,0.0220601,-0.00472159,0.00204078,167,506,-0.00618027,-0.0791531,61.6797,102.823,61.6359,102.917,5.33505e-05,5.26414e-05,0.000185488
-15.1959,8.57512,-298.109,0.000707462,0.00329377,0.0029658,9.36239e-05,-5.75548e-05,7.60341e-05,0.000125249,-8.91799e-05,0.394166,0.000186575,-0.238878,1.46367,-3.49406,0.0338335,0.020923,-0.00570037,0.00205681,174,506,-0.00991449,-0.0825007,63.0181,103.503,62.9733,103.599,5.41678e-05,5.32993e-05,0.000187928
-14.9037,8.56316,-298.086,0.000683343,0.00334729,0.00333711,8.05648e-05,-6.07497e-05,6.09286e-05,0.000103207,-8.33916e-05,0.355799,0.000161902,-0.247858,1.47679,-3.50312,0.0216986,0.0195433,-0.00590192,0.00207786,181,506,-0.0134771,-0.0847101,64.4093,104.181,64.3624,104.277,5.51255e-05,5.37286e-05,0.000191443
-14.6095,8.55098,-298.056,0.000660125,0.00337694,0.00367985,6.7859e-05,-6.40518e-05,4.62832e-05,8.2478e-05,-7.86709e-05,0.305945,0.000139572,-0.207578,1.46075,-3.35444,0.00797141,0.0184791,-0.00506932,0.0021026,188,506,-0.0167393,-0.0855725,65.8981,104.875,65.8493,104.972,5.516e-05,5.43709e-05,0.000191839
-14.3126,8.53845,-298.016,0.000669121,0.0033838,0.00410173,5.66155e-05,-6.83009e-05,3.30383e-05,6.48153e-05,-7.65007e-05,0.243276,0.000122523,-0.209039,1.42647,-3.35605,-0.00575214,0.0180129,-0.00338651,0.00214792,195,506,-0.019803,-0.0860136,67.5225,105.594,67.4704,105.69,5.50865e-05,5.54762e-05,0.000191592
-14.0138,8.52562,-297.971,0.000693238,0.00342597,0.00444492,4.66635e-05,-7.38003e-05,2.1428e-05,5.03615e-05,-7.74984e-05,0.170897,0.000111558,-0.237393,1.40391,-3.3788,-0.0193407,0.0181431,-0.0009818,0.0022015,202,506,-0.0218867,-0.0868347,69.2422,106.331,69.1869,106.429,5.56714e-05,5.69777e-05,0.000193109
-13.7147,8.51291,-297.924,0.000728076,0.00346124,0.00470039,3.68969e-05,-8.06664e-05,1.09492e-05,3.79079e-05,-8.16775e-05,0.0920796,0.000105851,-0.277064,1.37562,-3.43375,-0.032518,0.0184524,0.00178628,0.00222914,209,506,-0.0230012,-0.0880281,70.98,107.063,70.9218,107.162,5.73764e-05,5.77834e-05,0.000198292
-13.4144,8.50049,-297.872,0.00071696,0.00345085,0.00481919,2.79681e-05,-8.8691e-05,7.88423e-07,2.79735e-05,-8.86963e-05,0.00675794,0.000105502,-0.318595,1.37897,-3.36752,-0.0438538,0.0187984,0.00524581,0.00223834,216,506,-0.0241195,-0.0886425,72.7761,107.785,72.7173,107.882,5.82981e-05,5.76997e-05,0.000200867
-13.1139,8.48826,-297.82,0.000670223,0.00338171,0.00497281,2.24399e-05,-9.75406e-05,-9.35654e-06,2.31652e-05,-9.82658e-05,-0.0773606,0.000111665,-0.375003,1.41324,-3.25349,-0.0521017,0.0193232,0.00936153,0.00222638,223,506,-0.026328,-0.0881921,74.5809,108.5,74.5223,108.594,5.81232e-05,5.68885e-05,0.000200329
-12.8132,8.47613,-297.766,0.000621731,0.00330185,0.00506282,1.95274e-05,-0.000106111,-1.9517e-05,2.24894e-05,-0.000109073,-0.150615,0.000121884,-0.414022,1.45209,-3.08546,-0.0560702,0.0200246,0.0135932,0.00218407,230,506,-0.0280602,-0.0871743,76.4044,109.211,76.3466,109.301,5.63557e-05,5.59266e-05,0.000194716
-12.5131,8.4637,-297.714,0.000593858,0.00326433,0.00502716,1.9147e-05,-0.000113133,-2.97623e-05,2.55348e-05,-0.000119521,-0.211423,0.000134124,-0.419823,1.48161,-2.90358,-0.0566247,0.0208539,0.0167329,0.00215636,237,506,-0.0283347,-0.0866237,78.1909,109.934,78.134,110.023,5.53123e-05,5.51351e-05,0.000191682
-12.2157,8.45107,-297.669,0.000599816,0.00329811,0.00489628,1.9963e-05,-0.000117791,-4.04544e-05,3.09647e-05,-0.000128793,-0.265531,0.000146746,-0.381168,1.50322,-2.78883,-0.0537076,0.0213024,0.0179975,0.0021624,244,506,-0.0271044,-0.0875425,79.8472,110.66,79.791,110.75,5.61505e-05,5.48363e-05,0.000194656
-11.9214,8.43877,-297.633,0.00061321,0.00333683,0.00457978,2.13074e-05,-0.000120663,-5.19005e-05,3.82572e-05,-0.000137613,-0.315662,0.000160205,-0.335931,1.54434,-2.81004,-0.0476919,0.0215779,0.0185078,0.00219112,251,506,-0.0242488,-0.0882829,81.3461,111.361,81.2916,111.453,5.78133e-05,5.46337e-05,0.000199975
-11.628,8.42669,-297.6,0.000653319,0.00336138,0.00439885,2.45997e-05,-0.000121992,-6.52581e-05,4.9441e-05,-0.000146833,-0.363727,0.000176816,-0.346523,1.56819,-2.9314,-0.0395387,0.0200034,0.0187069,0.00215068,258,506,-0.0217873,-0.0889809,82.7974,112.051,82.743,112.143,5.74796e-05,5.39303e-05,0.000198933
-11.3339,8.41443,-297.564,0.000664481,0.00335869,0.00437033,2.7147e-05,-0.000122122,-8.03274e-05,6.21611e-05,-0.000157136,-0.41106,0.000195764,-0.389622,1.5645,-3.102,-0.0307808,0.0174283,0.0186905,0.00204019,265,506,-0.0212177,-0.0901603,84.2888,112.753,84.2343,112.844,5.42181e-05,5.22117e-05,0.000187984
-11.0377,8.40205,-297.521,0.000655227,0.00333809,0.00437333,2.43804e-05,-0.00012121,-9.68623e-05,7.27521e-05,-0.000169582,-0.463157,0.00021538,-0.456249,1.52858,-3.14686,-0.0219816,0.0141545,0.0172931,0.00197766,272,506,-0.0213826,-0.091145,85.8901,113.468,85.8358,113.557,5.08043e-05,5.06094e-05,0.000176731
-10.7382,8.38942,-297.466,0.000643583,0.00328949,0.00432875,1.60733e-05,-0.000119842,-0.000113144,8.00995e-05,-0.000183868,-0.514956,0.000234417,-0.486753,1.50726,-3.0601,-0.012365,0.0105491,0.0151213,0.00197617,279,506,-0.0211965,-0.0905738,87.6575,114.202,87.6039,114.29,5.07651e-05,5.09798e-05,0.000175978
-10.4385,8.37684,-297.41,0.000652736,0.00319439,0.00421589,5.55116e-06,-0.00011842,-0.000128007,8.57905e-05,-0.00019866,-0.559919,0.000252723,-0.461301,1.48568,-2.86174,-0.00112541,0.0066534,0.0136385,0.00199896,286,506,-0.0199424,-0.0902387,89.4443,114.938,89.3914,115.021,5.19805e-05,5.11225e-05,0.00017958
-10.1393,8.36454,-297.355,0.000726021,0.00312564,0.00417636,-5.7821e-06,-0.000116548,-0.000140423,8.97844e-05,-0.000212115,-0.597562,0.000268512,-0.430619,1.45331,-2.71295,0.0100245,0.0028216,0.0131162,0.00204462,293,506,-0.0176866,-0.0900544,91.2072,115.658,91.1526,115.737,5.36822e-05,5.23921e-05,0.000185403
-9.83932,8.35207,-297.297,0.000798552,0.00307658,0.00410439,-1.80524e-05,-0.000114689,-0.000151705,9.28434e-05,-0.000225585,-0.631227,0.000283642,-0.390554,1.43048,-2.62026,0.0196079,-0.000686399,0.0141087,0.00210839,300,506,-0.0152118,-0.0897124,93.0138,116.387,92.9577,116.464,5.5274e-05,5.40482e-05,0.000190667
-9.53512,8.34007,-297.225,0.000881792,0.00309281,0.00415575,-3.20392e-05,-0.000111477,-0.000160368,9.3455e-05,-0.000236971,-0.664004,0.000295017,-0.385483,1.45172,-2.63333,0.027546,-0.0040025,0.0150088,0.00212028,307,506,-0.0134737,-0.0901806,95.0475,117.1,94.9886,117.177,5.53639e-05,5.43844e-05,0.000190714
-9.22129,8.32768,-297.12,0.00088503,0.00306564,0.00403083,-4.63863e-05,-0.000107657,-0.000165905,9.16883e-05,-0.000245731,-0.694099,0.000302194,-0.401865,1.52656,-2.79005,0.0356494,-0.006947,0.0163177,0.00211757,314,506,-0.0123335,-0.0900077,97.5866,117.856,97.5285,117.933,5.44138e-05,5.46747e-05,0.000186722
-8.89987,8.31479,-296.99,0.000815979,0.00294415,0.00372273,-6.01734e-05,-0.000102755,-0.000168087,8.79659e-05,-0.000250894,-0.722402,0.000304559,-0.411972,1.55191,-2.86743,0.0440149,-0.00964155,0.0179142,0.00215011,321,506,-0.0115029,-0.0878565,100.529,118.661,100.475,118.734,5.3341e-05,5.53864e-05,0.000183418
-8.576,8.30139,-296.85,0.000822899,0.00281965,0.00329642,-7.49204e-05,-9.61475e-05,-0.000167254,8.20565e-05,-0.000253124,-0.753712,0.000302615,-0.41086,1.5303,-2.85684,0.0509157,-0.0124975,0.0192978,0.00246297,328,506,-0.00790929,-0.0866156,103.612,119.5,103.561,119.567,5.79839e-05,6.35647e-05,0.000200096
-8.25636,8.2884,-296.723,0.000854609,0.00281661,0.0031281,-8.87309e-05,-8.79109e-05,-0.000164794,7.64738e-05,-0.000253116,-0.786642,0.000298785,-0.40671,1.51661,-2.81752,0.055711,-0.015555,0.0196251,0.0026837,335,506,-0.00579756,-0.0882391,106.486,120.305,106.436,120.371,6.4052e-05,6.93507e-05,0.000221009
-7.94209,8.27242,-296.612,0.000914919,0.00287177,0.00310997,-0.000100636,-7.85121e-05,-0.000161498,7.23022e-05,-0.00025145,-0.819592,0.000294338,-0.398434,1.51378,-2.78446,0.0602269,-0.0184827,0.018168,0.0025594,342,506,-0.00417535,-0.0911949,109.082,121.253,109.03,121.32,6.30771e-05,6.50679e-05,0.000218186
0,0,0,0,0,0,0,0,0,0,0,0,0,0,0,0,0,0,0,-1,349,506,0,0,0,0,0,0,0,0,0
-7.42847,8.2551,-296.77,0.0010056,0.00292538,0.00295651,-0.000125165,-5.55125e-05,-0.000152666,6.62494e-05,-0.000246927,-0.897539,0.000285868,-0.380984,1.55246,-2.8864,0.0707902,-0.0228282,0.0123631,0.00222343,356,506,-0.000718754,-0.0950859,108.188,122.114,108.135,122.18,5.77906e-05,5.24886e-05,0.000200705
-7.13695,8.24266,-296.733,0.000918971,0.0028728,0.00286339,-0.000137863,-4.23687e-05,-0.000146768,6.42237e-05,-0.000244456,-0.942661,0.000282105,-0.370259,1.55779,-2.99269,0.0747556,-0.0239609,0.00838444,0.00211153,363,506,-0.00205622,-0.0938179,109.576,122.826,109.526,122.89,5.49735e-05,5.00362e-05,0.000190798
-6.84035,8.23019,-296.679,0.000849081,0.00282072,0.00294546,-0.000148087,-2.93259e-05,-0.000139643,6.30372e-05,-0.00024045,-0.986432,0.000277394,-0.340255,1.55147,-3.05635,0.0768911,-0.0246724,0.00295078,0.00203288,370,506,-0.00428011,-0.0916846,111.241,123.551,111.192,123.614,5.34411e-05,4.9564e-05,0.000184897
-6.54209,8.21747,-296.618,0.000806062,0.00281071,0.00297479,-0.000156034,-1.72808e-05,-0.000131603,6.2113e-05,-0.000235427,-1.02797,0.000271859,-0.302665,1.58014,-3.0973,0.0766974,-0.0247172,-0.00271889,0.00200745,377,506,-0.00549415,-0.0912254,112.999,124.293,112.951,124.356,5.3626e-05,5.00029e-05,0.000185215
-6.24172,8.20435,-296.549,0.000734128,0.00281499,0.00288011,-0.000166022,-6.27416e-06,-0.000124017,6.13645e-05,-0.000233661,-1.07149,0.000269632,-0.255425,1.62253,-3.04179,0.0719805,-0.0240644,-0.00851763,0.00200935,384,506,-0.00655095,-0.0929472,114.874,125.063,114.828,125.124,5.28827e-05,5.03271e-05,0.000182348
-5.93863,8.19175,-296.471,0.00067874,0.00280009,0.00275515,-0.000181089,3.30157e-06,-0.000116843,5.99427e-05,-0.000237731,-1.11941,0.000272689,-0.221848,1.64202,-2.97011,0.0621222,-0.0222119,-0.0147476,0.00202499,391,506,-0.00695993,-0.0945832,116.902,125.813,116.859,125.873,5.16344e-05,5.08655e-05,0.00017784
-5.63064,8.1795,-296.375,0.000666695,0.00274654,0.00260489,-0.000197566,1.08558e-05,-0.000109667,5.79285e-05,-0.000244639,-1.16535,0.000278165,-0.175917,1.59629,-2.7828,0.0491992,-0.0202886,-0.0213342,0.00204353,398,506,-0.00605438,-0.0948334,119.205,126.56,119.164,126.616,5.10386e-05,5.10439e-05,0.000175585
-5.32002,8.16665,-296.269,0.000667328,0.00266564,0.00237913,-0.000209914,1.65224e-05,-0.000100952,5.49938e-05,-0.000248385,-1.2067,0.000279963,-0.159895,1.5638,-2.64454,0.033313,-0.018603,-0.028422,0.00202709,405,506,-0.00423986,-0.0938509,121.658,127.345,121.619,127.398,5.1814e-05,5.02066e-05,0.000178303
-5.0098,8.15448,-296.164,0.000658705,0.00260017,0.00223655,-0.000218567,2.07346e-05,-9.08863e-05,5.13391e-05,-0.000249171,-1.24599,0.000278414,-0.168182,1.5969,-2.48366,0.0169331,-0.0173631,-0.0336965,0.00200941,412,506,-0.00328139,-0.0923279,124.101,128.093,124.063,128.144,5.24376e-05,4.97064e-05,0.000180737
-4.70325,8.14266,-296.07,0.000631024,0.00256759,0.00208477,-0.000224056,2.44832e-05,-8.03031e-05,4.81715e-05,-0.000247744,-1.28395,0.000275012,-0.201298,1.6073,-2.381,0.00077374,-0.0169013,-0.0370744,0.00201758,419,506,-0.00278644,-0.0924156,126.352,128.814,126.316,128.864,5.31295e-05,5.01064e-05,0.000183236
-4.4015,8.13049,-295.991,0.000594555,0.00253773,0.00204901,-0.000226591,2.83596e-05,-6.94302e-05,4.60411e-05,-0.000244272,-1.32143,0.00027025,-0.239765,1.56869,-2.35568,-0.0131133,-0.0173579,-0.0389818,0.0020198,426,506,-0.00338389,-0.093248,128.347,129.544,128.313,129.591,5.37712e-05,5.07488e-05,0.000185466
-4.10464,8.11835,-295.928,0.000523035,0.00250568,0.00206332,-0.000224593,3.21833e-05,-5.85297e-05,4.48953e-05,-0.000237305,-1.35693,0.000262646,-0.275627,1.50624,-2.36503,-0.0241241,-0.0184639,-0.0399628,0.00202064,433,506,-0.0052165,-0.0932464,130.08,130.259,130.048,130.305,5.35965e-05,5.03586e-05,0.000184907
-3.80905,8.10609,-295.869,0.000442946,0.00245735,0.0020735,-0.000218537,3.55745e-05,-4.7403e-05,4.41293e-05,-0.000227091,-1.39225,0.00025207,-0.287033,1.45266,-2.46139,-0.0328282,-0.0198595,-0.0394288,0.00205786,440,506,-0.00721921,-0.0929194,131.747,130.978,131.716,131.022,5.39403e-05,5.10951e-05,0.000186111
-3.51409,8.09372,-295.811,0.000368393,0.00242976,0.00198653,-0.000210298,3.88294e-05,-3.63881e-05,4.40356e-05,-0.000215504,-1.42869,0.000240564,-0.275788,1.43846,-2.61905,-0.0385972,-0.0213742,-0.0370803,0.00212305,447,506,-0.00839107,-0.0925857,133.383,131.702,133.356,131.744,5.52401e-05,5.2783e-05,0.000190531
-3.21903,8.08139,-295.752,0.000300375,0.0024044,0.0018249,-0.000196999,4.18858e-05,-2.62998e-05,4.4747e-05,-0.00019986,-1.46243,0.000225587,-0.27025,1.42503,-2.94355,-0.0404842,-0.0227704,-0.0344109,0.00217431,454,506,-0.00886614,-0.0924924,135.029,132.423,135.005,132.465,5.64803e-05,5.52524e-05,0.00019452
-2.92269,8.06928,-295.688,0.000245477,0.00240208,0.00160013,-0.000178083,4.50682e-05,-1.67054e-05,4.63118e-05,-0.000179327,-1.49649,0.000206417,-0.30357,1.41681,-3.15125,-0.0388028,-0.0233711,-0.0324439,0.0022472,461,506,-0.00857716,-0.0923953,136.753,133.137,136.732,133.178,5.78421e-05,5.69572e-05,0.000198763
-2.62468,8.05706,-295.617,0.000206112,0.00246668,0.00134695,-0.000155939,4.92894e-05,-6.6276e-06,4.95032e-05,-0.000156153,-1.53855,0.000185915,-0.337619,1.42901,-3.30788,-0.0350897,-0.0228109,-0.0310007,0.0023221,468,506,-0.0077755,-0.0940089,138.578,133.859,138.56,133.903,5.93217e-05,5.79495e-05,0.000203555
-2.32493,8.04469,-295.539,0.000218749,0.00253984,0.00113164,-0.000133002,5.44028e-05,3.82263e-06,5.44807e-05,-0.00013308,1.55041,0.000167119,-0.377486,1.47782,-3.23318,-0.0318215,-0.0213674,-0.0293113,0.00231054,475,506,-0.00594125,-0.094861,140.508,134.593,140.491,134.64,5.91557e-05,5.8488e-05,0.00020295
-2.02481,8.03229,-295.459,0.0002706,0.0025752,0.0010443,-0.000109466,6.01406e-05,1.42351e-05,6.1327e-05,-0.000110652,1.48764,0.000150967,-0.407242,1.52757,-3.09901,-0.0285081,-0.0192983,-0.0270588,0.00227918,482,506,-0.00401965,-0.095717,142.469,135.332,142.451,135.38,5.77342e-05,5.77679e-05,0.000198141
-1.7255,8.02006,-295.38,0.000298601,0.00259706,0.00104947,-8.50017e-05,6.56096e-05,2.51707e-05,6.97049e-05,-8.90969e-05,1.40951,0.000137868,-0.388775,1.54173,-2.96621,-0.0239066,-0.016642,-0.0245597,0.00225238,489,506,-0.00336151,-0.0968927,144.392,136.063,144.374,136.111,5.50556e-05,5.66946e-05,0.000188952
-1.42801,8.00779,-295.308,0.000287122,0.00257403,0.000917567,-5.95978e-05,7.10309e-05,3.65746e-05,8.05742e-05,-6.91411e-05,1.31556,0.000129783,-0.336066,1.56076,-2.91794,-0.0195108,-0.0134112,-0.0225592,0.00225771,496,506,-0.00266835,-0.0970166,146.218,136.793,146.201,136.84,5.44168e-05,5.67003e-05,0.000186742
-1.13286,7.99565,-295.242,0.000178465,0.00255067,0.000941465,-3.59492e-05,7.64921e-05,4.84743e-05,9.45043e-05,-5.39615e-05,1.21502,0.000130163,-0.267838,1.56448,-2.98877,-0.0173013,-0.00974925,-0.0204808,0.00231652,503,506,-0.00552582,-0.0954885,147.916,137.509,147.902,137.556,5.64993e-05,5.83775e-05,0.000193759
-0.838429,7.98342,-295.179,9.57678e-05,0.00249917,0.00117005,-1.6675e-05,8.21999e-05,6.04788e-05,0.000110876,-4.53513e-05,1.12804,0.000139207,-0.234341,1.54627,-3.1361,-0.0176163,-0.00599111,-0.0177398,0.00238713,510,506,-0.00915451,-0.0929983,149.583,138.229,149.569,138.276,6.05053e-05,6.03255e-05,0.000207056
-0.543491,7.97122,-295.112,3.41502e-05,0.00246018,0.00142198,-9.02317e-07,8.75987e-05,7.23418e-05,0.000128151,-4.14542e-05,1.05988,0.000153145,-0.237992,1.51488,-3.21489,-0.0184646,-0.00215033,-0.0147978,0.00246874,517,506,-0.0124182,-0.0904284,151.286,138.949,151.272,138.996,6.40186e-05,6.08322e-05,0.00021858
-0.247994,7.95895,-295.043,3.00866e-05,0.002475,0.0015824,1.0956e-05,9.18527e-05,8.38389e-05,0.000144491,-4.16818e-05,1.01015,0.000169226,-0.249378,1.42918,-3.28434,-0.0201364,0.00234199,-0.0112084,0.00253484,524,506,-0.0136289,-0.0893214,153.029,139.674,153.013,139.723,6.60698e-05,5.97738e-05,0.000224898
0.0472915,7.94684,-294.973,5.67031e-05,0.00247084,0.00161686,2.1317e-05,9.43035e-05,9.59614e-05,0.000160476,-4.4856e-05,0.967099,0.000186984,-0.284526,1.37051,-3.31373,-0.0238349,0.00581282,-0.00570845,0.0025735,531,506,-0.0131373,-0.0873525,154.768,140.391,154.751,140.441,6.6785e-05,5.94159e-05,0.000226895
0.342258,7.93481,-294.904,0.000138195,0.00248391,0.00154494,2.85068e-05,9.5542e-05,0.000107528,0.000174655,-5.0606e-05,0.936481,0.000204704,-0.319377,1.35139,-3.30145,-0.0264875,0.009561,0.00167749,0.00258127,538,506,-0.010541,-0.0872434,156.496,141.104,156.478,141.154,6.63616e-05,6.04294e-05,0.000225461
0.636433,7.92278,-294.837,0.000264355,0.00254079,0.00132881,3.26495e-05,9.62701e-05,0.00011772,0.000186402,-5.74821e-05,0.917357,0.000220827,-0.332364,1.35807,-3.24313,-0.027502,0.0141434,0.00982159,0.00252898,545,506,-0.00585335,-0.0889191,158.186,141.815,158.166,141.867,6.52478e-05,6.05933e-05,0.000221531
0.929837,7.91074,-294.772,0.000347739,0.00264265,0.00119391,3.23021e-05,9.67005e-05,0.000125061,0.000193641,-6.4638e-05,0.911396,0.00023279,-0.353487,1.35635,-3.03655,-0.0283403,0.0206489,0.018096,0.0024855,552,506,-0.00288488,-0.0922714,159.838,142.524,159.817,142.579,6.50783e-05,6.00241e-05,0.000220692
1.22231,7.89873,-294.709,0.000382501,0.00274212,0.0010886,2.52972e-05,9.71937e-05,0.000127858,0.000194061,-7.157e-05,0.922439,0.000238056,-0.383719,1.37379,-2.89022,-0.0306414,0.0302016,0.0255386,0.00247863,559,506,-0.0013607,-0.0956658,161.443,143.23,161.421,143.287,6.65524e-05,5.91342e-05,0.00022504
1.51345,7.88687,-294.65,0.000427512,0.00278041,0.00106317,1.39598e-05,9.84938e-05,0.000125103,0.000188277,-7.58236e-05,0.948306,0.000235528,-0.404131,1.40603,-2.99443,-0.0363771,0.0438063,0.0309159,0.00254614,566,506,-6.72086e-05,-0.0974029,162.977,143.927,162.954,143.985,6.953e-05,5.81971e-05,0.000234493
1.80515,7.87499,-294.588,0.000467283,0.00279711,0.00106065,4.56386e-07,0.000102245,0.000119298,0.000181051,-7.83501e-05,0.987016,0.000230442,-0.369937,1.42172,-3.18726,-0.0496682,0.0617834,0.0320227,0.00266103,573,506,0.000955815,-0.0987255,164.551,144.628,164.528,144.685,7.30719e-05,5.89581e-05,0.000245596
0,0,0,0,0,0,0,0,0,0,0,0,0,0,0,0,0,0,0,-1,580,506,0,0,0,0,0,0,0,0,0
0,0,0,0,0,0,0,0,0,0,0,0,0,0,0,0,0,0,0,-1,587,506,0,0,0,0,0,0,0,0,0
0,0,0,0,0,0,0,0,0,0,0,0,0,0,0,0,0,0,0,-1,594,506,0,0,0,0,0,0,0,0,0
0,0,0,0,0,0,0,0,0,0,0,0,0,0,0,0,0,0,0,-1,601,506,0,0,0,0,0,0,0,0,0
0,0,0,0,0,0,0,0,0,0,0,0,0,0,0,0,0,0,0,-1,62,513,0,0,0,0,0,0,0,0,0
0,0,0,0,0,0,0,0,0,0,0,0,0,0,0,0,0,0,0,-1,69,513,0,0,0,0,0,0,0,0,0
0,0,0,0,0,0,0,0,0,0,0,0,0,0,0,0,0,0,0,-1,76,513,0,0,0,0,0,0,0,0,0
-18.9219,8.46025,-298.125,0.000700156,0.00293435,-0.000207371,-8.80314e-05,3.9201e-05,4.67792e-06,3.93727e-05,-8.82032e-05,1.5341,0.000113149,-0.37589,1.45639,-3.37618,0.0348803,0.0369922,-0.00853086,0.00222447,83,513,0.015636,-0.0742307,48.2215,95.676,48.1993,95.7625,5.75031e-05,5.70809e-05,0.000202153
-18.6387,8.44796,-298.133,0.000703793,0.00290356,-0.000165479,-8.34602e-05,3.64217e-05,1.76451e-05,3.89649e-05,-8.60034e-05,1.42765,0.000110752,-0.37473,1.45146,-3.3573,0.0189607,0.0352467,-0.00464727,0.00220875,90,513,0.0154184,-0.0731881,49.207,96.3542,49.1844,96.44,5.74136e-05,5.66227e-05,0.000201187
-18.3557,8.43583,-298.142,0.00068591,0.00288544,-0.000190522,-6.15646e-05,3.16744e-05,3.50495e-05,4.33802e-05,-7.32704e-05,1.24846,0.000102122,-0.379613,1.46573,-3.49056,0.0115982,0.0332515,-0.00491441,0.00218668,97,513,0.0152123,-0.0724175,50.1752,97.0228,50.1533,97.1083,5.7453e-05,5.55745e-05,0.000201546
-18.0732,8.424,-298.151,0.000617841,0.00284634,-0.000176476,-3.51738e-05,2.48205e-05,5.28507e-05,5.55936e-05,-6.59469e-05,1.04352,0.000105384,-0.411318,1.4985,-3.55347,0.0125276,0.0308736,-0.00581339,0.00217725,104,513,0.0134714,-0.0716447,51.1155,97.6759,51.0955,97.7601,5.7241e-05,5.43047e-05,0.000201309
-17.7932,8.41238,-298.168,0.000521026,0.00281838,-2.72261e-05,-7.63095e-06,1.64052e-05,6.924e-05,7.46624e-05,-6.58881e-05,0.871328,0.000121799,-0.441311,1.53984,-3.6819,0.0189649,0.028868,-0.00576468,0.00220291,111,513,0.00992135,-0.0703623,51.9355,98.3124,51.9172,98.3961,5.8433e-05,5.32953e-05,0.000205915
-17.5132,8.40081,-298.184,0.000475586,0.00285936,0.000377204,1.94938e-05,7.20751e-06,8.37279e-05,9.73036e-05,-7.06023e-05,0.748779,0.000146022,-0.453529,1.59084,-3.78614,0.0273629,0.0276716,-0.00511161,0.00226777,118,513,0.00548584,-0.0704126,52.7457,98.943,52.7259,99.0285,6.05747e-05,5.38777e-05,0.000212774
-17.2311,8.38891,-298.194,0.000519425,0.00294019,0.000920553,4.47893e-05,-2.10985e-06,9.57783e-05,0.000119947,-7.72674e-05,0.665344,0.000172121,-0.432214,1.57892,-3.8461,0.0360128,0.0271674,-0.00425061,0.00229824,125,513,0.00207881,-0.0715765,53.6638,99.5947,53.6389,99.683,6.15694e-05,5.55906e-05,0.000215516
-16.9465,8.37703,-298.197,0.000613343,0.00301287,0.00142351,6.62336e-05,-1.11708e-05,0.000104241,0.000138725,-8.36625e-05,0.607647,0.000194551,-0.401438,1.51367,-3.7227,0.044523,0.0268051,-0.00313212,0.00229949,132,513,0.000241011,-0.0736316,54.696,100.251,54.6649,100.341,6.1603e-05,5.6637e-05,0.000215305
-16.6603,8.36494,-298.194,0.00070823,0.00307963,0.00170135,8.3305e-05,-1.93033e-05,0.000108809,0.000152299,-8.82969e-05,0.565101,0.000210805,-0.377196,1.42362,-3.56855,0.0507108,0.0259101,-0.00178032,0.00226164,139,513,0.000274092,-0.0756586,55.8063,100.922,55.7705,101.013,6.05162e-05,5.63892e-05,0.000211718
-16.3723,8.35266,-298.185,0.000741141,0.00314766,0.00185702,9.87672e-05,-2.65972e-05,0.000109946,0.000162644,-9.04743e-05,0.52632,0.000222157,-0.325438,1.37936,-3.34117,0.0546291,0.024608,-0.00113072,0.00222213,146,513,-0.000209323,-0.0773095,56.9957,101.606,56.9578,101.699,5.8955e-05,5.54494e-05,0.000206282
-16.0828,8.34055,-298.172,0.00074801,0.00318013,0.00202153,0.00011086,-3.27286e-05,0.000107734,0.00016853,-9.03987e-05,0.491488,0.000227617,-0.271945,1.38387,-3.18708,0.0556196,0.0234736,-0.00133464,0.00217429,153,513,-0.00135374,-0.0778204,58.2584,102.285,58.2192,102.38,5.7276e-05,5.43299e-05,0.00019991
-15.7924,8.32827,-298.155,0.000772447,0.00320537,0.00236132,0.000116287,-3.77782e-05,0.000101999,0.000167074,-8.85651e-05,0.461979,0.000224843,-0.228318,1.41908,-3.19099,0.0532461,0.0224003,-0.0021441,0.00212205,160,513,-0.0034588,-0.0780408,59.5669,102.975,59.5245,103.071,5.60777e-05,5.32575e-05,0.000195571
-15.5005,8.31603,-298.133,0.000754783,0.00323335,0.00268706,0.000113584,-4.18362e-05,9.23655e-05,0.000156582,-8.48332e-05,0.435677,0.000212127,-0.242921,1.45969,-3.45155,0.0467319,0.0211154,-0.00310588,0.00209125,167,513,-0.00649206,-0.0794731,60.9438,103.668,60.8996,103.763,5.54476e-05,5.29996e-05,0.000192926
-15.2081,8.30384,-298.109,0.000713807,0.00330294,0.00304823,0.00010483,-4.51643e-05,7.93856e-05,0.000139042,-7.93764e-05,0.406909,0.000191494,-0.252193,1.46757,-3.57097,0.0367713,0.0195979,-0.00379364,0.00210505,174,513,-0.0104174,-0.0821454,62.3408,104.358,62.2952,104.454,5.6334e-05,5.29772e-05,0.000195663
-14.9142,8.29179,-298.081,0.000686601,0.00338332,0.00349042,9.28277e-05,-4.85367e-05,6.50496e-05,0.000118205,-7.3914e-05,0.371962,0.000167847,-0.233657,1.47183,-3.53963,0.0243441,0.0179073,-0.00403701,0.00213514,181,513,-0.014645,-0.0847763,63.8194,105.043,63.7713,105.141,5.74432e-05,5.33883e-05,0.0001993
-14.6183,8.27938,-298.045,0.000667992,0.0034322,0.0038789,8.11766e-05,-5.23337e-05,5.13909e-05,9.86668e-05,-6.98238e-05,0.32804,0.000146628,-0.198556,1.46107,-3.41568,0.0101706,0.01658,-0.00355338,0.00213055,188,513,-0.0181722,-0.0858522,65.392,105.753,65.3415,105.852,5.73192e-05,5.40596e-05,0.00019884
-14.3198,8.26679,-298.001,0.000670636,0.00344126,0.00436288,7.0787e-05,-5.71902e-05,3.92307e-05,8.18556e-05,-6.82588e-05,0.274994,0.000130181,-0.20219,1.43525,-3.39555,-0.004244,0.0159185,-0.00222881,0.00213706,195,513,-0.0218785,-0.085969,67.0996,106.479,67.0455,106.578,5.64932e-05,5.49519e-05,0.000195891
-14.0196,8.25411,-297.951,0.000681111,0.00344221,0.00469476,6.13896e-05,-6.31816e-05,2.86593e-05,6.76668e-05,-6.94588e-05,0.215622,0.000118758,-0.246297,1.39632,-3.42598,-0.0185037,0.0159436,-6.90925e-05,0.00216847,202,513,-0.0241626,-0.085967,68.8919,107.214,68.8351,107.313,5.60753e-05,5.61041e-05,0.000193951
-13.7191,8.2416,-297.9,0.000716606,0.00343528,0.00498361,5.18842e-05,-7.03698e-05,1.90203e-05,5.4775e-05,-7.32606e-05,0.150832,0.000111267,-0.286855,1.3548,-3.40043,-0.0323236,0.0162944,0.00264369,0.00218311,209,513,-0.0254808,-0.0865028,70.6997,107.941,70.6397,108.039,5.69523e-05,5.64672e-05,0.000196663
-13.4178,8.22932,-297.845,0.000692061,0.00341162,0.00500088,4.32909e-05,-7.88045e-05,9.14969e-06,4.39727e-05,-7.94863e-05,0.0743852,0.000108383,-0.325347,1.36138,-3.27615,-0.0444675,0.0167323,0.00611691,0.00219654,216,513,-0.0261155,-0.0871312,72.5433,108.66,72.4839,108.756,5.76322e-05,5.62454e-05,0.000198591
-13.1167,8.2173,-297.791,0.000621516,0.00338595,0.00500609,3.83437e-05,-8.80845e-05,-1.40247e-06,3.83593e-05,-8.81001e-05,-0.0110912,0.000112305,-0.383098,1.41819,-3.15475,-0.0534856,0.0173121,0.0102234,0.00218971,223,513,-0.0277853,-0.0875751,74.3853,109.366,74.3278,109.46,5.74062e-05,5.59212e-05,0.00019801
-12.8166,8.20517,-297.739,0.000573044,0.00333908,0.00490942,3.58218e-05,-9.71888e-05,-1.26757e-05,3.7019e-05,-9.8386e-05,-0.094169,0.000121212,-0.43256,1.46455,-3.06586,-0.0580534,0.0181085,0.0145157,0.00216057,230,513,-0.0280912,-0.0876051,76.1739,110.075,76.1185,110.167,5.61658e-05,5.5235e-05,0.000194025
-12.5174,8.19278,-297.689,0.000582326,0.0033166,0.00483861,3.54051e-05,-0.00010484,-2.45908e-05,3.95919e-05,-0.000109027,-0.168641,0.000133308,-0.448903,1.48174,-2.90507,-0.0586959,0.0190086,0.0179649,0.00216746,237,513,-0.0272012,-0.0879647,77.9187,110.796,77.8634,110.886,5.53363e-05,5.53628e-05,0.000191804
-12.2211,8.18021,-297.647,0.000637323,0.00334251,0.0047208,3.59254e-05,-0.000110245,-3.71826e-05,4.48402e-05,-0.000119159,-0.235315,0.000146808,-0.395317,1.50441,-2.75651,-0.055715,0.0193751,0.0198658,0.00220431,244,513,-0.0248624,-0.0890584,79.5216,111.518,79.4656,111.609,5.63412e-05,5.6141e-05,0.00019551
-11.9272,8.16802,-297.613,0.000645686,0.00337131,0.00448436,3.68214e-05,-0.000114046,-5.05626e-05,5.21998e-05,-0.000129424,-0.295255,0.000161961,-0.340985,1.52758,-2.78183,-0.0499132,0.0192853,0.0212813,0.00220554,251,513,-0.0227408,-0.0891603,80.9993,112.213,80.9446,112.306,5.77847e-05,5.6292e-05,0.000200444
-11.6343,8.15599,-297.581,0.000646805,0.00338018,0.00426837,3.94818e-05,-0.000116413,-6.53385e-05,6.32444e-05,-0.000140175,-0.348814,0.000180317,-0.319947,1.54218,-2.8803,-0.0422943,0.0173303,0.0224758,0.00214343,258,513,-0.0209365,-0.0882767,82.4278,112.899,82.3744,112.993,5.71649e-05,5.51629e-05,0.000198692
-11.34,8.14382,-297.545,0.000614177,0.00336204,0.00422492,4.12183e-05,-0.000117651,-8.13847e-05,7.55084e-05,-0.000151941,-0.398761,0.00020065,-0.355532,1.5255,-3.07982,-0.0336164,0.0144581,0.0232562,0.00209021,265,513,-0.0213049,-0.0881136,83.927,113.598,83.8748,113.691,5.41518e-05,5.30487e-05,0.00018876
-11.0433,8.13166,-297.5,0.000608233,0.00334295,0.0042948,3.72804e-05,-0.000117929,-9.86652e-05,8.52038e-05,-0.000165853,-0.452157,0.000221129,-0.412749,1.49046,-3.10548,-0.0241122,0.0110236,0.0224552,0.00202224,272,513,-0.0219108,-0.0891898,85.5525,114.302,85.5,114.394,5.23232e-05,5.11612e-05,0.00018266
-10.7433,8.11925,-297.444,0.000626863,0.00329615,0.00438658,2.71729e-05,-0.000117836,-0.00011566,9.11751e-05,-0.000181838,-0.505424,0.000240743,-0.466209,1.4793,-3.06013,-0.0134071,0.00729316,0.0206832,0.002021,279,513,-0.0220374,-0.0890336,87.3544,115.03,87.3007,115.118,5.37718e-05,5.09888e-05,0.000186538
-10.4431,8.10677,-297.386,0.000647395,0.00322366,0.00435392,1.45396e-05,-0.000117642,-0.000131146,9.53067e-05,-0.000198409,-0.551998,0.000259536,-0.462964,1.47106,-2.8865,-0.00103386,0.00341208,0.0194192,0.002049,286,513,-0.0211446,-0.0894202,89.1647,115.762,89.1107,115.847,5.42284e-05,5.09848e-05,0.000187392
-10.1443,8.09464,-297.333,0.000723672,0.00316102,0.0043856,1.61594e-06,-0.000116977,-0.000144258,9.82892e-05,-0.00021365,-0.590403,0.000276237,-0.454271,1.44498,-2.79768,0.0111374,-0.000274631,0.0189336,0.00208002,293,513,-0.0193633,-0.0892508,90.9097,116.473,90.8535,116.555,5.48164e-05,5.26932e-05,0.000189485
-9.84621,8.0824,-297.281,0.000795653,0.00314877,0.00435352,-1.15669e-05,-0.000116509,-0.000156103,0.000100647,-0.000228723,-0.623265,0.000292343,-0.424073,1.42338,-2.73185,0.0218842,-0.00342325,0.019628,0.00211118,300,513,-0.0172324,-0.0890877,92.6222,117.186,92.5641,117.268,5.51572e-05,5.44727e-05,0.00019048
-9.5468,8.07043,-297.224,0.000863801,0.00317985,0.00434006,-2.60551e-05,-0.00011464,-0.000165302,0.000100786,-0.000241481,-0.654499,0.000304645,-0.417422,1.45342,-2.78943,0.0309659,-0.00619092,0.0201455,0.00211552,307,513,-0.015386,-0.0900232,94.4052,117.888,94.3452,117.97,5.41111e-05,5.48129e-05,0.000186818
-9.23658,8.05863,-297.131,0.000883036,0.00318525,0.00423119,-4.12254e-05,-0.000112026,-0.000171573,9.85611e-05,-0.000251812,-0.683662,0.000312958,-0.423216,1.52745,-2.95997,0.0400356,-0.00847114,0.0210068,0.00209495,314,513,-0.0140086,-0.0910187,96.7572,118.608,96.6974,118.69,5.40674e-05,5.43208e-05,0.000185826
-8.91655,8.04586,-297.005,0.000817039,0.0030438,0.0039336,-5.65226e-05,-0.000107906,-0.000174554,9.42199e-05,-0.000258649,-0.71233,0.000316459,-0.417209,1.57197,-2.93543,0.0491752,-0.0103803,0.0221608,0.00212178,321,513,-0.0131665,-0.0890212,99.626,119.409,99.5704,119.485,5.4176e-05,5.47571e-05,0.000186267
-8.59353,8.03281,-296.868,0.000832476,0.00290131,0.00345276,-7.31312e-05,-0.000101688,-0.000174509,8.76823e-05,-0.000262502,-0.744579,0.000315614,-0.407622,1.56252,-2.86756,0.0566219,-0.0122837,0.0231819,0.00238719,328,513,-0.00893591,-0.0881677,102.664,120.234,102.612,120.304,5.79848e-05,6.13938e-05,0.00020034
-8.27386,8.02012,-296.741,0.000874107,0.00290977,0.00321981,-8.85243e-05,-9.34616e-05,-0.000172826,8.1851e-05,-0.000263837,-0.778257,0.000312898,-0.386801,1.54873,-2.71137,0.0618053,-0.0143526,0.0230437,0.00267125,335,513,-0.00610051,-0.0903271,105.539,121.028,105.487,121.097,6.50114e-05,6.84516e-05,0.000224667
-7.96639,8.00536,-296.653,0.000946847,0.00295237,0.00316144,-0.000101701,-8.3878e-05,-0.000170215,7.76588e-05,-0.000263238,-0.811552,0.000309464,-0.373371,1.54674,-2.67732,0.0665987,-0.016269,0.0208905,0.00262999,342,513,-0.00384846,-0.0929944,107.775,121.9,107.722,121.969,6.52041e-05,6.53581e-05,0.000225813
0,0,0,0,0,0,0,0,0,0,0,0,0,0,0,0,0,0,0,-1,349,513,0,0,0,0,0,0,0,0,0
-7.42898,7.98568,-296.732,0.00107819,0.00290725,0.00317659,-0.000130149,-6.03283e-05,-0.000162724,7.1188e-05,-0.000261665,-0.891065,0.000303585,-0.366148,1.56606,-2.79093,0.0776004,-0.0189843,0.0134277,0.00228442,356,513,-0.000545291,-0.0950459,108.146,122.94,108.089,123.004,5.86502e-05,5.37475e-05,0.000203832
-7.14164,7.97346,-296.709,0.000966173,0.00282705,0.00309821,-0.000145389,-4.68908e-05,-0.000157195,6.85896e-05,-0.000260869,-0.937204,0.000301082,-0.372238,1.55554,-2.95925,0.0812222,-0.0197494,0.0088067,0.00220343,363,513,-0.00258366,-0.0925862,109.312,123.631,109.259,123.693,5.66652e-05,5.37194e-05,0.000196475
-6.84755,7.96121,-296.663,0.000881832,0.00276032,0.00315603,-0.000157652,-3.35946e-05,-0.000150052,6.67439e-05,-0.00025799,-0.981393,0.000297041,-0.358281,1.5348,-3.00068,0.0824918,-0.0203583,0.00293271,0.00208657,370,513,-0.00496523,-0.0900438,110.843,124.34,110.792,124.401,5.42672e-05,5.27326e-05,0.000187603
-6.55083,7.94899,-296.607,0.000812685,0.0027493,0.0031287,-0.000166951,-2.12914e-05,-0.000141434,6.49631e-05,-0.000253205,-1.02316,0.000291174,-0.334992,1.54031,-3.02342,0.0816005,-0.0205151,-0.00307184,0.00205007,377,513,-0.00640595,-0.0897433,112.519,125.054,112.47,125.115,5.36409e-05,5.2616e-05,0.000185175
-6.25048,7.93622,-296.539,0.000735923,0.00274057,0.00298571,-0.000177815,-1.01615e-05,-0.000132917,6.31543e-05,-0.00025113,-1.06673,0.000287949,-0.295571,1.57849,-3.00908,0.0768512,-0.0201476,-0.00918729,0.00203151,384,513,-0.00722002,-0.0920784,114.393,125.809,114.347,125.868,5.21963e-05,5.14654e-05,0.000179917
-5.94555,7.92402,-296.454,0.000721347,0.002744,0.00294718,-0.000193569,-9.19286e-07,-0.000124696,6.03233e-05,-0.000254812,-1.11427,0.000289722,-0.253085,1.6023,-2.9166,0.0673334,-0.0189168,-0.0156007,0.00203865,391,513,-0.00728171,-0.0950373,116.524,126.547,116.479,126.603,5.08713e-05,5.12978e-05,0.000175099
-5.63667,7.91157,-296.355,0.000718311,0.00274962,0.00279313,-0.000210601,5.86001e-06,-0.000116502,5.66473e-05,-0.000261388,-1.1597,0.000293836,-0.221033,1.57533,-2.79342,0.0546095,-0.0177933,-0.0221893,0.00202198,398,513,-0.00617913,-0.0965122,118.876,127.307,118.833,127.362,5.03268e-05,5.03138e-05,0.000173036
-5.32589,7.89902,-296.249,0.000728634,0.00272762,0.00253581,-0.000222681,1.02333e-05,-0.000107112,5.20015e-05,-0.000264449,-1.19898,0.00029392,-0.202014,1.56526,-2.67478,0.0388221,-0.0172789,-0.0291565,0.00197653,405,513,-0.00393964,-0.0964086,121.34,128.079,121.298,128.133,5.10023e-05,4.87619e-05,0.000175521
-5.01635,7.8872,-296.145,0.000695533,0.00266121,0.00223589,-0.000230574,1.2982e-05,-9.6713e-05,4.67137e-05,-0.000264306,-1.23521,0.000290494,-0.211572,1.61546,-2.54416,0.0225934,-0.0174298,-0.0344502,0.00198649,412,513,-0.00243156,-0.0950923,123.746,128.811,123.707,128.864,5.26774e-05,4.85225e-05,0.00018163
-4.71164,7.87548,-296.058,0.000664746,0.0025737,0.00196678,-0.00023558,1.53827e-05,-8.6124e-05,4.20951e-05,-0.000262292,-1.27004,0.000285675,-0.249034,1.61814,-2.48443,0.00641,-0.0184412,-0.037879,0.0020351,419,513,-0.00109874,-0.0944569,125.895,129.529,125.86,129.577,5.43131e-05,4.90768e-05,0.000187325
-4.41252,7.86296,-295.988,0.000614272,0.00249643,0.0018379,-0.000238067,1.81438e-05,-7.55622e-05,3.87685e-05,-0.000258692,-1.30434,0.000280096,-0.28285,1.58265,-2.48483,-0.0079239,-0.0202193,-0.0398778,0.00208732,426,513,-0.00131369,-0.0941996,127.745,130.274,127.712,130.318,5.58115e-05,4.96647e-05,0.000192424
-4.11687,7.85079,-295.929,0.000540073,0.00245052,0.00184469,-0.000236168,2.11788e-05,-6.50142e-05,3.66709e-05,-0.00025166,-1.33687,0.000271857,-0.294922,1.52111,-2.42881,-0.0197486,-0.0223981,-0.0411275,0.00208321,433,513,-0.00314476,-0.0937436,129.41,130.99,129.379,131.033,5.57204e-05,4.93728e-05,0.000192052
-3.82264,7.83853,-295.875,0.000475728,0.00240252,0.0019467,-0.000230535,2.4254e-05,-5.42356e-05,3.53183e-05,-0.0002416,-1.36955,0.000261057,-0.284512,1.47566,-2.46903,-0.0294233,-0.0245421,-0.0410503,0.00209647,440,513,-0.00542697,-0.0934333,131.003,131.708,130.973,131.748,5.60846e-05,4.99812e-05,0.000193248
-3.52855,7.8263,-295.82,0.00039191,0.00240738,0.00186989,-0.00022311,2.78279e-05,-4.36842e-05,3.52151e-05,-0.000230497,-1.40328,0.000249972,-0.301083,1.46958,-2.62401,-0.0362203,-0.0263435,-0.0393415,0.00212384,447,513,-0.00694071,-0.0937453,132.591,132.422,132.564,132.463,5.67734e-05,5.13692e-05,0.000195612
-3.23334,7.8141,-295.76,0.000330025,0.00241935,0.00179207,-0.000210846,3.17628e-05,-3.42012e-05,3.6492e-05,-0.000215575,-1.43339,0.000235947,-0.306672,1.46486,-2.93763,-0.0392038,-0.0273912,-0.037484,0.00213954,454,513,-0.0079125,-0.0945035,134.246,133.139,134.222,133.179,5.72037e-05,5.30023e-05,0.000196943
-2.93634,7.80206,-295.694,0.000271185,0.00244087,0.00154649,-0.000192636,3.61941e-05,-2.54667e-05,3.8994e-05,-0.000195436,-1.46129,0.000217569,-0.311316,1.45768,-3.13666,-0.0385616,-0.0273053,-0.0363125,0.002204,461,513,-0.00759591,-0.0948523,136.007,133.852,135.986,133.893,5.78368e-05,5.47622e-05,0.000198741
-2.6377,7.78999,-295.621,0.000221024,0.00250464,0.0012873,-0.000170893,4.1879e-05,-1.63709e-05,4.31313e-05,-0.000172146,-1.49445,0.00019728,-0.297294,1.47622,-3.30934,-0.0359412,-0.0258825,-0.0356354,0.00226518,468,513,-0.00701718,-0.0961002,137.866,134.57,137.848,134.614,5.82187e-05,5.58094e-05,0.000199763
-2.33725,7.77776,-295.54,0.000216059,0.00253784,0.00102113,-0.000147986,4.85795e-05,-6.64037e-06,4.88036e-05,-0.00014821,-1.53707,0.000177711,-0.308942,1.53177,-3.2451,-0.0339716,-0.0236556,-0.0345312,0.0022533,475,513,-0.00522249,-0.0963556,139.835,135.303,139.819,135.348,5.75855e-05,5.62451e-05,0.000197455
-2.03626,7.76549,-295.457,0.000263049,0.00253742,0.000907123,-0.00012421,5.57853e-05,3.49996e-06,5.58534e-05,-0.000124278,1.55136,0.000159705,-0.324115,1.56345,-3.1553,-0.0324343,-0.0208951,-0.0326883,0.00220068,482,513,-0.00319316,-0.0962639,141.844,136.042,141.828,136.088,5.65333e-05,5.59922e-05,0.000193892
-1.7365,7.7534,-295.377,0.000304688,0.00253983,0.000982158,-9.92575e-05,6.2471e-05,1.4656e-05,6.37884e-05,-0.000100575,1.48115,0.000143526,-0.326726,1.54213,-3.08142,-0.0296283,-0.0176161,-0.0303878,0.00221137,489,513,-0.00266408,-0.0963099,143.795,136.77,143.777,136.816,5.53077e-05,5.57466e-05,0.000189714
-1.43894,7.74139,-295.304,0.000291001,0.00250827,0.000962962,-7.32559e-05,6.88633e-05,2.65694e-05,7.3668e-05,-7.80607e-05,1.39189,0.000131419,-0.328058,1.51172,-3.07561,-0.0260677,-0.0139427,-0.0284009,0.00223635,496,513,-0.00281654,-0.0955766,145.626,137.489,145.609,137.533,5.51097e-05,5.63224e-05,0.000189008
-1.1444,7.72947,-295.241,0.000150535,0.0024739,0.00101865,-4.88864e-05,7.49422e-05,3.93259e-05,8.63757e-05,-6.032e-05,1.28786,0.000127708,-0.300613,1.49826,-3.14045,-0.0238237,-0.01032,-0.0261574,0.00230193,503,513,-0.00669848,-0.0941518,147.289,138.195,147.276,138.239,5.68307e-05,5.79995e-05,0.000194831
-0.850959,7.71734,-295.181,4.16525e-05,0.00245044,0.00111165,-2.87508e-05,8.09072e-05,5.25712e-05,0.000102038,-4.9882e-05,1.18861,0.000134127,-0.271958,1.48362,-3.23431,-0.0240876,-0.00706319,-0.0231762,0.00236935,510,513,-0.0100652,-0.0931963,148.897,138.91,148.886,138.953,6.04314e-05,5.98531e-05,0.000206861
-0.556912,7.70539,-295.118,-2.44885e-05,0.00244816,0.00121971,-1.19257e-05,8.61279e-05,6.60728e-05,0.000119377,-4.51744e-05,1.10458,0.000147256,-0.264529,1.47313,-3.19076,-0.0253311,-0.0040946,-0.0200717,0.00246,517,513,-0.0124722,-0.092192,150.549,139.616,150.538,139.66,6.39295e-05,6.08734e-05,0.000218631
-0.262254,7.69337,-295.052,-3.5325e-06,0.00249216,0.00136232,1.43367e-06,8.99222e-05,7.94035e-05,0.000136576,-4.52202e-05,1.03958,0.000163933,-0.287905,1.41841,-3.19289,-0.0273998,-0.000742177,-0.0165793,0.00252016,524,513,-0.0129609,-0.0918771,152.244,140.327,152.232,140.374,6.59865e-05,6.06899e-05,0.000225219
0.0329372,7.68148,-294.983,5.28491e-05,0.00251136,0.00145783,1.28884e-05,9.18804e-05,9.34677e-05,0.000153854,-4.90855e-05,0.985301,0.000183392,-0.32471,1.37556,-3.20766,-0.0306192,0.00122957,-0.0112718,0.00254695,531,513,-0.0121762,-0.0903636,153.979,141.034,153.963,141.083,6.61673e-05,6.07404e-05,0.000225409
0.327402,7.66949,-294.915,0.000143126,0.00254668,0.00138999,2.06017e-05,9.28496e-05,0.000106523,0.000169208,-5.57562e-05,0.948872,0.000202915,-0.339423,1.36706,-3.17222,-0.0325409,0.00330323,-0.00428225,0.00255484,538,513,-0.00941099,-0.0906352,155.678,141.745,155.661,141.796,6.5578e-05,6.16284e-05,0.000223033
0.621316,7.65759,-294.849,0.000256997,0.00257031,0.0011511,2.53362e-05,9.36325e-05,0.000117827,0.00018216,-6.31915e-05,0.926442,0.00022065,-0.344519,1.36271,-3.09124,-0.0330226,0.00628762,0.00316838,0.00248683,545,513,-0.00483421,-0.0910246,157.352,142.451,157.334,142.503,6.41338e-05,6.06742e-05,0.000217631
0.914365,7.6458,-294.785,0.000335657,0.00261902,0.00106235,2.62419e-05,9.44566e-05,0.000125963,0.000190848,-7.01496e-05,0.917614,0.000233948,-0.382658,1.36211,-2.87227,-0.0336555,0.0114225,0.0103342,0.00246329,552,513,-0.00224899,-0.0926919,158.984,143.15,158.964,143.204,6.4807e-05,5.9809e-05,0.000219721
1.20648,7.63394,-294.724,0.000352681,0.00266279,0.000972261,2.11731e-05,9.55627e-05,0.000129083,0.000192703,-7.59671e-05,0.925671,0.000239884,-0.441758,1.35989,-2.79408,-0.0360211,0.0199716,0.0163019,0.0024846,559,513,-0.00121423,-0.0940992,160.566,143.851,160.546,143.906,6.69652e-05,5.86656e-05,0.000226703
1.49835,7.62195,-294.662,0.000357996,0.00267364,0.000973987,1.25372e-05,9.74031e-05,0.000125853,0.000187784,-7.78439e-05,0.947995,0.000236517,-0.46968,1.36983,-2.93697,-0.0424316,0.0329429,0.0200978,0.00253281,566,513,-0.0010758,-0.0940423,162.141,144.559,162.121,144.614,6.89459e-05,5.75759e-05,0.000232914
1.79045,7.61003,-294.599,0.000380444,0.00269067,0.000972981,3.88508e-06,0.000101001,0.000118428,0.000180439,-7.55532e-05,0.979956,0.000227814,-0.413023,1.35396,-3.10231,-0.0583832,0.0502689,0.0200426,0.00260296,573,513,-0.000501402,-0.0949849,163.738,145.266,163.717,145.321,7.13086e-05,5.75207e-05,0.000240037
0,0,0,0,0,0,0,0,0,0,0,0,0,0,0,0,0,0,0,-1,580,513,0,0,0,0,0,0,0,0,0
0,0,0,0,0,0,0,0,0,0,0,0,0,0,0,0,0,0,0,-1,587,513,0,0,0,0,0,0,0,0,0
0,0,0,0,0,0,0,0,0,0,0,0,0,0,0,0,0,0,0,-1,594,513,0,0,0,0,0,0,0,0,0
0,0,0,0,0,0,0,0,0,0,0,0,0,0,0,0,0,0,0,-1,601,513,0,0,0,0,0,0,0,0,0
0,0,0,0,0,0,0,0,0,0,0,0,0,0,0,0,0,0,0,-1,62,520,0,0,0,0,0,0,0,0,0
0,0,0,0,0,0,0,0,0,0,0,0,0,0,0,0,0,0,0,-1,69,520,0,0,0,0,0,0,0,0,0
0,0,0,0,0,0,0,0,0,0,0,0,0,0,0,0,0,0,0,-1,76,520,0,0,0,0,0,0,0,0,0
-18.9347,8.18825,-298.127,0.000655172,0.00290863,-0.000368984,-9.67512e-05,4.46169e-05,1.13956e-05,4.55296e-05,-9.76639e-05,1.49087,0.000126719,-0.376743,1.45465,-3.44431,0.0206436,0.0417125,-0.0138452,0.00220392,83,520,0.0159198,-0.0722612,47.5087,96.5823,47.4887,96.6694,5.6834e-05,5.62623e-05,0.000200159
-18.6496,8.17636,-298.129,0.000643516,0.00288315,-0.000397264,-9.13398e-05,3.96773e-05,2.45341e-05,4.41208e-05,-9.57834e-05,1.39162,0.000123884,-0.385614,1.44389,-3.51062,0.00706204,0.0406031,-0.0098908,0.00220876,90,520,0.0158885,-0.071874,48.5853,97.2423,48.5659,97.3284,5.59105e-05,5.66266e-05,0.000196573
-18.3655,8.1644,-298.134,0.00061983,0.00287753,-0.000389466,-6.84428e-05,3.39239e-05,4.23609e-05,4.91798e-05,-8.36988e-05,1.22511,0.000116363,-0.404839,1.45454,-3.638,0.00159208,0.0388254,-0.0096452,0.00220941,97,520,0.0152402,-0.0722252,49.61,97.9038,49.5913,97.9892,5.5873e-05,5.66757e-05,0.000196176
-18.0839,8.15257,-298.147,0.000560314,0.00284816,-0.00029706,-4.11132e-05,2.70068e-05,6.04471e-05,6.23293e-05,-7.64357e-05,1.04196,0.000120381,-0.44433,1.49377,-3.67259,0.0035349,0.0363162,-0.00996771,0.00220036,104,520,0.013038,-0.0726067,50.5085,98.554,50.4911,98.6375,5.65792e-05,5.64425e-05,0.000198683
-17.8052,8.14081,-298.167,0.000479709,0.00281452,-9.21971e-05,-1.25057e-05,1.91979e-05,7.6727e-05,8.16934e-05,-7.50013e-05,0.887265,0.000135743,-0.472803,1.53268,-3.77864,0.0107678,0.0338155,-0.00944009,0.00222445,111,520,0.00942145,-0.0719774,51.2619,99.1935,51.2454,99.2756,5.86413e-05,5.57071e-05,0.0002059
-17.5264,8.12935,-298.188,0.000449789,0.00284407,0.000332515,1.60541e-05,1.10232e-05,9.0719e-05,0.000104293,-7.72152e-05,0.771538,0.000157772,-0.481292,1.56196,-3.85678,0.0203653,0.031833,-0.0082506,0.00226716,118,520,0.00520627,-0.072064,52.0165,99.8143,51.9979,99.8976,6.0359e-05,5.5413e-05,0.00021133
-17.2452,8.11758,-298.2,0.000512986,0.00293326,0.000902238,4.33011e-05,2.97108e-06,0.00010204,0.000127149,-8.0877e-05,0.687846,0.000181635,-0.450134,1.55555,-3.88552,0.0306068,0.0303398,-0.00668516,0.0022417,125,520,0.00205347,-0.0731059,52.8907,100.455,52.8663,100.542,5.99425e-05,5.59297e-05,0.000210082
-16.9621,8.10553,-298.207,0.000595945,0.00302329,0.00133768,6.70034e-05,-4.70649e-06,0.000109632,0.000146495,-8.41977e-05,0.627356,0.000202199,-0.418587,1.51046,-3.77828,0.040574,0.0289117,-0.00467897,0.00221751,132,520,0.000481866,-0.0751537,53.8517,101.115,53.8218,101.204,5.91777e-05,5.61383e-05,0.000207604
-16.6764,8.09331,-298.206,0.000686738,0.00311156,0.00160482,8.60666e-05,-1.16274e-05,0.000113382,0.000160676,-8.62371e-05,0.582004,0.000217048,-0.385335,1.43054,-3.65799,0.0478444,0.0270265,-0.00243747,0.00220319,139,520,0.000483148,-0.0772402,54.9351,101.789,54.9006,101.881,5.88178e-05,5.61118e-05,0.000206292
-16.388,8.08111,-298.196,0.000684821,0.00318705,0.00172079,0.000103527,-1.74288e-05,0.000113728,0.000171857,-8.57591e-05,0.541026,0.000227217,-0.337735,1.38601,-3.43302,0.0528684,0.0248456,-0.00103857,0.00221772,146,520,-0.000551285,-0.0795506,56.1427,102.469,56.1074,102.562,5.89105e-05,5.57464e-05,0.000206232
-16.0977,8.06912,-298.18,0.000682739,0.00321975,0.00194737,0.000117473,-2.19062e-05,0.000110987,0.000178836,-8.32692e-05,0.505055,0.000231965,-0.271861,1.38366,-3.28674,0.0551049,0.0229285,-0.000632055,0.00221658,153,520,-0.00241872,-0.0800727,57.4474,103.144,57.4105,103.238,5.8726e-05,5.52659e-05,0.000204987
-15.8064,8.05695,-298.16,0.000708061,0.00322745,0.00232683,0.000124478,-2.53076e-05,0.000105119,0.000178655,-7.94845e-05,0.47588,0.000228988,-0.224263,1.4152,-3.27615,0.0538964,0.0211622,-0.000851207,0.00220981,160,520,-0.00480602,-0.0799906,58.7956,103.831,58.7553,103.925,5.87234e-05,5.47754e-05,0.000204586
-15.5134,8.04479,-298.135,0.000720381,0.00324116,0.00280291,0.000123084,-2.80226e-05,9.5645e-05,0.000169417,-7.43556e-05,0.451111,0.000216398,-0.215413,1.45566,-3.42999,0.0483426,0.0193035,-0.00132567,0.00216622,167,520,-0.00828552,-0.0805312,60.23,104.521,60.1859,104.616,5.79818e-05,5.38983e-05,0.000201564
-15.2193,8.03253,-298.106,0.000703376,0.00328959,0.00324508,0.000115371,-3.04666e-05,8.32635e-05,0.000153131,-6.82274e-05,0.425769,0.000196347,-0.215949,1.45192,-3.49693,0.0390036,0.0174525,-0.00176967,0.0021806,174,520,-0.0122376,-0.0821947,61.7173,105.219,61.6706,105.314,5.85946e-05,5.36077e-05,0.000203133
-14.9237,8.0203,-298.073,0.000678855,0.00338903,0.00371786,0.000104467,-3.34975e-05,6.98561e-05,0.00013366,-6.26907e-05,0.395846,0.000173708,-0.201737,1.45934,-3.45509,0.0267358,0.015624,-0.00209447,0.00218433,181,520,-0.0166459,-0.0843263,63.2772,105.917,63.2277,106.015,5.87829e-05,5.31497e-05,0.000203701
-14.626,8.00769,-298.031,0.000653578,0.00345936,0.00411571,9.40183e-05,-3.73429e-05,5.72686e-05,0.000115479,-5.88038e-05,0.358543,0.000153571,-0.17781,1.46436,-3.3526,0.0123811,0.0142658,-0.00198626,0.00216766,188,520,-0.0204205,-0.0852012,64.9417,106.64,64.8899,106.741,5.84327e-05,5.36878e-05,0.000201969
-14.3257,7.99513,-297.982,0.000641603,0.00347469,0.00460799,8.45998e-05,-4.24837e-05,4.62248e-05,9.96347e-05,-5.75186e-05,0.314463,0.000137718,-0.190156,1.45958,-3.28324,-0.00259186,0.0135802,-0.0010375,0.00213849,195,520,-0.0245444,-0.0847072,66.7367,107.368,66.6815,107.47,5.70078e-05,5.41798e-05,0.000196881
-14.0237,7.98279,-297.926,0.000643569,0.00345268,0.00495569,7.59329e-05,-4.8828e-05,3.6698e-05,8.5927e-05,-5.8822e-05,0.265884,0.000126087,-0.240301,1.4047,-3.26574,-0.0174487,0.0135854,0.000827975,0.00211548,202,520,-0.0271377,-0.0843178,68.6236,108.092,68.5659,108.193,5.56546e-05,5.44369e-05,0.000191911
-13.7219,7.97049,-297.871,0.000648948,0.00341789,0.00516444,6.71617e-05,-5.63823e-05,2.79619e-05,7.31957e-05,-6.24162e-05,0.212533,0.000117567,-0.288362,1.36494,-3.212,-0.0319324,0.0139838,0.00344967,0.00212008,209,520,-0.0285357,-0.0845154,70.4958,108.814,70.4364,108.913,5.5907e-05,5.44305e-05,0.000193039
-13.421,7.95847,-297.817,0.000592094,0.00338271,0.00498708,5.95221e-05,-6.53759e-05,1.85145e-05,6.22088e-05,-6.80626e-05,0.14411,0.000112856,-0.323898,1.35473,-3.10212,-0.0448843,0.0144631,0.00691471,0.00215352,216,520,-0.0284292,-0.0856924,72.323,109.521,72.2665,109.617,5.67439e-05,5.44871e-05,0.000195726
-13.1219,7.94687,-297.769,0.000511695,0.00338061,0.0048568,5.56138e-05,-7.53626e-05,7.66746e-06,5.60612e-05,-7.58099e-05,0.0582755,0.00011463,-0.37498,1.40408,-2.99884,-0.0546466,0.0149792,0.0109759,0.0021527,223,520,-0.0293031,-0.0867646,74.0568,110.2,74.0034,110.295,5.67638e-05,5.49741e-05,0.000195913
-12.8239,7.93502,-297.724,0.000496113,0.00337157,0.00471197,5.38101e-05,-8.54191e-05,-4.67141e-06,5.39667e-05,-8.55757e-05,-0.0335017,0.000121876,-0.412818,1.45668,-2.91897,-0.0598752,0.0156947,0.0152347,0.00213972,230,520,-0.0284635,-0.0876847,75.7451,110.891,75.6932,110.985,5.59271e-05,5.4828e-05,0.000193271
-12.527,7.92257,-297.681,0.000565901,0.00339227,0.00472036,5.36063e-05,-9.41899e-05,-1.83001e-05,5.58385e-05,-9.64221e-05,-0.121378,0.000133414,-0.435064,1.4804,-2.75334,-0.0607976,0.0164438,0.0189302,0.00219056,237,520,-0.0267513,-0.0891337,77.3767,111.609,77.3227,111.703,5.57253e-05,5.59466e-05,0.000193108
-12.2321,7.91005,-297.644,0.000682044,0.0034536,0.00473096,5.39646e-05,-0.000100848,-3.2797e-05,6.0626e-05,-0.00010751,-0.200383,0.000147485,-0.395609,1.48918,-2.60282,-0.0579851,0.0166138,0.0214737,0.00225308,244,520,-0.0239424,-0.0908576,78.9119,112.325,78.8543,112.42,5.73915e-05,5.7056e-05,0.000199173
-11.9374,7.89797,-297.607,0.000708798,0.00349163,0.00459206,5.42603e-05,-0.000105951,-4.80578e-05,6.75702e-05,-0.000119261,-0.270185,0.000163852,-0.353277,1.50939,-2.65277,-0.0525624,0.0161757,0.0237433,0.00226739,251,520,-0.0221389,-0.0913632,80.4298,113.017,80.3723,113.114,5.92563e-05,5.76916e-05,0.000206008
-11.6426,7.88589,-297.569,0.000697055,0.00349243,0.00440475,5.58577e-05,-0.000109576,-6.42176e-05,7.78595e-05,-0.000131577,-0.330078,0.000183355,-0.343001,1.52085,-2.83102,-0.0454867,0.0141082,0.0258079,0.00221666,258,520,-0.0208659,-0.0903681,81.9586,113.711,81.9027,113.809,5.88043e-05,5.65477e-05,0.000205072
-11.347,7.87384,-297.529,0.000617979,0.00343198,0.0042121,5.64039e-05,-0.000111935,-8.11923e-05,8.91817e-05,-0.000144713,-0.383698,0.000204453,-0.369919,1.50668,-3.07183,-0.0368937,0.0113901,0.0271905,0.00217644,265,520,-0.0211758,-0.0890773,83.5223,114.408,83.47,114.504,5.61176e-05,5.45787e-05,0.00019621
-11.0494,7.86191,-297.481,0.000597871,0.00338451,0.00425536,5.12195e-05,-0.000113213,-9.91356e-05,9.77952e-05,-0.000159789,-0.439212,0.000225218,-0.421455,1.49842,-3.14121,-0.0267745,0.00830814,0.0268498,0.00210134,272,520,-0.0218931,-0.0892881,85.1974,115.106,85.1454,115.199,5.41271e-05,5.26979e-05,0.000189047
-10.748,7.84956,-297.42,0.00065265,0.00331908,0.00442604,3.94724e-05,-0.000114116,-0.00011681,0.000102471,-0.000177114,-0.494609,0.000244987,-0.476873,1.5085,-3.15729,-0.0150101,0.00493127,0.0254316,0.00208179,279,520,-0.0217108,-0.0884297,87.07,115.834,87.0152,115.925,5.50678e-05,5.21324e-05,0.000190925
-10.4469,7.83698,-297.36,0.000692707,0.00327896,0.00444063,2.48175e-05,-0.000114769,-0.000132942,0.000105174,-0.000195125,-0.54368,0.000263926,-0.474145,1.51285,-3.0121,-0.00146247,0.00147393,0.0243728,0.00207461,286,520,-0.0207209,-0.0888796,88.9309,116.575,88.8749,116.663,5.4894e-05,5.16884e-05,0.000189836
-10.1476,7.82471,-297.304,0.000767274,0.00324266,0.00455388,1.03379e-05,-0.000114951,-0.000146782,0.000107284,-0.000211897,-0.583708,0.000281325,-0.477732,1.48352,-2.93722,0.0118337,-0.00175895,0.0239426,0.00209538,293,520,-0.0196241,-0.0886323,90.7057,117.296,90.6467,117.382,5.51752e-05,5.30851e-05,0.000190878
-9.85016,7.81257,-297.255,0.000826174,0.00320803,0.00457763,-3.51444e-06,-0.000115442,-0.000159241,0.000109311,-0.000228267,-0.616419,0.00029834,-0.467583,1.44359,-2.89702,0.0238407,-0.00428908,0.024389,0.00209546,300,520,-0.0182252,-0.0884426,92.384,118.004,92.3231,118.089,5.42615e-05,5.40072e-05,0.000187701
-9.55182,7.80063,-297.201,0.000842231,0.0032236,0.00449368,-1.82167e-05,-0.000114551,-0.000168999,0.000109345,-0.000242112,-0.646572,0.000311526,-0.46919,1.46292,-2.95055,0.0341259,-0.00638238,0.0246408,0.00207559,307,520,-0.017121,-0.0896863,94.1104,118.704,94.0497,118.788,5.3022e-05,5.36383e-05,0.000183304
-9.2467,7.78861,-297.125,0.00085127,0.00324425,0.00436967,-3.40544e-05,-0.000112922,-0.000176057,0.000106931,-0.000253908,-0.675225,0.00032102,-0.459919,1.53956,-3.02154,0.0442176,-0.00801311,0.0252473,0.00206387,314,520,-0.0159021,-0.0915572,96.1955,119.426,96.1353,119.51,5.35969e-05,5.3092e-05,0.000184493
-8.93111,7.77637,-297.013,0.000805324,0.00315892,0.00413112,-5.07319e-05,-0.000109652,-0.000180015,0.000102218,-0.000262602,-0.70429,0.000325961,-0.449646,1.59735,-2.95144,0.0541928,-0.00927647,0.0261858,0.00209022,321,520,-0.0150645,-0.0906057,98.8327,120.191,98.7757,120.271,5.42108e-05,5.2398e-05,0.000186382
-8.60951,7.76372,-296.881,0.000812816,0.00304911,0.00362875,-6.89528e-05,-0.000104078,-0.000181006,9.53405e-05,-0.000268371,-0.737036,0.000326649,-0.433178,1.58575,-2.89125,0.0622822,-0.0104708,0.0270454,0.00222176,328,520,-0.0108973,-0.0903917,101.795,120.995,101.742,121.07,5.59783e-05,5.62884e-05,0.00019349
-8.28958,7.75129,-296.753,0.00089986,0.00304612,0.0034434,-8.57585e-05,-9.62751e-05,-0.000180305,8.93645e-05,-0.000271398,-0.770821,0.000325417,-0.400687,1.56374,-2.72638,0.0679901,-0.0118121,0.0266351,0.00253705,335,520,-0.00727864,-0.0923837,104.686,121.782,104.631,121.855,6.2551e-05,6.34443e-05,0.000216598
-7.98126,7.73843,-296.663,0.000992478,0.00305069,0.00341222,-0.00010019,-8.70232e-05,-0.000178465,8.49798e-05,-0.000272193,-0.803834,0.000323174,-0.353327,1.57842,-2.66295,0.073167,-0.012962,0.023977,0.0025877,342,520,-0.00469852,-0.0946268,106.971,122.561,106.914,122.633,6.44617e-05,6.26536e-05,0.000223632
0,0,0,0,0,0,0,0,0,0,0,0,0,0,0,0,0,0,0,-1,349,520,0,0,0,0,0,0,0,0,0
-7.4294,7.71623,-296.693,0.00109463,0.00288057,0.00340451,-0.000132502,-6.41366e-05,-0.000172521,7.75554e-05,-0.000274194,-0.8832,0.000320098,-0.332178,1.60954,-2.78243,0.0844635,-0.0146072,0.0153202,0.00232691,356,520,-0.00181451,-0.0943633,108.107,123.771,108.048,123.834,5.99964e-05,5.54254e-05,0.000208452
-7.14496,7.70407,-296.68,0.000996475,0.00278493,0.00328434,-0.000150347,-5.10471e-05,-0.000167501,7.4008e-05,-0.000275402,-0.92948,0.000318913,-0.333582,1.58381,-2.95097,0.0875073,-0.0152802,0.0102606,0.00227298,363,520,-0.00316835,-0.0912391,109.12,124.451,109.064,124.512,5.8302e-05,5.62453e-05,0.000202112
-6.85384,7.69211,-296.644,0.000912453,0.00271063,0.00326702,-0.000165038,-3.80998e-05,-0.000160497,7.10222e-05,-0.00027416,-0.973688,0.00031572,-0.32793,1.55526,-2.95197,0.0877234,-0.0159982,0.00410562,0.00215597,370,520,-0.00497204,-0.0887988,110.493,125.14,110.44,125.199,5.52549e-05,5.4667e-05,0.000191211
-6.55864,7.68029,-296.593,0.000861621,0.00269264,0.0032774,-0.000176278,-2.60268e-05,-0.000151378,6.78421e-05,-0.000270147,-1.01573,0.000309692,-0.316758,1.54928,-2.91858,0.0860609,-0.016405,-0.00220153,0.00211709,377,520,-0.00623385,-0.0887896,112.09,125.831,112.038,125.89,5.38374e-05,5.41642e-05,0.000186099
-6.258,7.66818,-296.524,0.000787905,0.00268922,0.00315735,-0.000188405,-1.51365e-05,-0.00014184,6.44342e-05,-0.000267976,-1.05956,0.000305336,-0.299366,1.55992,-2.92476,0.0812366,-0.0164178,-0.00863512,0.00207205,384,520,-0.00714735,-0.0914693,113.982,126.555,113.933,126.611,5.22785e-05,5.29031e-05,0.000180279
-5.95196,7.65617,-296.435,0.000767671,0.0026948,0.00314839,-0.000204862,-6.47871e-06,-0.000132384,5.9752e-05,-0.000271093,-1.10692,0.000305385,-0.282103,1.58176,-2.85495,0.0720876,-0.0159511,-0.0152068,0.00206371,391,520,-0.00757465,-0.09494,116.174,127.29,116.126,127.343,5.13134e-05,5.20273e-05,0.000176549
-5.64296,7.64378,-296.336,0.000760289,0.00272299,0.00298884,-0.00022233,-5.27686e-07,-0.000123003,5.41875e-05,-0.000277045,-1.15225,0.000307738,-0.277002,1.54911,-2.77811,0.0597494,-0.0157775,-0.0217401,0.00201898,398,520,-0.00656287,-0.0971698,118.534,128.05,118.487,128.103,5.09677e-05,5.01611e-05,0.000175211
-5.3331,7.63163,-296.233,0.000765511,0.00273441,0.00267439,-0.000234222,2.63998e-06,-0.000112787,4.77538e-05,-0.000279336,-1.1903,0.00030602,-0.265701,1.54582,-2.67942,0.0444501,-0.0165425,-0.0284869,0.00195173,405,520,-0.00405579,-0.0975801,120.948,128.801,120.904,128.855,5.104e-05,4.75038e-05,0.0001757
-5.02431,7.62002,-296.132,0.00071558,0.00268504,0.00227534,-0.00024145,4.07206e-06,-0.000102082,4.09698e-05,-0.000278348,-1.22395,0.000300932,-0.269184,1.5927,-2.54933,0.0286367,-0.0180647,-0.0337417,0.00195952,412,520,-0.00225462,-0.0967931,123.312,129.524,123.273,129.576,5.2242e-05,4.67705e-05,0.000180109
-4.72169,7.60781,-296.051,0.000692369,0.00258364,0.00196601,-0.000245889,5.26226e-06,-9.15769e-05,3.51073e-05,-0.000275734,-1.25575,0.000294859,-0.314374,1.5966,-2.57797,0.0125647,-0.0204198,-0.0372572,0.00202595,419,520,-0.000422209,-0.0960525,125.348,130.265,125.311,130.312,5.41048e-05,4.71703e-05,0.000186567
-4.42361,7.59527,-295.985,0.000667074,0.00250458,0.0019016,-0.000248234,7.01573e-06,-8.14135e-05,3.07721e-05,-0.00027199,-1.28688,0.000288609,-0.325849,1.57675,-2.62911,-0.00212749,-0.023328,-0.0394758,0.00211032,426,520,-0.000469313,-0.0952935,127.141,131.01,127.107,131.054,5.63559e-05,4.8036e-05,0.00019417
-4.12879,7.58324,-295.929,0.000582047,0.00246594,0.00187712,-0.000246473,9.33557e-06,-7.13527e-05,2.78919e-05,-0.000265029,-1.31637,0.000280019,-0.312114,1.54345,-2.57938,-0.014682,-0.0263865,-0.0411524,0.00211931,433,520,-0.00234598,-0.0948257,128.761,131.719,128.728,131.761,5.65183e-05,4.77773e-05,0.000194602
-3.8356,7.57119,-295.878,0.000493044,0.00244797,0.00195521,-0.000241265,1.21544e-05,-6.11534e-05,2.61398e-05,-0.00025525,-1.34597,0.000269273,-0.29176,1.52093,-2.66251,-0.0251842,-0.0291472,-0.0417516,0.00213839,440,520,-0.00510204,-0.0951061,130.295,132.424,130.264,132.465,5.69416e-05,4.8255e-05,0.000195942
-3.5422,7.55907,-295.826,0.000390604,0.00246322,0.00185544,-0.000234547,1.59554e-05,-5.13687e-05,2.608e-05,-0.000244672,-1.37619,0.0002587,-0.312006,1.5098,-2.78432,-0.0328552,-0.0312094,-0.0409883,0.00218898,447,520,-0.00693664,-0.0963071,131.844,133.132,131.817,133.173,5.84359e-05,4.96575e-05,0.000201101
-3.24718,7.54692,-295.767,0.000325054,0.00248854,0.0017983,-0.000223241,2.06181e-05,-4.27901e-05,2.79085e-05,-0.000230532,-1.40204,0.000245678,-0.344284,1.49337,-2.99657,-0.036885,-0.0320087,-0.0402792,0.00222801,454,520,-0.00817254,-0.09785,133.489,133.848,133.465,133.889,5.94797e-05,5.10961e-05,0.000204714
-2.95004,7.53507,-295.7,0.000273695,0.00250978,0.00160316,-0.000205727,2.6054e-05,-3.51341e-05,3.12628e-05,-0.000210936,-1.42362,0.000228179,-0.336219,1.48174,-3.07102,-0.0373674,-0.0315299,-0.0401479,0.00223671,461,520,-0.00803278,-0.0981472,135.258,134.554,135.237,134.595,5.95631e-05,5.29374e-05,0.000204823
-2.65103,7.5233,-295.626,0.000217083,0.00254827,0.00132781,-0.000184536,3.29306e-05,-2.713e-05,3.62641e-05,-0.00018787,-1.44854,0.000208382,-0.285998,1.52092,-3.13381,-0.0360044,-0.0295675,-0.0404201,0.00223757,468,520,-0.00746576,-0.0984276,137.138,135.26,137.12,135.304,5.90091e-05,5.41436e-05,0.0002027
-2.3497,7.51119,-295.542,0.00021462,0.0025463,0.00100249,-0.00016194,4.09305e-05,-1.81813e-05,4.2547e-05,-0.000163557,-1.48212,0.000188467,-0.253451,1.57262,-3.10551,-0.0355288,-0.0268815,-0.0400667,0.00220047,475,520,-0.005139,-0.0976273,139.156,135.994,139.14,136.039,5.76933e-05,5.43177e-05,0.000198028
-2.04771,7.49897,-295.456,0.000253345,0.00252635,0.00083974,-0.000138349,4.9263e-05,-8.34171e-06,4.96332e-05,-0.000138719,-1.52645,0.000169091,-0.249579,1.58468,-3.0861,-0.0359698,-0.0236871,-0.0387764,0.00218894,482,520,-0.00293889,-0.0965697,141.221,136.737,141.206,136.782,5.71846e-05,5.41568e-05,0.000196231
-1.74771,7.48687,-295.375,0.000289912,0.00249935,0.000942078,-0.00011352,5.68429e-05,2.99946e-06,5.68957e-05,-0.000113572,1.5532,0.000150325,-0.2611,1.54031,-3.07247,-0.0351873,-0.019991,-0.036838,0.00218394,489,520,-0.00269507,-0.0953361,143.185,137.469,143.168,137.513,5.69255e-05,5.42209e-05,0.000195165
-1.45057,7.47482,-295.304,0.000276464,0.00244464,0.00101899,-8.76608e-05,6.38205e-05,1.54514e-05,6.53805e-05,-8.92208e-05,1.47018,0.000134418,-0.287789,1.48426,-3.02956,-0.032741,-0.0160635,-0.034927,0.00218931,496,520,-0.00350421,-0.0939021,144.993,138.192,144.976,138.235,5.69638e-05,5.52558e-05,0.000195035
-1.15715,7.46304,-295.244,0.000178315,0.00240392,0.00115987,-6.33082e-05,7.00667e-05,2.90947e-05,7.61372e-05,-6.93787e-05,1.3651,0.000126066,-0.304388,1.43637,-3.07663,-0.0307329,-0.0126174,-0.0324629,0.00227565,503,520,-0.00692027,-0.092478,146.595,138.89,146.58,138.932,5.87179e-05,5.74834e-05,0.000200991
-0.864712,7.45121,-295.188,9.82373e-05,0.00238857,0.00114085,-4.28321e-05,7.58368e-05,4.3576e-05,9.01192e-05,-5.71145e-05,1.25407,0.000128572,-0.290336,1.41399,-3.1909,-0.0311621,-0.00995694,-0.0291492,0.00234092,510,520,-0.0087793,-0.0926994,148.146,139.589,148.133,139.63,6.11038e-05,5.89608e-05,0.000209053
-0.571139,7.4397,-295.126,5.58611e-05,0.00240649,0.00108404,-2.52094e-05,8.05044e-05,5.86707e-05,0.000106616,-5.13215e-05,1.15206,0.000139545,-0.287027,1.40692,-3.23884,-0.0329555,-0.00793114,-0.0257831,0.00242079,517,520,-0.00944254,-0.0928861,149.77,140.273,149.758,140.315,6.35175e-05,5.99708e-05,0.000217379
-0.276901,7.42785,-295.062,8.84494e-05,0.00247314,0.00105188,-1.03983e-05,8.35799e-05,7.37255e-05,0.000124017,-5.08359e-05,1.06911,0.000155786,-0.307115,1.38634,-3.29199,-0.0355747,-0.00579614,-0.0222586,0.00246303,524,520,-0.00842663,-0.0934217,151.44,140.976,151.428,141.021,6.49299e-05,6.01429e-05,0.000222015
0.0182583,7.41592,-294.993,0.000143383,0.0025298,0.00107993,2.26501e-06,8.48746e-05,8.9539e-05,0.000142177,-5.50371e-05,1.00151,0.000176262,-0.330956,1.37595,-3.289,-0.0386131,-0.00533207,-0.0169786,0.00246857,531,520,-0.00725021,-0.0930591,153.172,141.687,153.157,141.735,6.4301e-05,6.02185e-05,0.000219512
0.31319,7.40399,-294.924,0.000220883,0.00258532,0.00102683,1.09682e-05,8.53677e-05,0.000103867,0.000158496,-6.21596e-05,0.957356,0.00019707,-0.32051,1.37974,-3.15064,-0.0401497,-0.00504623,-0.0102453,0.00246009,538,520,-0.00494076,-0.0938057,154.897,142.398,154.881,142.449,6.30024e-05,6.13471e-05,0.000214436
0.607416,7.39213,-294.857,0.000290815,0.0026024,0.000903226,1.6974e-05,8.59347e-05,0.000116032,0.000172501,-6.95923e-05,0.929824,0.000215881,-0.323872,1.36152,-3.01054,-0.0403736,-0.00400714,-0.00335636,0.00239633,545,520,-0.00228129,-0.0934588,156.589,143.106,156.572,143.158,6.1379e-05,6.06417e-05,0.000208267
0.900395,7.38051,-294.793,0.000328291,0.00261291,0.000915711,2.00878e-05,8.68345e-05,0.000124769,0.000182617,-7.56943e-05,0.916079,0.000230003,-0.36413,1.35039,-2.74388,-0.0409173,-0.000951783,0.00282644,0.00238139,552,520,-0.00140459,-0.093444,158.216,143.799,158.198,143.851,6.2609e-05,5.99084e-05,0.000212122
1.19217,7.36876,-294.733,0.000317675,0.00260465,0.000860241,1.8364e-05,8.81158e-05,0.000128212,0.000186111,-7.96311e-05,0.918194,0.000236217,-0.433072,1.33973,-2.73141,-0.043324,0.00540874,0.00747792,0.00243088,559,520,-0.00125177,-0.0929845,159.778,144.496,159.76,144.548,6.56839e-05,5.85368e-05,0.00022235
1.48445,7.35715,-294.67,0.00027428,0.00258495,0.000886353,1.43871e-05,8.98839e-05,0.000124798,0.000182518,-7.82467e-05,0.932261,0.000231769,-0.462853,1.35128,-2.85304,-0.0503527,0.0159439,0.00995131,0.00249641,566,520,-0.00248361,-0.0916147,161.376,145.189,161.359,145.241,6.77364e-05,5.72781e-05,0.000229111
1.77693,7.3455,-294.605,0.000246403,0.00261668,0.000967811,1.31519e-05,9.26386e-05,0.000116353,0.000175849,-7.00586e-05,0.949973,0.000219433,-0.421607,1.33236,-3.02259,-0.0688375,0.0303391,0.00915622,0.00254153,573,520,-0.00377333,-0.0921617,162.995,145.883,162.978,145.937,6.94525e-05,5.64648e-05,0.000234107
0,0,0,0,0,0,0,0,0,0,0,0,0,0,0,0,0,0,0,-1,580,520,0,0,0,0,0,0,0,0,0
0,0,0,0,0,0,0,0,0,0,0,0,0,0,0,0,0,0,0,-1,587,520,0,0,0,0,0,0,0,0,0
0,0,0,0,0,0,0,0,0,0,0,0,0,0,0,0,0,0,0,-1,594,520,0,0,0,0,0,0,0,0,0
0,0,0,0,0,0,0,0,0,0,0,0,0,0,0,0,0,0,0,-1,601,520,0,0,0,0,0,0,0,0,0
0,0,0,0,0,0,0,0,0,0,0,0,0,0,0,0,0,0,0,-1,62,527,0,0,0,0,0,0,0,0,0
0,0,0,0,0,0,0,0,0,0,0,0,0,0,0,0,0,0,0,-1,69,527,0,0,0,0,0,0,0,0,0
0,0,0,0,0,0,0,0,0,0,0,0,0,0,0,0,0,0,0,-1,76,527,0,0,0,0,0,0,0,0,0
-18.953,7.91653,-298.145,0.000585222,0.00287984,-0.000556444,-0.000108856,4.87608e-05,2.04226e-05,5.1364e-05,-0.000111459,1.44401,0.000144174,-0.367174,1.48316,-3.37902,0.0100088,0.0434857,-0.0202146,0.0022309,83,527,0.0158032,-0.0705435,46.5276,97.4621,46.5109,97.5492,5.72408e-05,5.68431e-05,0.000202446
-18.6678,7.90509,-298.147,0.000580121,0.00287566,-0.000626283,-0.000100648,4.10412e-05,3.3235e-05,4.84496e-05,-0.000108056,1.35147,0.000138776,-0.383407,1.47705,-3.52519,-0.0020682,0.0435328,-0.0160455,0.00224863,90,527,0.0162329,-0.0716496,47.6115,98.0982,47.5955,98.1842,5.62364e-05,5.75249e-05,0.000198072
-18.3838,7.89346,-298.153,0.000553412,0.00287477,-0.000595027,-7.55814e-05,3.38059e-05,5.10637e-05,5.3938e-05,-9.57136e-05,1.19525,0.000131274,-0.415638,1.48491,-3.64101,-0.00658451,0.0425716,-0.0148635,0.00225344,97,527,0.0152959,-0.0729386,48.6311,98.7409,48.6158,98.8258,5.60136e-05,5.78452e-05,0.00019676
-18.1021,7.88174,-298.165,0.000500264,0.00286439,-0.000441131,-4.64422e-05,2.65216e-05,6.90306e-05,6.81176e-05,-8.80382e-05,1.02849,0.000135601,-0.456044,1.50893,-3.64809,-0.00456472,0.0404722,-0.0141257,0.00224799,104,527,0.0127204,-0.0738522,49.5347,99.3835,49.5199,99.4669,5.69974e-05,5.78633e-05,0.000199822
-17.8226,7.86968,-298.183,0.000462063,0.00284369,-0.000165732,-1.62472e-05,1.92062e-05,8.47791e-05,8.8092e-05,-8.51331e-05,0.88846,0.000150025,-0.49541,1.53356,-3.77294,0.00261741,0.0378496,-0.0127004,0.00223173,111,527,0.00954959,-0.0734802,50.3244,100.038,50.3089,100.12,5.83957e-05,5.73153e-05,0.000204539
-17.5437,7.85781,-298.203,0.000447247,0.00286312,0.000261148,1.40167e-05,1.20797e-05,9.78679e-05,0.000110921,-8.48245e-05,0.78045,0.000170022,-0.490381,1.5407,-3.81691,0.0126918,0.0352365,-0.0106784,0.00222642,118,527,0.00568757,-0.0738803,51.0872,100.679,51.0692,100.762,5.89033e-05,5.60761e-05,0.000205896
-17.263,7.84602,-298.217,0.000492128,0.00293967,0.000736226,4.32961e-05,5.41731e-06,0.000108078,0.000134081,-8.53677e-05,0.698659,0.000191603,-0.453751,1.52807,-3.82555,0.0239745,0.0327209,-0.00823805,0.00219907,125,527,0.00285862,-0.0752011,51.9323,101.318,51.9097,101.403,5.83418e-05,5.6038e-05,0.000204176
-16.9804,7.83392,-298.226,0.00057315,0.00303458,0.00111667,6.91494e-05,-6.12591e-07,0.000114488,0.000153952,-8.54155e-05,0.637531,0.000210112,-0.413421,1.51882,-3.69301,0.0350963,0.0301037,-0.00531471,0.00219366,132,527,0.0016768,-0.0773665,52.8711,101.978,52.8434,102.066,5.78775e-05,5.6274e-05,0.00020301
-16.694,7.82185,-298.222,0.000647515,0.00314583,0.00142287,9.0011e-05,-5.9906e-06,0.0001172,0.000168659,-8.46383e-05,0.591036,0.000223348,-0.387152,1.47677,-3.6105,0.0433366,0.0271359,-0.00230809,0.00218956,139,527,0.000939593,-0.0793607,53.986,102.644,53.9539,102.735,5.83531e-05,5.63008e-05,0.000204688
-16.4043,7.80974,-298.209,0.000624593,0.00324169,0.0016077,0.000109034,-9.87022e-06,0.000116593,0.000180458,-8.1294e-05,0.549625,0.000232043,-0.356403,1.45549,-3.44845,0.0494275,0.0239881,-0.000358574,0.00221942,146,527,-0.00118416,-0.0816784,55.2596,103.321,55.2267,103.415,5.92965e-05,5.6065e-05,0.000207574
-16.1126,7.79767,-298.188,0.000601629,0.00326139,0.00186832,0.000124279,-1.22007e-05,0.00011323,0.000188242,-7.61638e-05,0.514208,0.00023574,-0.294169,1.43352,-3.39636,0.0529617,0.0211669,0.000437605,0.0022436,153,527,-0.00383094,-0.0821686,56.6289,104.003,56.5948,104.097,5.99886e-05,5.53125e-05,0.000209351
-15.8199,7.78548,-298.165,0.000629923,0.00324122,0.00228346,0.000132386,-1.34587e-05,0.000107217,0.00018913,-7.0202e-05,0.486763,0.000232327,-0.236116,1.44031,-3.45636,0.0531216,0.0185874,0.000566783,0.00223813,160,527,-0.00641023,-0.0817947,58.0482,104.695,58.0105,104.788,5.98871e-05,5.42977e-05,0.000208788
-15.5256,7.77342,-298.136,0.000666798,0.00325475,0.00285077,0.000131964,-1.43589e-05,9.80531e-05,0.000181142,-6.35372e-05,0.464885,0.000219906,-0.202485,1.45931,-3.52629,0.048876,0.0160804,0.000286665,0.00218076,167,527,-0.0100172,-0.0821688,59.5505,105.383,59.5077,105.477,5.86388e-05,5.34488e-05,0.000203965
-15.2295,7.76111,-298.101,0.000674795,0.00329543,0.00336188,0.000125097,-1.55035e-05,8.65156e-05,0.000166274,-5.668e-05,0.444217,0.000200709,-0.198913,1.44853,-3.52394,0.0405638,0.0138612,-0.000207139,0.00216801,174,527,-0.0138921,-0.0832495,61.1372,106.089,61.0905,106.183,5.83782e-05,5.38527e-05,0.000202658
-14.9322,7.74875,-298.061,0.000669931,0.00338459,0.00389015,0.000115275,-1.77522e-05,7.42647e-05,0.000148457,-5.09347e-05,0.420201,0.000179431,-0.187909,1.45621,-3.44042,0.0287926,0.0119522,-0.000845765,0.00214303,181,527,-0.0182461,-0.0850223,62.7864,106.799,62.736,106.896,5.76546e-05,5.32471e-05,0.000200249
-14.6325,7.73618,-298.014,0.000646745,0.0034607,0.00435775,0.000106066,-2.12604e-05,6.29544e-05,0.000131937,-4.71307e-05,0.389899,0.00016077,-0.172042,1.48441,-3.30189,0.0144136,0.0106735,-0.00121789,0.00211947,188,527,-0.02252,-0.085462,64.5503,107.524,64.497,107.625,5.68312e-05,5.31948e-05,0.000196789
-14.3308,7.7238,-297.96,0.000619015,0.00347994,0.00486754,9.7681e-05,-2.63627e-05,5.32208e-05,0.000117385,-4.6067e-05,0.354588,0.000145976,-0.19833,1.4953,-3.23224,-0.00104806,0.0100811,-0.00065118,0.00209806,195,527,-0.0271582,-0.0841625,66.4181,108.247,66.3617,108.349,5.57173e-05,5.2833e-05,0.000192591
-14.0278,7.71168,-297.901,0.000590013,0.00345064,0.0052194,8.9906e-05,-3.28807e-05,4.49315e-05,0.000104591,-4.75661e-05,0.315896,0.000134822,-0.237919,1.44193,-3.17546,-0.0164928,0.0102117,0.000982782,0.00208767,202,527,-0.0305276,-0.0830782,68.352,108.963,68.2938,109.064,5.48094e-05,5.28634e-05,0.000189146
-13.7264,7.69975,-297.847,0.000555164,0.00341758,0.00531932,8.22971e-05,-4.08269e-05,3.73469e-05,9.27397e-05,-5.12696e-05,0.27265,0.000126428,-0.27723,1.39643,-3.07875,-0.0317028,0.0107897,0.0036226,0.00214052,209,527,-0.0320422,-0.0825215,70.205,109.666,70.1471,109.766,5.60095e-05,5.38735e-05,0.000193252
-13.4275,7.68782,-297.8,0.000481695,0.00336059,0.00503064,7.62201e-05,-5.045e-05,2.86414e-05,8.23952e-05,-5.66251e-05,0.21235,0.000121083,-0.318332,1.36534,-3.00568,-0.045507,0.0114571,0.007235,0.0021865,216,527,-0.0314358,-0.0828022,71.9318,110.365,71.878,110.462,5.73726e-05,5.48225e-05,0.000197518
-13.1306,7.67607,-297.759,0.000406079,0.0033509,0.00482546,7.38777e-05,-6.11605e-05,1.78495e-05,7.61972e-05,-6.348e-05,0.129225,0.000121131,-0.363978,1.40381,-2.9158,-0.0560265,0.0120874,0.0114191,0.00218259,223,527,-0.0315902,-0.0834221,73.5566,111.047,73.5063,111.144,5.71147e-05,5.54359e-05,0.000196791
-12.8352,7.66413,-297.721,0.000426311,0.00337321,0.00462172,7.32101e-05,-7.21359e-05,4.768e-06,7.33664e-05,-7.22921e-05,0.0327575,0.000126145,-0.39539,1.4386,-2.80512,-0.0619608,0.01286,0.0158255,0.00216353,230,527,-0.0294491,-0.0857675,75.1109,111.736,75.0615,111.832,5.63201e-05,5.49073e-05,0.000195176
-12.5414,7.65193,-297.688,0.000549619,0.00341667,0.00475988,7.3473e-05,-8.20669e-05,-1.02938e-05,7.41513e-05,-8.27452e-05,-0.0657989,0.000135944,-0.421087,1.44665,-2.5586,-0.0633017,0.0135471,0.019934,0.00223577,237,527,-0.0274679,-0.0884346,76.5878,112.435,76.5339,112.53,5.68351e-05,5.65887e-05,0.000198012
-12.2472,7.63989,-297.654,0.000713215,0.00351716,0.00491735,7.37179e-05,-9.00899e-05,-2.64547e-05,7.78843e-05,-9.42563e-05,-0.156209,0.000149303,-0.424384,1.44933,-2.4318,-0.060761,0.0136903,0.0232217,0.00232054,244,527,-0.0246836,-0.0916185,78.0914,113.124,78.0315,113.221,5.95774e-05,5.80004e-05,0.000207963
-11.9517,7.62778,-297.614,0.000751084,0.00357765,0.00485773,7.3219e-05,-9.65358e-05,-4.33533e-05,8.36499e-05,-0.000106967,-0.236116,0.00016549,-0.437109,1.46711,-2.57535,-0.05572,0.0131892,0.026339,0.00235927,251,527,-0.0232537,-0.0933273,79.6544,113.82,79.5937,113.919,6.23318e-05,5.86303e-05,0.000217624
-11.6548,7.61563,-297.57,0.00073162,0.00358938,0.00468403,7.33181e-05,-0.00010132,-6.07793e-05,9.23886e-05,-0.000120391,-0.304038,0.000184804,-0.444231,1.49413,-2.78243,-0.0490629,0.0114453,0.0291118,0.0023229,258,527,-0.0222886,-0.0928657,81.2868,114.524,81.2277,114.624,6.20739e-05,5.8114e-05,0.000216746
-11.3565,7.6038,-297.521,0.000656494,0.00352585,0.00439529,7.23163e-05,-0.000104543,-7.86553e-05,0.000102235,-0.000134463,-0.363482,0.000205619,-0.45491,1.52238,-3.03533,-0.0404611,0.00932609,0.0309139,0.00223492,265,527,-0.0217483,-0.091589,82.9911,115.218,82.9362,115.316,5.84909e-05,5.66983e-05,0.000204801
-11.0561,7.59201,-297.464,0.000640068,0.00345362,0.00433802,6.58621e-05,-0.000106398,-9.72785e-05,0.000109661,-0.000150197,-0.423055,0.000225954,-0.472445,1.53679,-3.15418,-0.0297631,0.00698889,0.030938,0.00216527,272,527,-0.0215582,-0.09065,84.812,115.917,84.758,116.012,5.54493e-05,5.51782e-05,0.000193308
-10.7532,7.57993,-297.398,0.000712285,0.0033835,0.00446112,5.26929e-05,-0.000107793,-0.000115686,0.000113242,-0.000168342,-0.482181,0.00024541,-0.503838,1.54607,-3.20814,-0.0170258,0.00427066,0.0298105,0.00212676,279,527,-0.0205615,-0.0890936,86.764,116.637,86.7072,116.73,5.53278e-05,5.39383e-05,0.000191603
-10.4509,7.56747,-297.334,0.000779472,0.0033488,0.00452006,3.62509e-05,-0.000108889,-0.000132524,0.000114774,-0.000187412,-0.5349,0.000264209,-0.5133,1.55636,-3.16537,-0.00233813,0.00143161,0.0289099,0.00210497,286,527,-0.0192333,-0.0888501,88.6885,117.376,88.6292,117.467,5.5139e-05,5.3016e-05,0.000190558
-10.151,7.55507,-297.276,0.000835881,0.00330803,0.00459916,2.04303e-05,-0.000109548,-0.000147142,0.000116297,-0.000205415,-0.577443,0.000282151,-0.510874,1.54451,-3.10802,0.0121246,-0.00122972,0.0285006,0.0020882,293,527,-0.0183155,-0.0884133,90.4968,118.106,90.4354,118.196,5.49503e-05,5.33034e-05,0.000190011
-9.85356,7.54287,-297.227,0.000866833,0.00325778,0.00460164,6.19656e-06,-0.000110594,-0.000160276,0.000118383,-0.000222781,-0.6107,0.000300033,-0.497766,1.49086,-3.0758,0.0253751,-0.00313156,0.0287321,0.00204994,300,527,-0.0174308,-0.0880449,92.1731,118.82,92.1108,118.907,5.27798e-05,5.30091e-05,0.000182829
-9.55622,7.53094,-297.176,0.000862522,0.00326148,0.00453372,-8.468e-06,-0.00011031,-0.000170549,0.000118599,-0.000237377,-0.640326,0.000313953,-0.497023,1.49891,-3.08239,0.0368507,-0.00463146,0.0287849,0.00200373,307,527,-0.0169492,-0.0896019,93.8481,119.519,93.7864,119.605,5.21799e-05,5.1748e-05,0.000180598
-9.25419,7.51867,-297.11,0.000882067,0.00325761,0.00448011,-2.47375e-05,-0.000109386,-0.00017828,0.000116173,-0.000250297,-0.668854,0.00032438,-0.494274,1.54767,-3.088,0.0479435,-0.00577202,0.0292615,0.00201969,314,527,-0.0159888,-0.091622,95.7724,120.25,95.7106,120.334,5.32763e-05,5.04223e-05,0.000183845
-8.94243,7.50667,-297.011,0.000875166,0.00323445,0.00432512,-4.2529e-05,-0.000106962,-0.000183126,0.000111192,-0.000260683,-0.698326,0.000330614,-0.484279,1.59965,-2.9821,0.0587669,-0.00661785,0.0301128,0.00204954,321,527,-0.0148781,-0.0919751,98.2114,120.994,98.1509,121.077,5.3918e-05,4.92088e-05,0.000185805
-8.6233,7.49455,-296.887,0.000886957,0.00318011,0.0039273,-6.20819e-05,-0.00010236,-0.000185129,0.000104,-0.000268442,-0.731219,0.000332859,-0.455525,1.58622,-2.8973,0.0675895,-0.00740528,0.0309355,0.00213987,328,527,-0.0114466,-0.0926906,101.046,121.767,100.988,121.846,5.50752e-05,5.18295e-05,0.000190371
-8.30377,7.48255,-296.761,0.000973792,0.00316847,0.00371737,-8.01539e-05,-9.54636e-05,-0.000185354,9.77035e-05,-0.000273321,-0.764761,0.000333099,-0.404047,1.55797,-2.74096,0.0739717,-0.00824319,0.0303581,0.00235364,335,527,-0.00763028,-0.0944547,103.915,122.534,103.857,122.612,5.9548e-05,5.67549e-05,0.000206589
-7.99106,7.47076,-296.656,0.00104714,0.00311368,0.00361346,-9.57544e-05,-8.70457e-05,-0.000184171,9.28224e-05,-0.000275623,-0.797217,0.000331915,-0.333434,1.57731,-2.68634,0.0796673,-0.00879486,0.0273432,0.00247668,342,527,-0.00491461,-0.0956186,106.434,123.276,106.374,123.35,6.30287e-05,5.92577e-05,0.000218861
0,0,0,0,0,0,0,0,0,0,0,0,0,0,0,0,0,0,0,-1,349,527,0,0,0,0,0,0,0,0,0
-7.43039,7.44699,-296.657,0.00110325,0.00285928,0.00355455,-0.000131764,-6.59582e-05,-0.000179572,8.37001e-05,-0.000281422,-0.876008,0.000331299,-0.314592,1.62511,-2.83474,0.0912714,-0.00984053,0.017891,0.00233367,356,527,-0.00269042,-0.0932146,108.037,124.592,107.976,124.655,6.09456e-05,5.65844e-05,0.00021161
-7.14671,7.43487,-296.646,0.00104026,0.00275864,0.0034401,-0.000152321,-5.39782e-05,-0.000175046,7.86714e-05,-0.000284971,-0.922322,0.000331386,-0.303746,1.6013,-2.96781,0.0936194,-0.0106957,0.0125238,0.00226946,363,527,-0.00321295,-0.0907254,109.012,125.27,108.954,125.33,5.91433e-05,5.6493e-05,0.000204937
-6.85793,7.42275,-296.617,0.000966841,0.00268525,0.0033765,-0.000169909,-4.21878e-05,-0.000168284,7.39451e-05,-0.000286042,-0.966745,0.000329301,-0.293297,1.57766,-2.93419,0.0927605,-0.0117362,0.00612598,0.00217166,370,527,-0.00441315,-0.0889929,110.261,125.962,110.206,126.019,5.64792e-05,5.51344e-05,0.000195412
-6.56397,7.41101,-296.571,0.000903254,0.0026827,0.00332983,-0.000183745,-3.1131e-05,-0.00015888,6.88161e-05,-0.000283692,-1.00927,0.000323635,-0.283001,1.56251,-2.87495,0.0903712,-0.0125637,-0.000541302,0.00212508,377,527,-0.0055857,-0.0896697,111.792,126.646,111.739,126.703,5.48287e-05,5.40648e-05,0.000189542
-6.26195,7.39948,-296.497,0.000854946,0.00269689,0.0032586,-0.000197527,-2.11562e-05,-0.000148528,6.33929e-05,-0.000282077,-1.0533,0.00031854,-0.2847,1.57874,-2.86732,0.0854954,-0.0131294,-0.00727919,0.00206237,384,527,-0.00624443,-0.0927461,113.761,127.346,113.71,127.401,5.2977e-05,5.25052e-05,0.000182755
-5.95568,7.38768,-296.408,0.000847919,0.002718,0.00330872,-0.000214687,-1.34559e-05,-0.00013805,5.67538e-05,-0.000284896,-1.10031,0.000317105,-0.295241,1.59623,-2.82257,0.0767258,-0.0136127,-0.0139303,0.00204167,391,527,-0.00679394,-0.0966179,115.969,128.073,115.917,128.126,5.2215e-05,5.1584e-05,0.000179798
-5.6474,7.3757,-296.311,0.000829459,0.00274625,0.00315817,-0.000232474,-8.45698e-06,-0.00012772,4.9412e-05,-0.000290343,-1.14537,0.000317942,-0.302142,1.55212,-2.76112,0.0648619,-0.0145764,-0.020328,0.00198981,398,527,-0.00612051,-0.0987936,118.291,128.814,118.241,128.866,5.16754e-05,4.97538e-05,0.000177939
-5.33908,7.36403,-296.213,0.00079817,0.00274816,0.00283881,-0.000244318,-6.38146e-06,-0.000116944,4.14715e-05,-0.000292171,-1.18239,0.000314961,-0.282031,1.54413,-2.65331,0.0502981,-0.0167065,-0.0267631,0.00194256,405,527,-0.00448002,-0.0992041,120.623,129.54,120.577,129.592,5.12567e-05,4.76421e-05,0.000176653
-5.03175,7.3524,-296.117,0.000723367,0.00270504,0.00240813,-0.000251069,-5.99224e-06,-0.000106242,3.36511e-05,-0.000290713,-1.21365,0.000308916,-0.274735,1.57909,-2.57493,0.0350914,-0.0194931,-0.031915,0.00195067,412,527,-0.00307006,-0.0984575,122.907,130.263,122.866,130.314,5.20698e-05,4.64608e-05,0.000179575
-4.73104,7.34026,-296.043,0.000704074,0.00261564,0.00208923,-0.000255085,-5.67102e-06,-9.61685e-05,2.71028e-05,-0.000287858,-1.24234,0.000302322,-0.308804,1.58702,-2.64119,0.0193207,-0.0229019,-0.035541,0.00201379,419,527,-0.00107494,-0.0977414,124.839,130.997,124.801,131.045,5.37627e-05,4.59939e-05,0.000185373
-4.43387,7.3278,-295.98,0.000699243,0.00254201,0.00204912,-0.000257402,-4.53852e-06,-8.67094e-05,2.23382e-05,-0.000284279,-1.27022,0.000296081,-0.306106,1.56505,-2.76725,0.00441453,-0.0265556,-0.0380599,0.00211623,426,527,-0.000786289,-0.0968402,126.583,131.738,126.546,131.782,5.63112e-05,4.62849e-05,0.000193874
-4.13974,7.31575,-295.926,0.000624563,0.00251672,0.00203112,-0.000255867,-2.60321e-06,-7.74417e-05,1.91996e-05,-0.00027767,-1.29636,0.00028775,-0.270521,1.52554,-2.70807,-0.00874262,-0.0300374,-0.0402692,0.00214343,433,527,-0.00245985,-0.0965569,128.165,132.447,128.131,132.49,5.68234e-05,4.65643e-05,0.000195464
-3.84739,7.30369,-295.878,0.00053856,0.00250127,0.00207849,-0.00025108,1.01617e-07,-6.81106e-05,1.73818e-05,-0.00026836,-1.32233,0.000277459,-0.236783,1.4964,-2.80215,-0.0199254,-0.0330705,-0.0416647,0.00219819,440,527,-0.00491874,-0.0971583,129.654,133.151,129.621,133.193,5.82371e-05,4.80526e-05,0.00020025
-3.55444,7.29159,-295.827,0.000426286,0.00253268,0.00194072,-0.000244986,4.00947e-06,-5.93889e-05,1.74492e-05,-0.000258425,-1.34825,0.000267577,-0.261949,1.49158,-2.89971,-0.0283644,-0.0351915,-0.0419947,0.0022654,447,527,-0.00673388,-0.0984835,131.177,133.859,131.149,133.901,6.03522e-05,5.07784e-05,0.000207668
-3.2599,7.27961,-295.77,0.000341221,0.00257427,0.00178267,-0.000234596,9.10275e-06,-5.19444e-05,1.97128e-05,-0.000245206,-1.36931,0.000255633,-0.318921,1.47839,-3.01996,-0.0334163,-0.0356918,-0.0425587,0.00231092,454,527,-0.00773736,-0.100101,132.795,134.565,132.77,134.609,6.15852e-05,5.24977e-05,0.000212068
-2.96289,7.26807,-295.703,0.000297758,0.00259846,0.00161019,-0.000217804,1.50785e-05,-4.54763e-05,2.36439e-05,-0.000226369,-1.38463,0.00023907,-0.335191,1.47514,-2.99047,-0.0350823,-0.0349698,-0.0435156,0.00228198,461,527,-0.00756079,-0.100074,134.557,135.256,134.535,135.301,6.09046e-05,5.34104e-05,0.000209666
-2.66379,7.25654,-295.629,0.000256291,0.00258381,0.00137272,-0.000197251,2.26431e-05,-3.85136e-05,2.91935e-05,-0.000203802,-1.40233,0.000219857,-0.302105,1.52199,-2.94725,-0.0350557,-0.0327063,-0.044766,0.00223664,468,527,-0.00683155,-0.099297,136.443,135.955,136.424,136,5.96864e-05,5.35674e-05,0.000205323
-2.3621,7.24463,-295.544,0.000260897,0.00252283,0.00108137,-0.000175102,3.13852e-05,-3.01968e-05,3.57106e-05,-0.000179428,-1.42852,0.000199692,-0.236367,1.5858,-2.90652,-0.0361937,-0.0298165,-0.0452786,0.00220982,475,527,-0.00451462,-0.0976521,138.482,136.685,138.464,136.728,5.85443e-05,5.38822e-05,0.00020129
-2.05981,7.23261,-295.457,0.000254392,0.00248174,0.000887114,-0.00015196,4.02905e-05,-2.04142e-05,4.24343e-05,-0.000154104,-1.46617,0.000179131,-0.220751,1.58749,-2.88308,-0.038744,-0.0264525,-0.0447117,0.00221506,482,527,-0.00320402,-0.0961242,140.563,137.422,140.547,137.465,5.83469e-05,5.39654e-05,0.000200392
-1.76033,7.22043,-295.378,0.000256642,0.00245075,0.000949302,-0.000127719,4.8305e-05,-8.60664e-06,4.87249e-05,-0.000128139,-1.52206,0.000158231,-0.241222,1.52297,-2.85983,-0.0401775,-0.0226354,-0.0433104,0.00221245,489,527,-0.00352672,-0.0943545,142.496,138.16,142.48,138.203,5.8192e-05,5.39826e-05,0.000199437
-1.46374,7.20817,-295.308,0.000252703,0.00241267,0.00104723,-0.000102544,5.54628e-05,4.72011e-06,5.56037e-05,-0.000102685,1.54096,0.000139088,-0.268967,1.46839,-2.83657,-0.0391748,-0.018786,-0.0415537,0.00221649,496,527,-0.00425993,-0.0929694,144.272,138.895,144.255,138.937,5.8094e-05,5.43165e-05,0.000198619
-1.17105,7.19671,-295.252,0.000214774,0.00238344,0.00121097,-7.8671e-05,6.1648e-05,1.95582e-05,6.43231e-05,-8.13461e-05,1.43486,0.00012644,-0.296534,1.41069,-2.87846,-0.0377203,-0.015763,-0.0388505,0.00226364,503,527,-0.00633018,-0.0918677,145.835,139.576,145.818,139.617,5.87625e-05,5.60094e-05,0.000200731
-0.879128,7.18527,-295.197,0.000190918,0.0023541,0.00111823,-5.81542e-05,6.72269e-05,3.54951e-05,7.6578e-05,-6.75053e-05,1.3132,0.000124862,-0.310418,1.37224,-3.03469,-0.03856,-0.0138097,-0.0351409,0.00230084,510,527,-0.00622712,-0.0919773,147.358,140.255,147.343,140.295,6.0323e-05,5.75527e-05,0.000206158
-0.585574,7.17392,-295.136,0.000191136,0.00237003,0.000930141,-3.98877e-05,7.16078e-05,5.22745e-05,9.22828e-05,-6.05627e-05,1.19417,0.000133315,-0.33356,1.37379,-3.20303,-0.041146,-0.0126501,-0.0314694,0.00236559,517,527,-0.00488315,-0.0927063,148.981,140.934,148.967,140.974,6.20535e-05,5.88176e-05,0.000212298
-0.290999,7.16215,-295.07,0.000218131,0.00242368,0.000752039,-2.36613e-05,7.43971e-05,6.9079e-05,0.000110078,-5.9342e-05,1.09402,0.000148899,-0.35112,1.38176,-3.35802,-0.0445887,-0.0115486,-0.0278679,0.0024419,524,527,-0.00297043,-0.0936885,150.669,141.637,150.655,141.679,6.33723e-05,5.95939e-05,0.000216855
0.00478651,7.15028,-294.999,0.00025412,0.00249784,0.000727093,-9.73603e-06,7.56086e-05,8.65857e-05,0.000129466,-6.35936e-05,1.01435,0.000170408,-0.362399,1.4022,-3.42957,-0.0478439,-0.0123041,-0.0225105,0.00245948,531,527,-0.001931,-0.0943835,152.435,142.349,152.421,142.394,6.30084e-05,6.01993e-05,0.000215261
0.300521,7.13846,-294.927,0.000283519,0.00257345,0.000698081,2.33316e-07,7.62575e-05,0.000102106,0.000147197,-7.07066e-05,0.96359,0.000192547,-0.334904,1.41295,-3.30982,-0.0494771,-0.0134549,-0.01593,0.00243356,538,527,-0.00103465,-0.0953493,154.206,143.059,154.191,143.108,6.14791e-05,6.11147e-05,0.000209324
0.595418,7.12669,-294.857,0.000298305,0.00260372,0.000668454,7.91588e-06,7.72086e-05,0.000114987,0.000162655,-7.75309e-05,0.931726,0.000212317,-0.320516,1.38584,-3.1153,-0.04989,-0.0140088,-0.0094766,0.00238735,545,527,-0.000448789,-0.0947701,155.936,143.766,155.92,143.817,5.94375e-05,6.06392e-05,0.000201746
0.888886,7.1151,-294.792,0.000309299,0.00258603,0.000675337,1.36684e-05,7.86917e-05,0.000124208,0.000174573,-8.22124e-05,0.913402,0.000227127,-0.35491,1.36363,-2.78227,-0.0506693,-0.0127912,-0.00410363,0.00234342,552,527,-0.000173803,-0.0937356,157.591,144.463,157.575,144.513,6.03626e-05,5.94539e-05,0.000204512
1.18103,7.10341,-294.73,0.000283657,0.00254938,0.00066813,1.58205e-05,8.0464e-05,0.000127987,0.000180147,-8.38626e-05,0.909082,0.000233652,-0.414083,1.34854,-2.78848,-0.0533596,-0.00858913,-0.000519358,0.00235194,559,527,-0.000710709,-0.0923043,159.174,145.161,159.159,145.211,6.35057e-05,5.78184e-05,0.00021495
1.47393,7.09189,-294.665,0.00020918,0.00252878,0.000712486,1.71735e-05,8.22982e-05,0.000124603,0.000178524,-7.90521e-05,0.913204,0.000228545,-0.433791,1.36372,-2.88376,-0.0611396,-0.00070854,0.000963977,0.00243966,566,527,-0.00285258,-0.0901083,160.809,145.853,160.795,145.904,6.59873e-05,5.68348e-05,0.000223354
1.76641,7.08027,-294.601,0.00014103,0.00256629,0.000861518,2.42131e-05,8.44205e-05,0.00011557,0.000173743,-6.51093e-05,0.912807,0.000213865,-0.4132,1.34315,-3.05749,-0.081904,0.0105392,-0.000387176,0.00248275,573,527,-0.00563582,-0.0898423,162.427,146.547,162.414,146.601,6.75963e-05,5.59094e-05,0.000227922
0,0,0,0,0,0,0,0,0,0,0,0,0,0,0,0,0,0,0,-1,580,527,0,0,0,0,0,0,0,0,0
0,0,0,0,0,0,0,0,0,0,0,0,0,0,0,0,0,0,0,-1,587,527,0,0,0,0,0,0,0,0,0
0,0,0,0,0,0,0,0,0,0,0,0,0,0,0,0,0,0,0,-1,594,527,0,0,0,0,0,0,0,0,0
0,0,0,0,0,0,0,0,0,0,0,0,0,0,0,0,0,0,0,-1,601,527,0,0,0,0,0,0,0,0,0
0,0,0,0,0,0,0,0,0,0,0,0,0,0,0,0,0,0,0,-1,62,534,0,0,0,0,0,0,0,0,0
0,0,0,0,0,0,0,0,0,0,0,0,0,0,0,0,0,0,0,-1,69,534,0,0,0,0,0,0,0,0,0
0,0,0,0,0,0,0,0,0,0,0,0,0,0,0,0,0,0,0,-1,76,534,0,0,0,0,0,0,0,0,0
-18.9744,7.64468,-298.173,0.000508181,0.0028698,-0.000739043,-0.000124842,5.31541e-05,3.0279e-05,5.81639e-05,-0.000129852,1.40683,0.000166725,-0.377312,1.49239,-3.41698,0.00211131,0.0420377,-0.0267155,0.00231329,83,534,0.0154297,-0.0708337,45.3963,98.3413,45.383,98.4279,5.74434e-05,5.9092e-05,0.000203561
-18.6904,7.63323,-298.178,0.000503629,0.00289932,-0.000733557,-0.000112229,4.17856e-05,4.24732e-05,5.2722e-05,-0.000123166,1.31878,0.000156342,-0.366429,1.49244,-3.49204,-0.00960784,0.0433653,-0.022077,0.00231183,90,534,0.0152149,-0.0726074,46.4209,98.9719,46.4077,99.0584,5.65934e-05,5.91025e-05,0.000199551
-18.4072,7.62161,-298.186,0.000482286,0.00289646,-0.000640692,-8.38776e-05,3.24792e-05,6.00196e-05,5.78896e-05,-0.000109288,1.17031,0.000147043,-0.382848,1.4948,-3.53299,-0.0140289,0.043581,-0.0195277,0.00228702,97,534,0.013896,-0.0743457,47.4023,99.6118,47.3893,99.6966,5.64948e-05,5.86077e-05,0.000198713
-18.1252,7.60988,-298.197,0.000450329,0.00289229,-0.000470064,-5.19054e-05,2.44804e-05,7.75463e-05,7.2729e-05,-0.000100154,1.01422,0.000150348,-0.400257,1.50057,-3.48715,-0.0125552,0.0423232,-0.0172617,0.00226906,104,534,0.011696,-0.0753073,48.3184,100.253,48.3053,100.337,5.7727e-05,5.82651e-05,0.000202374
-17.8444,7.598,-298.212,0.00043765,0.00286322,-0.000266516,-1.93613e-05,1.74794e-05,9.24331e-05,9.33098e-05,-9.51916e-05,0.883751,0.00016325,-0.43525,1.49464,-3.60243,-0.00593469,0.0399769,-0.014575,0.0022425,111,534,0.0097424,-0.0749373,49.1748,100.899,49.1607,100.981,5.82842e-05,5.75644e-05,0.000203961
-17.5642,7.58606,-298.228,0.000417378,0.00286429,7.3929e-05,1.30561e-05,1.13271e-05,0.000104331,0.000116526,-9.21427e-05,0.781255,0.000181123,-0.439874,1.49238,-3.64714,0.00417529,0.0370818,-0.0115047,0.00220176,118,534,0.00646239,-0.0753411,49.9959,101.546,49.9801,101.628,5.81277e-05,5.61521e-05,0.000202831
-17.2829,7.57426,-298.241,0.000457468,0.00291904,0.000520112,4.45229e-05,6.0742e-06,0.000113201,0.000140121,-8.95237e-05,0.701289,0.00020048,-0.415379,1.50545,-3.67548,0.0161852,0.0338513,-0.00813926,0.00218295,125,534,0.0037646,-0.0765352,50.8746,102.187,50.8545,102.27,5.72482e-05,5.56707e-05,0.000200118
-16.9993,7.56223,-298.246,0.000540058,0.00301745,0.000908532,7.23938e-05,1.7796e-06,0.000118289,0.000160533,-8.63593e-05,0.640367,0.000217007,-0.387148,1.5207,-3.56918,0.0283431,0.0302771,-0.00440774,0.00216419,132,534,0.00254634,-0.0789113,51.8561,102.844,51.831,102.929,5.67031e-05,5.55564e-05,0.000198957
-16.7118,7.5502,-298.239,0.000608512,0.00314578,0.00123356,9.48395e-05,-1.99842e-06,0.000119856,0.000175688,-8.28465e-05,0.593434,0.000228659,-0.375513,1.50325,-3.5688,0.0375908,0.0264193,-0.000854918,0.00215292,139,534,0.00149503,-0.0809021,53.028,103.508,52.9984,103.599,5.72097e-05,5.53366e-05,0.000200989
-16.4205,7.53814,-298.221,0.000589648,0.00323705,0.00147281,0.00011503,-3.90365e-06,0.000118227,0.000187904,-7.67773e-05,0.552381,0.000235858,-0.364495,1.49008,-3.51346,0.044835,0.0224129,0.00135231,0.00217718,146,534,-0.000961242,-0.082677,54.38,104.186,54.3491,104.279,5.83298e-05,5.46237e-05,0.000204354
-16.127,7.52612,-298.195,0.000549266,0.00326638,0.00174961,0.00013108,-4.06094e-06,0.000114204,0.000196206,-6.91867e-05,0.518264,0.00023845,-0.347495,1.46925,-3.5305,0.0497197,0.0187211,0.00224515,0.00220649,153,534,-0.00417091,-0.0828411,55.8414,104.869,55.8097,104.963,5.91925e-05,5.34959e-05,0.000206694
-15.8323,7.51389,-298.165,0.000550812,0.00325392,0.00216547,0.000139817,-3.17543e-06,0.000108062,0.000197894,-6.12517e-05,0.493146,0.000234595,-0.292823,1.44757,-3.58721,0.0513818,0.0152599,0.00243405,0.00218409,160,534,-0.00742398,-0.0826793,57.3591,105.568,57.3245,105.661,5.85249e-05,5.16529e-05,0.000204434
-15.5362,7.50189,-298.131,0.000573099,0.00327475,0.00277199,0.000139948,-2.258e-06,9.9372e-05,0.000191035,-5.33451e-05,0.474864,0.000222556,-0.24353,1.44001,-3.56694,0.0487118,0.0120009,0.00205271,0.00213185,167,534,-0.0117199,-0.0836014,58.9472,106.258,58.9076,106.352,5.73411e-05,5.14994e-05,0.00019945
-15.2386,7.48967,-298.091,0.00061367,0.00332818,0.00343156,0.000133653,-2.08905e-06,8.89021e-05,0.00017763,-4.60664e-05,0.459376,0.000204591,-0.204954,1.44067,-3.49833,0.0417042,0.00926686,0.00125077,0.00209099,174,534,-0.0159954,-0.0847813,60.6141,106.963,60.5686,107.058,5.62748e-05,5.25515e-05,0.000195578
-14.9398,7.47746,-298.047,0.000631904,0.00338842,0.00399506,0.000124805,-3.53682e-06,7.80562e-05,0.000161682,-4.04138e-05,0.441358,0.000185226,-0.179771,1.45798,-3.42284,0.0306464,0.00705874,0.000134409,0.00205269,181,534,-0.0200392,-0.0863805,62.3365,107.671,62.2864,107.766,5.49099e-05,5.26778e-05,0.000190936
-14.6385,7.46507,-297.995,0.000604237,0.00344301,0.00447737,0.000116808,-6.66739e-06,6.82882e-05,0.000147129,-3.69886e-05,0.417868,0.000168692,-0.189517,1.49869,-3.38938,0.0163094,0.0056103,-0.000757529,0.00204936,188,534,-0.0245158,-0.0862131,64.1824,108.393,64.1295,108.491,5.39352e-05,5.27796e-05,0.000186954
-14.3355,7.45284,-297.937,0.000580078,0.00345594,0.00500437,0.000109458,-1.16331e-05,6.01471e-05,0.000134256,-3.64306e-05,0.391048,0.000155701,-0.210689,1.51539,-3.29787,0.000311265,0.00488468,-0.000569707,0.00203697,195,534,-0.0291834,-0.0838905,66.1173,109.113,66.0611,109.213,5.33248e-05,5.19003e-05,0.000184677
-14.0329,7.44075,-297.88,0.000544611,0.00343077,0.00536584,0.000102665,-1.82259e-05,5.34445e-05,0.000122904,-3.84648e-05,0.362002,0.000145988,-0.224976,1.45428,-3.14133,-0.0157962,0.00498435,0.000865621,0.00205,202,534,-0.0327779,-0.081997,68.0303,109.826,67.9724,109.927,5.34204e-05,5.18363e-05,0.000184815
-13.7324,7.42895,-297.828,0.000495312,0.00340678,0.00536598,9.65732e-05,-2.64609e-05,4.74153e-05,0.000112726,-4.26134e-05,0.32833,0.00013902,-0.247283,1.40965,-3.01479,-0.0317785,0.00566205,0.00358263,0.00213249,209,534,-0.0338589,-0.0810703,69.841,110.521,69.7843,110.621,5.515e-05,5.34603e-05,0.000190687
-13.436,7.41704,-297.789,0.000430728,0.00334195,0.00505639,9.26037e-05,-3.64981e-05,3.98697e-05,0.000103924,-4.78182e-05,0.276647,0.000134373,-0.2803,1.37976,-2.93958,-0.0464047,0.00648108,0.00737707,0.0022028,216,534,-0.0328576,-0.0810748,71.4424,111.213,71.3898,111.31,5.70815e-05,5.51319e-05,0.000196775
-13.1414,7.4054,-297.755,0.000384952,0.00333019,0.00483076,9.23932e-05,-4.76384e-05,2.96151e-05,9.83989e-05,-5.36441e-05,0.200078,0.000133561,-0.327001,1.39182,-2.9041,-0.0576506,0.00722759,0.0116568,0.00223058,223,534,-0.0321175,-0.0820081,72.9516,111.885,72.9019,111.981,5.78272e-05,5.63739e-05,0.000199099
-12.8482,7.39374,-297.724,0.000429757,0.00335352,0.00464367,9.33722e-05,-5.92163e-05,1.63893e-05,9.51126e-05,-6.09568e-05,0.1058,0.000136235,-0.353408,1.41085,-2.77524,-0.0643213,0.00811672,0.0161359,0.00225105,230,534,-0.0295128,-0.0852089,74.3959,112.555,74.3463,112.65,5.84929e-05,5.66901e-05,0.000202693
-12.5556,7.38202,-297.695,0.00055987,0.00343333,0.00488918,9.44525e-05,-6.99976e-05,5.54749e-07,9.44544e-05,-6.99995e-05,0.0033733,0.000142945,-0.410379,1.41323,-2.52457,-0.0661547,0.00893217,0.0205167,0.00230824,237,534,-0.0282415,-0.0887089,75.8146,113.224,75.7594,113.32,5.93819e-05,5.79201e-05,0.000207523
-12.2614,7.37025,-297.66,0.000726171,0.00357792,0.00513311,9.47291e-05,-7.91159e-05,-1.6707e-05,9.63201e-05,-8.07069e-05,-0.0949449,0.000153509,-0.47512,1.41839,-2.39071,-0.063902,0.00935456,0.0243018,0.00240697,244,534,-0.0261164,-0.0933488,77.3205,113.899,77.2587,113.998,6.27142e-05,5.87449e-05,0.000219854
-11.965,7.35805,-297.618,0.000765601,0.00366615,0.00509486,9.3432e-05,-8.66519e-05,-3.4805e-05,9.99247e-05,-9.31446e-05,-0.184426,0.000167237,-0.52075,1.46142,-2.49918,-0.0590666,0.00916357,0.0278731,0.00249068,251,534,-0.024838,-0.0955609,78.9291,114.603,78.8661,114.704,6.59775e-05,5.97471e-05,0.000231222
-11.6665,7.34564,-297.569,0.00074965,0.00365724,0.00493809,9.18466e-05,-9.23579e-05,-5.33688e-05,0.000106192,-0.000106703,-0.262587,0.000184373,-0.538746,1.49589,-2.68475,-0.0525946,0.00814679,0.0309472,0.00245347,258,534,-0.0238955,-0.0948754,80.6433,115.326,80.5818,115.427,6.54202e-05,6.00266e-05,0.000228883
-11.3665,7.33365,-297.514,0.000715822,0.00357832,0.00462726,8.91917e-05,-9.6197e-05,-7.22598e-05,0.000114029,-0.000121034,-0.331073,0.000203601,-0.527743,1.528,-2.87564,-0.0439131,0.00698386,0.0328225,0.00233339,265,534,-0.0221378,-0.0929632,82.4325,116.034,82.3742,116.133,6.22498e-05,5.92825e-05,0.000217439
-11.0642,7.32178,-297.451,0.000747053,0.00349704,0.00453521,8.16026e-05,-9.83804e-05,-9.18087e-05,0.00012017,-0.000136947,-0.397697,0.000222828,-0.519219,1.54866,-3.05556,-0.0326924,0.00567493,0.0329803,0.00221544,272,534,-0.0204786,-0.091377,84.3515,116.744,84.2931,116.841,5.7226e-05,5.71686e-05,0.000198781
-10.7604,7.30992,-297.383,0.000832537,0.00343602,0.00457257,6.71934e-05,-0.000100004,-0.000111169,0.00012269,-0.0001555,-0.46301,0.000241477,-0.530728,1.56406,-3.17949,-0.0190125,0.00384002,0.031993,0.0021358,279,534,-0.0184884,-0.0894813,86.3556,117.457,86.2943,117.552,5.5241e-05,5.50359e-05,0.000191156
-10.457,7.29794,-297.315,0.000894729,0.0033947,0.00456258,4.90228e-05,-0.000101296,-0.000128794,0.000122984,-0.000175257,-0.521276,0.000259603,-0.536802,1.57534,-3.20723,-0.00326266,0.0017251,0.0310983,0.00209359,286,534,-0.0167378,-0.0887684,88.3394,118.176,88.2765,118.269,5.41163e-05,5.37593e-05,0.000187146
-10.1561,7.28579,-297.254,0.000921573,0.00332839,0.00458155,3.17787e-05,-0.000102243,-0.000144414,0.000123972,-0.000194436,-0.568172,0.000277991,-0.526738,1.57401,-3.16652,0.0123344,-0.00033596,0.0306064,0.00203279,293,534,-0.0160664,-0.0881141,90.193,118.898,90.1292,118.989,5.27733e-05,5.22934e-05,0.000182791
-9.85874,7.2737,-297.204,0.000917174,0.00326271,0.00451636,1.70375e-05,-0.000103605,-0.000158419,0.000126231,-0.000212799,-0.603488,0.000296782,-0.516158,1.5373,-3.12352,0.0267722,-0.00173732,0.0306197,0.00195272,300,534,-0.0155356,-0.0883341,91.8695,119.609,91.8064,119.696,5.12299e-05,5.03229e-05,0.000177625
-9.56161,7.26171,-297.155,0.000908313,0.00324813,0.00447263,2.33244e-06,-0.000103728,-0.000169237,0.000126653,-0.000228049,-0.633569,0.000311337,-0.513638,1.52089,-3.05904,0.0393795,-0.0028306,0.0305672,0.00193733,307,534,-0.0153469,-0.0904609,93.5348,120.314,93.4724,120.398,5.15388e-05,4.87866e-05,0.000178366
-9.26107,7.24927,-297.093,0.000946147,0.00325688,0.00450103,-1.43984e-05,-0.000103369,-0.000177515,0.00012412,-0.000241887,-0.662626,0.000322395,-0.50801,1.54702,-3.01647,0.0513999,-0.00368555,0.0310995,0.00198345,314,534,-0.0145666,-0.0924577,95.3827,121.051,95.319,121.134,5.28004e-05,4.77439e-05,0.000182395
-8.95182,7.23739,-297.002,0.000981818,0.00327951,0.00441951,-3.31994e-05,-0.000101761,-0.000183035,0.000118737,-0.000253698,-0.692825,0.000329521,-0.489897,1.5788,-2.95076,0.0630584,-0.00435858,0.0320963,0.00204057,321,534,-0.0129983,-0.0934691,97.6926,121.783,97.6283,121.866,5.38813e-05,4.85991e-05,0.000185674
-8.6348,7.22547,-296.885,0.00100425,0.00324944,0.0041927,-5.3858e-05,-9.82757e-05,-0.000185903,0.000111158,-0.000263292,-0.725948,0.000333085,-0.46609,1.57828,-2.95967,0.0727123,-0.00494641,0.0331334,0.00212345,328,534,-0.010604,-0.093429,100.418,122.542,100.355,122.624,5.51623e-05,5.2131e-05,0.000190103
-8.31631,7.21358,-296.762,0.0010347,0.00318803,0.00391529,-7.30433e-05,-9.24696e-05,-0.000186995,0.00010449,-0.000270003,-0.75945,0.000334713,-0.432845,1.55759,-2.91769,0.0799859,-0.00542308,0.0326551,0.00222246,335,534,-0.00761501,-0.0937394,103.231,123.307,103.169,123.386,5.70201e-05,5.47565e-05,0.000197542
-8.00211,7.20237,-296.653,0.00109899,0.00307215,0.00379018,-8.96493e-05,-8.50227e-05,-0.000186416,9.90947e-05,-0.000273767,-0.791603,0.00033451,-0.37294,1.55715,-2.87785,0.0864406,-0.00547752,0.0295989,0.00231321,342,534,-0.00488905,-0.0931383,105.829,124.028,105.766,124.101,5.9656e-05,5.7191e-05,0.000207289
-7.71928,7.191,-296.645,0.00112794,0.00295788,0.00365402,-0.000107462,-7.66063e-05,-0.000184995,9.3603e-05,-0.000277671,-0.826999,0.000334445,-0.355818,1.56812,-2.85514,0.092668,-0.00581836,0.0251398,0.00232781,349,534,-0.00295075,-0.0916862,106.764,124.664,106.702,124.734,6.08346e-05,5.73301e-05,0.000211589
-7.43293,7.17792,-296.626,0.00112139,0.00285384,0.00362281,-0.000128774,-6.59159e-05,-0.000182643,8.79825e-05,-0.000282672,-0.870603,0.000335432,-0.327343,1.58097,-2.88132,0.098279,-0.00602146,0.0201689,0.00230468,356,534,-0.00270334,-0.0904768,107.883,125.402,107.822,125.466,6.10342e-05,5.62316e-05,0.000211731
-7.14885,7.16575,-296.613,0.00109183,0.00277858,0.00353021,-0.000151831,-5.52655e-05,-0.000178453,8.13216e-05,-0.000288418,-0.917516,0.00033653,-0.29493,1.58108,-2.96183,0.099821,-0.00703946,0.0148498,0.00227203,363,534,-0.00259432,-0.0894787,108.883,126.083,108.823,126.145,6.02535e-05,5.63271e-05,0.000208541
-6.86081,7.15379,-296.587,0.00102923,0.00271907,0.0034469,-0.000172443,-4.49261e-05,-0.000171971,7.47249e-05,-0.000292094,-0.962919,0.000335752,-0.267136,1.59775,-2.94328,0.0979282,-0.0083611,0.00844807,0.0022139,370,534,-0.00340067,-0.0888453,110.094,126.765,110.037,126.824,5.81929e-05,5.56055e-05,0.000201187
-6.56616,7.14227,-296.538,0.000966263,0.0027032,0.00340737,-0.000189195,-3.52344e-05,-0.000162568,6.7658e-05,-0.000292088,-1.00652,0.000331142,-0.242737,1.60271,-2.8812,0.0948052,-0.00959392,0.00162293,0.00213364,377,534,-0.00460475,-0.0899413,111.664,127.444,111.609,127.501,5.54167e-05,5.3847e-05,0.000191581
-6.26265,7.13158,-296.459,0.000926081,0.00272649,0.00334095,-0.000204734,-2.65247e-05,-0.000151824,6.04112e-05,-0.000291669,-1.05076,0.000326099,-0.26451,1.61479,-2.88059,0.0897029,-0.0107305,-0.00516247,0.00203667,384,534,-0.0051014,-0.0931317,113.718,128.106,113.664,128.162,5.28418e-05,5.16613e-05,0.000182402
-5.95574,7.12005,-296.368,0.000915223,0.00273976,0.00335029,-0.000222376,-1.99314e-05,-0.00014082,5.22715e-05,-0.000294579,-1.09702,0.000323894,-0.294815,1.59029,-2.83084,0.0811929,-0.0120876,-0.0115599,0.00201694,391,534,-0.00542918,-0.0966592,115.962,128.824,115.908,128.878,5.25015e-05,5.0517e-05,0.00018092
-5.64837,7.10842,-296.274,0.000879877,0.00274419,0.00316426,-0.00024033,-1.59574e-05,-0.00012984,4.34494e-05,-0.000299737,-1.14169,0.000323656,-0.301187,1.53817,-2.72962,0.0698007,-0.0140828,-0.0175748,0.00199421,398,534,-0.00489873,-0.099114,118.237,129.55,118.186,129.602,5.22389e-05,4.90731e-05,0.00018004
-5.34145,7.09665,-296.18,0.000814059,0.00273591,0.00288318,-0.000252345,-1.48995e-05,-0.000118794,3.43273e-05,-0.000301572,-1.17795,0.000320119,-0.276187,1.53762,-2.58802,0.0561123,-0.0173111,-0.0235702,0.00196218,405,534,-0.00440135,-0.099818,120.493,130.281,120.446,130.332,5.17241e-05,4.78792e-05,0.000178295
-5.03789,7.08459,-296.097,0.000757954,0.00271147,0.00259297,-0.000258956,-1.53174e-05,-0.000108429,2.59486e-05,-0.000300222,-1.20714,0.000314002,-0.26901,1.56635,-2.52061,0.0416476,-0.0209686,-0.0285588,0.00195183,412,534,-0.00357916,-0.0995366,122.574,131.019,122.531,131.069,5.18458e-05,4.63717e-05,0.000178716
-4.73826,7.07258,-296.027,0.000733217,0.00265391,0.00231747,-0.00026276,-1.5563e-05,-9.91356e-05,1.92823e-05,-0.000297606,-1.23279,0.0003077,-0.304569,1.56965,-2.6204,0.0263315,-0.0249392,-0.0323003,0.00199096,419,534,-0.00206111,-0.0989284,124.448,131.744,124.408,131.792,5.28741e-05,4.52968e-05,0.000182163
-4.44254,7.06033,-295.968,0.000731136,0.00258695,0.0022553,-0.000265219,-1.4783e-05,-9.07007e-05,1.46151e-05,-0.000294617,-1.25736,0.00030219,-0.277709,1.53354,-2.75439,0.011378,-0.0287755,-0.0351102,0.00208014,426,534,-0.0015405,-0.0979563,126.114,132.471,126.075,132.516,5.50717e-05,4.57145e-05,0.000189505
-4.14955,7.04832,-295.919,0.000676313,0.00253866,0.00222531,-0.000264119,-1.30022e-05,-8.24865e-05,1.1669e-05,-0.00028879,-1.28017,0.000294798,-0.218494,1.50862,-2.76827,-0.00220127,-0.0321284,-0.0378062,0.00212819,433,534,-0.00260264,-0.0974354,127.634,133.176,127.596,133.22,5.6303e-05,4.68896e-05,0.000193647
-3.85822,7.03629,-295.874,0.000593357,0.00251281,0.00219464,-0.000259824,-1.03276e-05,-7.42655e-05,1.01051e-05,-0.000280256,-1.30231,0.000285443,-0.171608,1.49752,-2.85894,-0.0139074,-0.0349626,-0.0399145,0.0022066,440,534,-0.00439602,-0.0976137,129.066,133.878,129.031,133.92,5.85501e-05,4.99846e-05,0.000201414
-3.56582,7.02434,-295.825,0.000465722,0.00254358,0.00200199,-0.000254313,-6.35483e-06,-6.68399e-05,1.05149e-05,-0.000271183,-1.32357,0.00027659,-0.205083,1.50014,-2.97033,-0.0230075,-0.0367814,-0.0412466,0.00228301,447,534,-0.0061917,-0.0988231,130.559,134.578,130.528,134.62,6.0825e-05,5.29299e-05,0.000209453
-3.27197,7.01261,-295.771,0.000386307,0.00259728,0.00186218,-0.000244879,-8.87525e-07,-6.07828e-05,1.34161e-05,-0.000259183,-1.33968,0.000266145,-0.269928,1.50051,-3.03709,-0.0289153,-0.0367847,-0.042966,0.00230504,454,534,-0.0071927,-0.100426,132.139,135.27,132.112,135.314,6.14229e-05,5.4235e-05,0.000211543
-2.9756,7.00128,-295.706,0.000336817,0.00263182,0.00170709,-0.000229159,5.45732e-06,-5.57664e-05,1.80379e-05,-0.00024174,-1.34892,0.000251245,-0.304723,1.48476,-2.97473,-0.031643,-0.0358536,-0.0450221,0.00225682,461,534,-0.00730158,-0.100523,133.866,135.95,133.841,135.996,6.02717e-05,5.47051e-05,0.000207495
-2.67679,6.98983,-295.633,0.000310164,0.00259522,0.00153574,-0.00020955,1.35198e-05,-4.99045e-05,2.41753e-05,-0.000220205,-1.36044,0.000233234,-0.291637,1.51407,-2.86524,-0.032874,-0.0334554,-0.0472876,0.0022032,468,534,-0.00664927,-0.0990459,135.736,136.648,135.714,136.693,5.83324e-05,5.40679e-05,0.00020072
-2.37518,6.97819,-295.549,0.000294764,0.00250283,0.00122446,-0.00018812,2.27396e-05,-4.21842e-05,3.08658e-05,-0.000196246,-1.38049,0.00021336,-0.228459,1.55131,-2.85652,-0.0356387,-0.0305607,-0.0487591,0.00218754,475,534,-0.00465804,-0.0968851,137.77,137.368,137.751,137.41,5.69257e-05,5.40383e-05,0.000195874
-2.07311,6.96651,-295.462,0.000261301,0.002429,0.000989267,-0.0001658,3.19391e-05,-3.23166e-05,3.70866e-05,-0.000170947,-1.41284,0.000192193,-0.190081,1.5503,-2.83018,-0.0403624,-0.0272872,-0.0490948,0.00220052,482,534,-0.00370483,-0.095356,139.838,138.091,139.822,138.132,5.69689e-05,5.47407e-05,0.000195737
-1.77408,6.95433,-295.385,0.000259974,0.00239831,0.00096326,-0.000142683,4.01622e-05,-1.98542e-05,4.22932e-05,-0.000144814,-1.46387,0.000169954,-0.224104,1.49196,-2.8051,-0.044175,-0.0236935,-0.0484787,0.0022092,489,534,-0.00349474,-0.0944595,141.744,138.832,141.728,138.871,5.70048e-05,5.48756e-05,0.000195268
-1.47815,6.94227,-295.317,0.000251839,0.00238952,0.00098528,-0.000118808,4.73398e-05,-5.44382e-06,4.7518e-05,-0.000118986,-1.53808,0.000148559,-0.256957,1.44515,-2.78248,-0.0449685,-0.0203177,-0.0471505,0.00222391,496,534,-0.00382453,-0.094001,143.483,139.555,143.467,139.595,5.71603e-05,5.4648e-05,0.000195262
-1.18557,6.93094,-295.261,0.000239113,0.00237633,0.00103457,-9.58766e-05,5.35072e-05,1.07756e-05,5.42805e-05,-9.66499e-05,1.49916,0.000132415,-0.297868,1.39544,-2.83353,-0.0444887,-0.0179972,-0.0444741,0.00226694,503,534,-0.00444864,-0.092626,145.039,140.23,145.023,140.27,5.80371e-05,5.58029e-05,0.000198036
-0.893359,6.91944,-295.206,0.000267803,0.00232522,0.000873884,-7.54383e-05,5.91032e-05,2.83395e-05,6.48289e-05,-8.1164e-05,1.37144,0.000126697,-0.31812,1.35492,-2.95375,-0.0460475,-0.0168088,-0.0406058,0.00226413,510,534,-0.00249917,-0.0914083,146.579,140.915,146.563,140.954,5.92786e-05,5.70507e-05,0.000202418
-0.599255,6.90806,-295.142,0.000309884,0.00232639,0.000650694,-5.64743e-05,6.35392e-05,4.69647e-05,7.97328e-05,-7.26679e-05,1.23876,0.00013203,-0.34235,1.37145,-3.19059,-0.0496277,-0.0163005,-0.0368797,0.00234097,517,534,0.0001731,-0.0913776,148.233,141.6,148.219,141.639,6.06688e-05,5.84496e-05,0.000207437
-0.303804,6.89636,-295.073,0.000322148,0.00236786,0.000454852,-3.87807e-05,6.64945e-05,6.56794e-05,9.80264e-05,-7.03125e-05,1.12321,0.000146443,-0.369225,1.41076,-3.47611,-0.0541026,-0.015818,-0.0334432,0.00242964,524,534,0.00184932,-0.092034,149.971,142.305,149.957,142.346,6.21813e-05,6.00004e-05,0.000212635
-0.00731861,6.88461,-295,0.00034366,0.00244128,0.00046139,-2.3385e-05,6.82844e-05,8.50467e-05,0.000119061,-7.41616e-05,1.03255,0.000168835,-0.362465,1.43726,-3.57824,-0.0579744,-0.0171995,-0.0282298,0.00245563,531,534,0.00228674,-0.0933618,151.777,143.017,151.763,143.06,6.26683e-05,6.10852e-05,0.000213828
0.289107,6.87287,-294.926,0.00032974,0.00253475,0.000437511,-1.16297e-05,6.98126e-05,0.000101947,0.000138871,-8.06877e-05,0.975407,0.000192356,-0.342317,1.45365,-3.52567,-0.0601219,-0.0190315,-0.0219715,0.00242456,538,534,0.00201577,-0.0954212,153.587,143.728,153.573,143.775,6.18501e-05,6.1104e-05,0.000210258
0.584652,6.86117,-294.854,0.000304504,0.00257742,0.000506355,-1.63404e-06,7.18485e-05,0.000115779,0.000156576,-8.63613e-05,0.939043,0.000213299,-0.312917,1.42095,-3.32841,-0.061021,-0.0203318,-0.016027,0.00240248,545,534,0.000863405,-0.0959056,155.355,144.437,155.341,144.485,6.07756e-05,6.04996e-05,0.000205977
0.878624,6.84974,-294.786,0.000283503,0.00258016,0.00049135,7.42846e-06,7.44926e-05,0.000125797,0.000171149,-8.92284e-05,0.915649,0.000229184,-0.328941,1.38785,-2.96157,-0.0621231,-0.020079,-0.0113925,0.00236166,552,534,0.000463991,-0.0946524,157.039,145.128,157.025,145.177,6.14501e-05,5.96123e-05,0.000207901
1.17123,6.83827,-294.723,0.00023671,0.00254294,0.000496843,1.42411e-05,7.7176e-05,0.000130326,0.00017978,-8.83628e-05,0.903856,0.000236674,-0.355678,1.37416,-2.94839,-0.0648825,-0.0171936,-0.00864958,0.00237675,559,534,-0.000697126,-0.092797,158.65,145.818,158.638,145.868,6.43907e-05,5.81465e-05,0.000217693
1.46409,6.82682,-294.658,0.000173992,0.00251314,0.000571177,2.17802e-05,7.93503e-05,0.000127409,0.000181185,-8.00546e-05,0.896497,0.000231822,-0.374601,1.37924,-3.10067,-0.0726554,-0.0112146,-0.00789388,0.00246745,566,534,-0.00274568,-0.0905059,160.283,146.509,160.272,146.559,6.70946e-05,5.78996e-05,0.000226604
1.75715,6.81522,-294.591,0.000100598,0.00254828,0.000764572,3.80717e-05,8.10067e-05,0.000118149,0.000179622,-6.05438e-05,0.875267,0.000216344,-0.378596,1.34391,-3.36061,-0.0939129,-0.00219263,-0.00981749,0.00252783,573,534,-0.0059679,-0.0898243,161.936,147.208,161.925,147.26,6.89997e-05,5.75473e-05,0.000232316
0,0,0,0,0,0,0,0,0,0,0,0,0,0,0,0,0,0,0,-1,580,534,0,0,0,0,0,0,0,0,0
0,0,0,0,0,0,0,0,0,0,0,0,0,0,0,0,0,0,0,-1,587,534,0,0,0,0,0,0,0,0,0
0,0,0,0,0,0,0,0,0,0,0,0,0,0,0,0,0,0,0,-1,594,534,0,0,0,0,0,0,0,0,0
0,0,0,0,0,0,0,0,0,0,0,0,0,0,0,0,0,0,0,-1,601,534,0,0,0,0,0,0,0,0,0
0,0,0,0,0,0,0,0,0,0,0,0,0,0,0,0,0,0,0,-1,62,541,0,0,0,0,0,0,0,0,0
0,0,0,0,0,0,0,0,0,0,0,0,0,0,0,0,0,0,0,-1,69,541,0,0,0,0,0,0,0,0,0
0,0,0,0,0,0,0,0,0,0,0,0,0,0,0,0,0,0,0,-1,76,541,0,0,0,0,0,0,0,0,0
-18.996,7.37224,-298.201,0.000449612,0.00284577,-0.000811836,-0.000143128,5.78182e-05,4.13662e-05,6.60005e-05,-0.00015131,1.37551,0.00019297,-0.385515,1.4722,-3.40607,-0.00305414,0.0375267,-0.0322218,0.00236976,83,541,0.0146201,-0.0706036,44.2546,99.2487,44.2435,99.3343,5.7253e-05,6.05938e-05,0.000203485
-18.7131,7.36052,-298.21,0.000446087,0.00289453,-0.000687058,-0.00012546,4.26178e-05,5.20942e-05,5.74543e-05,-0.000140296,1.29334,0.000176195,-0.354301,1.47239,-3.46888,-0.0154808,0.0401745,-0.0272133,0.0023349,90,541,0.0134367,-0.0721189,45.224,99.8881,45.2121,99.9748,5.66623e-05,5.97185e-05,0.000200169
-18.4301,7.34888,-298.218,0.000424148,0.00289594,-0.000552778,-9.32326e-05,3.12329e-05,6.84083e-05,6.14805e-05,-0.00012348,1.15448,0.000163153,-0.338954,1.46515,-3.4368,-0.0206222,0.0417734,-0.0232817,0.00226268,97,541,0.0117635,-0.0736971,46.1926,100.526,46.1806,100.612,5.68025e-05,5.78333e-05,0.000199999
-18.1477,7.33732,-298.228,0.000407044,0.0028797,-0.000398699,-5.76844e-05,2.26228e-05,8.4637e-05,7.61481e-05,-0.00011121,1.00689,0.000163201,-0.333795,1.44199,-3.35621,-0.0201664,0.0416517,-0.0193387,0.00223065,104,541,0.0100768,-0.0743904,47.1334,101.159,47.121,101.242,5.74451e-05,5.69929e-05,0.000202133
-17.8659,7.32574,-298.24,0.000402401,0.00284432,-0.000277235,-2.2191e-05,1.60697e-05,9.80341e-05,9.68226e-05,-0.000102944,0.881757,0.00017303,-0.356361,1.43666,-3.42104,-0.0144311,0.0399483,-0.0152163,0.00221421,111,541,0.00899613,-0.0740378,48.0372,101.79,48.0242,101.872,5.79961e-05,5.62254e-05,0.000203343
-17.5845,7.31411,-298.253,0.00040786,0.00285269,5.11861e-05,1.272e-05,1.10348e-05,0.000108368,0.000120249,-9.64937e-05,0.781511,0.00018808,-0.376105,1.43877,-3.44377,-0.00458384,0.037217,-0.0109887,0.00216717,118,541,0.00642857,-0.0751613,48.9196,102.423,48.9043,102.504,5.71957e-05,5.47776e-05,0.000200397
-17.302,7.30233,-298.262,0.0004354,0.00290009,0.000463702,4.64637e-05,7.35416e-06,0.000115757,0.000144306,-9.04884e-05,0.701724,0.000205111,-0.382656,1.4718,-3.54381,0.00793932,0.0337684,-0.00667183,0.00213858,125,541,0.00369803,-0.0766381,49.8526,103.064,49.8336,103.146,5.59659e-05,5.40841e-05,0.000196478
-17.0171,7.29039,-298.263,0.000486256,0.00298106,0.000842421,7.62669e-05,4.97117e-06,0.000119594,0.000165413,-8.41748e-05,0.640554,0.000219933,-0.387703,1.51376,-3.5343,0.0210579,0.0297093,-0.0021989,0.0021063,132,541,0.00179332,-0.0789522,50.8972,103.719,50.8741,103.803,5.52129e-05,5.36127e-05,0.000194316
-16.7285,7.27834,-298.253,0.000537663,0.00309848,0.00115859,0.000100141,2.90338e-06,0.000120124,0.000181112,-7.80681e-05,0.593106,0.000230294,-0.384638,1.54368,-3.55835,0.03133,0.025401,0.00173427,0.00210125,139,541,0.000408769,-0.0804434,52.124,104.387,52.0971,104.475,5.59657e-05,5.35631e-05,0.000196946
-16.4357,7.26616,-298.23,0.000542966,0.0031967,0.00144335,0.000121174,2.93646e-06,0.00011766,0.000193733,-6.96222e-05,0.552593,0.000236364,-0.393464,1.54346,-3.56762,0.0397197,0.0208372,0.00400465,0.00212195,146,541,-0.00181642,-0.0812801,53.5489,105.073,53.5196,105.165,5.68179e-05,5.2671e-05,0.000199291
-16.1402,7.25434,-298.198,0.000494637,0.00321891,0.00168724,0.000137668,4.72267e-06,0.000113211,0.000202479,-6.00881e-05,0.519937,0.000238275,-0.413597,1.51443,-3.63506,0.0458702,0.0164725,0.00483047,0.00214447,153,541,-0.00494944,-0.0812542,55.1079,105.751,55.0782,105.844,5.7485e-05,5.15324e-05,0.000201155
-15.8437,7.24232,-298.163,0.00047563,0.00322152,0.0020771,0.000146669,7.40802e-06,0.000107255,0.000204914,-5.08362e-05,0.497488,0.000234501,-0.3602,1.46992,-3.66327,0.0489932,0.0122572,0.00490212,0.00211509,160,541,-0.00851222,-0.0811689,56.7148,106.443,56.6829,106.537,5.66227e-05,4.96768e-05,0.000198299
-15.546,7.23037,-298.124,0.000483982,0.00325532,0.00265968,0.000147014,9.74897e-06,9.94291e-05,0.000199198,-4.24348e-05,0.483317,0.000223458,-0.290015,1.44015,-3.59878,0.0479521,0.00831506,0.00423395,0.00206972,167,541,-0.0129762,-0.0824825,58.3848,107.135,58.3486,107.229,5.55775e-05,4.99826e-05,0.000193782
-15.247,7.21818,-298.08,0.000522193,0.00331127,0.00337356,0.000141028,1.08395e-05,9.04308e-05,0.000187356,-3.54888e-05,0.473445,0.000207391,-0.238498,1.44603,-3.51574,0.0423432,0.00503564,0.00298126,0.00202839,174,541,-0.0177514,-0.0838015,60.1184,107.843,60.076,107.938,5.41589e-05,5.17772e-05,0.000188723
-14.9468,7.20604,-298.032,0.000559509,0.003379,0.0040029,0.000132915,9.80587e-06,8.13384e-05,0.000173365,-3.06439e-05,0.461487,0.000190544,-0.201762,1.46622,-3.4774,0.0320749,0.00234507,0.00130084,0.00202241,181,541,-0.0218608,-0.085471,61.9154,108.552,61.8673,108.648,5.2491e-05,5.22262e-05,0.000182717
-14.6442,7.19393,-297.975,0.000531604,0.00341448,0.00449812,0.00012594,6.71806e-06,7.33966e-05,0.000160883,-2.82253e-05,0.444337,0.000176695,-0.224716,1.51522,-3.50907,0.0177835,0.000438083,-0.00013828,0.0020116,188,541,-0.0264344,-0.0853427,63.8269,109.265,63.7759,109.363,5.13625e-05,5.20774e-05,0.000178305
-14.3412,7.18195,-297.917,0.000502765,0.00342431,0.00497979,0.000119519,1.63504e-06,6.71019e-05,0.00014989,-2.8736e-05,0.425023,0.000166133,-0.24193,1.53178,-3.38849,0.0012449,-0.000720767,-0.000356064,0.00196604,195,541,-0.030862,-0.083394,65.7648,109.973,65.711,110.073,5.11013e-05,5.07062e-05,0.000177409
-14.0395,7.17002,-297.863,0.000469929,0.00341488,0.00536512,0.000113721,-5.1652e-06,6.22028e-05,0.000140317,-3.17609e-05,0.40404,0.000158601,-0.235509,1.48244,-3.17113,-0.0155332,-0.000969789,0.000798056,0.00198837,202,541,-0.0345915,-0.0812964,67.6348,110.677,67.579,110.778,5.19077e-05,5.03393e-05,0.000179947
-13.7403,7.15822,-297.815,0.000429983,0.00339605,0.00537997,0.000109418,-1.36541e-05,5.79139e-05,0.000132384,-3.66208e-05,0.377543,0.000153996,-0.24561,1.43314,-3.03396,-0.0322189,-0.000499344,0.00348694,0.00208478,209,541,-0.0355581,-0.080014,69.3802,111.369,69.3252,111.47,5.38484e-05,5.19441e-05,0.000186436
-13.4448,7.14631,-297.779,0.000389003,0.00332506,0.00511553,0.000107959,-2.38549e-05,5.17325e-05,0.000125837,-4.17333e-05,0.332744,0.00015109,-0.259338,1.39719,-2.90274,-0.0474547,0.000183947,0.00736002,0.00218277,216,541,-0.0343164,-0.0793059,70.9333,112.059,70.8814,112.157,5.64102e-05,5.40402e-05,0.000194561
-13.1511,7.13489,-297.747,0.000369845,0.0032999,0.00485956,0.000110195,-3.50698e-05,4.2359e-05,0.000121644,-4.65192e-05,0.263986,0.0001504,-0.294183,1.39835,-2.86741,-0.0591958,0.000777123,0.0115945,0.00223423,223,541,-0.0326723,-0.0803957,72.403,112.718,72.3535,112.814,5.78419e-05,5.55555e-05,0.000198985
-12.858,7.12363,-297.717,0.000437843,0.00333373,0.00476771,0.000113082,-4.68389e-05,2.95345e-05,0.000118362,-5.2119e-05,0.17691,0.000151311,-0.328108,1.41187,-2.74874,-0.066459,0.00159354,0.0159191,0.00226322,230,541,-0.0302555,-0.0840149,73.8466,113.368,73.7958,113.462,5.91013e-05,5.61318e-05,0.000204852
-12.565,7.11223,-297.687,0.00055497,0.00344119,0.00505158,0.00011523,-5.80495e-05,1.36055e-05,0.000116292,-5.91113e-05,0.0778819,0.000154571,-0.419245,1.41375,-2.55506,-0.0687216,0.00249423,0.0202647,0.00228535,237,541,-0.0296381,-0.0886248,75.2849,114.022,75.2286,114.117,6.00438e-05,5.63823e-05,0.000210199
-12.2704,7.10066,-297.651,0.000675797,0.00361303,0.00524673,0.000115893,-6.78442e-05,-4.06198e-06,0.000115982,-6.7934e-05,-0.0220932,0.000161078,-0.533563,1.41489,-2.44369,-0.0666912,0.00325821,0.0242133,0.00237985,244,541,-0.028292,-0.0947199,76.8063,114.687,76.7451,114.786,6.29504e-05,5.65593e-05,0.000221533
-11.9737,7.08872,-297.608,0.000697327,0.00370459,0.00514319,0.000114234,-7.60224e-05,-2.28198e-05,0.000116933,-7.87211e-05,-0.117718,0.000170515,-0.612657,1.45284,-2.51816,-0.0619803,0.00359844,0.0278944,0.00252305,251,541,-0.0269568,-0.097556,78.4312,115.379,78.3698,115.481,6.6957e-05,5.88188e-05,0.000235408
-11.6751,7.07632,-297.558,0.00068965,0.00367795,0.00498444,0.000111344,-8.23598e-05,-4.22779e-05,0.000120169,-9.11853e-05,-0.205794,0.000183611,-0.619147,1.49847,-2.62125,-0.055581,0.00348892,0.0309355,0.00253993,258,541,-0.0257836,-0.0970237,80.1506,116.105,80.0905,116.205,6.74114e-05,6.10304e-05,0.000236078
-11.3758,7.0639,-297.505,0.000725494,0.00362273,0.00476826,0.000107403,-8.6696e-05,-6.21647e-05,0.000125605,-0.000104899,-0.284851,0.000199891,-0.611157,1.52412,-2.79515,-0.0468615,0.00343875,0.0326086,0.00245741,265,541,-0.0230525,-0.0949694,81.9118,116.834,81.8522,116.934,6.48143e-05,6.1158e-05,0.000225935
-11.0736,7.05167,-297.443,0.00084668,0.00355263,0.0048045,9.91158e-05,-8.92477e-05,-8.26855e-05,0.000130262,-0.000120394,-0.360245,0.00021713,-0.587809,1.54368,-2.98875,-0.0353309,0.00328999,0.0327402,0.00229087,272,541,-0.0201517,-0.0923672,83.8264,117.563,83.7631,117.661,5.92338e-05,5.84871e-05,0.000204925
-10.77,7.03974,-297.375,0.000962088,0.00349431,0.00480951,8.39283e-05,-9.12594e-05,-0.000103036,0.000131571,-0.000138902,-0.433113,0.000234266,-0.566224,1.55111,-3.11611,-0.021077,0.00246984,0.0318686,0.00215381,279,541,-0.0171647,-0.0903305,85.8223,118.28,85.7556,118.377,5.5478e-05,5.56275e-05,0.000191732
-10.4662,7.02801,-297.306,0.00101735,0.00342123,0.00471561,6.44246e-05,-9.31393e-05,-0.000121786,0.000130689,-0.000159404,-0.498306,0.000251637,-0.541836,1.56074,-3.15045,-0.0046243,0.00116132,0.0310109,0.00206891,286,541,-0.0148978,-0.088766,87.8257,118.99,87.7582,119.085,5.28123e-05,5.34877e-05,0.000182546
-10.1647,7.01614,-297.243,0.000985689,0.00331336,0.0045461,4.59319e-05,-9.47778e-05,-0.000138727,0.000131124,-0.00017997,-0.550724,0.00027052,-0.514397,1.58248,-3.12636,0.0117397,-0.000269567,0.0304777,0.00197786,293,541,-0.0141844,-0.0875137,89.7107,119.703,89.6454,119.794,5.05357e-05,5.10543e-05,0.000175072
-9.86712,7.00418,-297.193,0.000959657,0.00322765,0.00439721,3.05335e-05,-9.69206e-05,-0.000154006,0.000133477,-0.000199864,-0.589227,0.000290583,-0.516517,1.56785,-3.12875,0.0269191,-0.00128119,0.0303835,0.00189544,300,541,-0.0135326,-0.0877287,91.3975,120.411,91.3342,120.497,4.97849e-05,4.87457e-05,0.000172459
-9.5695,6.9923,-297.141,0.000961685,0.00323125,0.00435676,1.54381e-05,-9.79046e-05,-0.000165753,0.00013394,-0.000216407,-0.620677,0.000306198,-0.52866,1.54276,-3.09595,0.0402672,-0.00219045,0.0303762,0.00188942,307,541,-0.0131198,-0.0903412,93.0893,121.112,93.0263,121.196,5.0274e-05,4.67639e-05,0.000173948
-9.26936,6.98015,-297.081,0.00100274,0.00328813,0.00441461,-2.05046e-06,-9.8483e-05,-0.000174883,0.000131142,-0.000231675,-0.650887,0.000318204,-0.524214,1.53982,-3.04504,0.0529384,-0.00308231,0.0311079,0.0019386,314,541,-0.0125239,-0.0925492,94.9178,121.833,94.853,121.917,5.15068e-05,4.66133e-05,0.000178027
-8.96127,6.96824,-296.994,0.00106034,0.00333484,0.00441202,-2.19737e-05,-9.80209e-05,-0.000181324,0.000125271,-0.000245265,-0.682046,0.000326454,-0.49213,1.56246,-2.98059,0.0652708,-0.00392972,0.0323894,0.0020156,321,541,-0.0110316,-0.0936879,97.169,122.565,97.1025,122.651,5.30127e-05,4.9175e-05,0.000182666
-8.64534,6.95632,-296.881,0.00107923,0.00327939,0.00436286,-4.37355e-05,-9.58689e-05,-0.000185333,0.000117355,-0.000256959,-0.715532,0.000331596,-0.468335,1.55808,-3.04236,0.0757231,-0.00461042,0.0337748,0.00215039,328,541,-0.0100355,-0.0922732,99.8384,123.325,99.7717,123.41,5.57668e-05,5.39688e-05,0.000191782
-8.32772,6.94451,-296.761,0.00108516,0.00316244,0.004149,-6.41286e-05,-9.13e-05,-0.000187592,0.000110369,-0.000265797,-0.74925,0.00033491,-0.45495,1.55177,-3.04197,0.0840596,-0.00497873,0.033576,0.00222884,335,541,-0.00806726,-0.0907978,102.605,124.089,102.54,124.169,5.72125e-05,5.61438e-05,0.00019774
-8.01356,6.93367,-296.651,0.00113397,0.00300852,0.00397806,-8.18768e-05,-8.48881e-05,-0.000187873,0.000104497,-0.000271262,-0.781391,0.00033593,-0.412722,1.54485,-2.99803,0.0915157,-0.00477407,0.030803,0.00230507,342,541,-0.00532567,-0.0887044,105.201,124.795,105.136,124.869,5.93924e-05,5.82129e-05,0.000206154
-7.72444,6.92227,-296.623,0.00118583,0.00291351,0.00380345,-0.00010088,-7.75226e-05,-0.000187001,9.81638e-05,-0.000276566,-0.816583,0.000336561,-0.398126,1.53634,-2.9232,0.0983199,-0.00492885,0.0267321,0.00234658,349,541,-0.00253551,-0.0871765,106.472,125.451,106.407,125.522,6.13414e-05,5.91392e-05,0.000213051
-7.43732,6.90921,-296.601,0.00118867,0.00285402,0.00374611,-0.000124101,-6.77681e-05,-0.000184856,9.10554e-05,-0.000282925,-0.861002,0.000337786,-0.359939,1.53575,-2.92072,0.103927,-0.00480099,0.022207,0.00232724,356,541,-0.00190413,-0.0872344,107.634,126.189,107.57,126.256,6.18753e-05,5.75792e-05,0.000214438
-7.15252,6.8969,-296.586,0.0011921,0.00281074,0.00369096,-0.000149428,-5.82364e-05,-0.000180749,8.25788e-05,-0.000290243,-0.908951,0.000339158,-0.314104,1.5467,-2.96919,0.104828,-0.00572572,0.0172936,0.00231208,363,541,-0.00129873,-0.0880398,108.674,126.88,108.61,126.945,6.15286e-05,5.7366e-05,0.000212792
-6.86368,6.88492,-296.557,0.00112675,0.00279117,0.00362182,-0.000172924,-4.91214e-05,-0.000174384,7.40214e-05,-0.000296067,-0.955948,0.000339191,-0.266089,1.58552,-2.98584,0.102167,-0.0069612,0.0112078,0.00224631,370,541,-0.00233046,-0.0892243,109.93,127.566,109.868,127.628,5.91281e-05,5.56711e-05,0.000204297
-6.56609,6.87372,-296.498,0.00104109,0.00279196,0.0036066,-0.000192572,-4.06588e-05,-0.000165015,6.5042e-05,-0.000298273,-1.00109,0.000335555,-0.222005,1.62971,-3.00061,0.0984659,-0.00817897,0.00451546,0.00213009,377,541,-0.00430058,-0.0910404,111.66,128.239,111.6,128.3,5.54949e-05,5.27942e-05,0.000191738
-6.25983,6.86344,-296.41,0.000972237,0.0027935,0.00351846,-0.000209827,-3.31636e-05,-0.000154033,5.60681e-05,-0.000299058,-1.04574,0.000330677,-0.244806,1.64003,-3.01753,0.0931607,-0.00939486,-0.00210341,0.00204095,384,541,-0.00532793,-0.0940678,113.864,128.892,113.807,128.95,5.27657e-05,5.03233e-05,0.000182071
-5.95149,6.8526,-296.313,0.000948405,0.00275204,0.00347252,-0.000227914,-2.76314e-05,-0.00014253,4.642e-05,-0.000301965,-1.09163,0.00032765,-0.259448,1.57879,-2.86455,0.0848444,-0.0110081,-0.00812925,0.00203103,391,541,-0.00550678,-0.0964177,116.188,129.584,116.133,129.638,5.27435e-05,4.96994e-05,0.000181764
-5.64511,6.84156,-296.223,0.000935551,0.00271633,0.00329296,-0.000245908,-2.45746e-05,-0.000130993,3.62413e-05,-0.000306724,-1.13614,0.000326358,-0.252406,1.52912,-2.66416,0.0739777,-0.0133502,-0.0137227,0.00202289,398,541,-0.00442291,-0.0985427,118.414,130.281,118.36,130.332,5.27475e-05,4.94668e-05,0.000181774
-5.3408,6.82977,-296.138,0.000864594,0.00269956,0.00307058,-0.000258226,-2.42553e-05,-0.000119754,2.61707e-05,-0.000308652,-1.17225,0.000322535,-0.230304,1.53972,-2.48071,0.0612673,-0.0168835,-0.0193603,0.00200723,405,541,-0.00447709,-0.0991322,120.531,131.009,120.481,131.059,5.24239e-05,4.93153e-05,0.000180646
-5.04058,6.81745,-296.066,0.000794997,0.00268768,0.00279233,-0.000264979,-2.50948e-05,-0.000109786,1.75642e-05,-0.000307638,-1.20019,0.000316785,-0.230699,1.57116,-2.49692,0.0476662,-0.0207628,-0.0243006,0.00197763,412,541,-0.00408973,-0.0990976,122.43,131.753,122.385,131.802,5.18691e-05,4.8367e-05,0.000178721
-4.74355,6.80538,-296.004,0.000757441,0.00264037,0.00253741,-0.000268833,-2.55278e-05,-0.000101338,1.11508e-05,-0.000305512,-1.22352,0.000311237,-0.266641,1.58738,-2.64932,0.0329245,-0.024738,-0.0282638,0.00199061,419,541,-0.0030472,-0.098436,124.163,132.474,124.12,132.522,5.23598e-05,4.69941e-05,0.00018029
-4.44988,6.79319,-295.953,0.000750236,0.00256538,0.00241091,-0.000271622,-2.47511e-05,-9.39711e-05,6.94852e-06,-0.000303321,-1.24545,0.000306855,-0.224344,1.5577,-2.77915,0.0180966,-0.0283208,-0.0314395,0.0020584,426,541,-0.00216941,-0.0972947,125.717,133.194,125.676,133.239,5.40953e-05,4.67728e-05,0.000186047
-4.15849,6.7812,-295.909,0.000727658,0.00250483,0.00232543,-0.000271061,-2.27935e-05,-8.68565e-05,4.57597e-06,-0.000298431,-1.26553,0.000300745,-0.159278,1.54195,-2.8284,0.00437518,-0.0312809,-0.0345879,0.00209139,433,541,-0.00200147,-0.0967025,127.15,133.896,127.11,133.938,5.51678e-05,4.80496e-05,0.000189727
-3.86829,6.76926,-295.868,0.000644586,0.00247423,0.00220646,-0.000267223,-1.98245e-05,-7.985e-05,3.70915e-06,-0.000290757,-1.28419,0.000292629,-0.110052,1.53112,-2.8685,-0.00761787,-0.0337606,-0.0372732,0.00217324,440,541,-0.00314563,-0.096884,128.52,134.591,128.483,134.631,5.76618e-05,5.19328e-05,0.000198429
-3.5768,6.75733,-295.822,0.000516187,0.00251087,0.00198971,-0.000262263,-1.54933e-05,-7.38471e-05,4.91756e-06,-0.000282673,-1.30113,0.000285164,-0.140296,1.53135,-2.9544,-0.0171487,-0.0352338,-0.0394394,0.00223415,447,541,-0.00479258,-0.0984294,129.962,135.288,129.931,135.329,5.94877e-05,5.43e-05,0.000204923
-3.28379,6.74562,-295.77,0.000439645,0.0025632,0.00180539,-0.000253914,-9.39619e-06,-6.93627e-05,8.90957e-06,-0.00027222,-1.31277,0.000276783,-0.199556,1.52051,-2.94355,-0.0236791,-0.0349519,-0.0420933,0.00224341,454,541,-0.00539961,-0.100319,131.495,135.979,131.467,136.022,5.96785e-05,5.48762e-05,0.000205634
-2.98813,6.73443,-295.709,0.000395346,0.00259984,0.00167924,-0.000239491,-2.56081e-06,-6.59858e-05,1.45768e-05,-0.000256629,-1.31669,0.000264219,-0.252094,1.49698,-2.89879,-0.0272244,-0.0341356,-0.0449988,0.00221006,461,541,-0.00559027,-0.100449,133.184,136.652,133.158,136.696,5.84296e-05,5.45229e-05,0.000201256
-2.68956,6.72295,-295.636,0.00037329,0.00255528,0.00157527,-0.000221134,5.91677e-06,-6.13628e-05,2.14395e-05,-0.000236657,-1.32303,0.000248072,-0.275039,1.5042,-2.83371,-0.0294722,-0.0320358,-0.0480715,0.00216934,468,541,-0.00529846,-0.0985959,135.041,137.353,135.017,137.396,5.66821e-05,5.42715e-05,0.00019507
-2.38804,6.71137,-295.552,0.000328075,0.00245029,0.00132268,-0.000200799,1.53995e-05,-5.42579e-05,2.82522e-05,-0.000213652,-1.3382,0.000229088,-0.239301,1.50827,-2.85541,-0.0336896,-0.0296134,-0.0503933,0.00215338,475,541,-0.00446296,-0.0958383,137.07,138.072,137.049,138.113,5.48014e-05,5.43731e-05,0.000188516
-2.0862,6.6999,-295.466,0.000263102,0.0023785,0.00110694,-0.000179777,2.46453e-05,-4.42656e-05,3.38189e-05,-0.00018895,-1.36645,0.000207933,-0.202739,1.5046,-2.81631,-0.0404073,-0.0269099,-0.0516277,0.00217456,482,541,-0.00444342,-0.0942745,139.124,138.788,139.106,138.827,5.48069e-05,5.52156e-05,0.000188233
-1.78766,6.68795,-295.391,0.000249707,0.0023616,0.000960318,-0.000158344,3.28356e-05,-3.10955e-05,3.77661e-05,-0.000163275,-1.41354,0.000185071,-0.227794,1.45778,-2.76561,-0.0465039,-0.023998,-0.0519057,0.00217615,489,541,-0.00368965,-0.0941304,141.002,139.517,140.986,139.555,5.47786e-05,5.50421e-05,0.000187622
-1.49237,6.67627,-295.326,0.000251735,0.00236736,0.000877356,-0.000136359,3.9882e-05,-1.56106e-05,4.1254e-05,-0.000137732,-1.48313,0.000162339,-0.251109,1.42829,-2.77432,-0.0492709,-0.0214958,-0.05123,0.00218547,496,541,-0.00303185,-0.0944403,142.704,140.221,142.689,140.259,5.52572e-05,5.46131e-05,0.000188765
-1.19966,6.66494,-295.269,0.000253756,0.00235235,0.000708468,-0.000114858,4.59266e-05,1.84241e-06,4.59477e-05,-0.000114879,1.55934,0.000143481,-0.286572,1.39766,-2.82739,-0.0501926,-0.0200956,-0.0489264,0.00219145,503,541,-0.00173133,-0.0936332,144.266,140.898,144.252,140.937,5.58377e-05,5.48586e-05,0.000190526
-0.906871,6.6534,-295.211,0.000305791,0.00229913,0.00046758,-9.4752e-05,5.14497e-05,2.08945e-05,5.43772e-05,-9.76795e-05,1.43159,0.000133453,-0.305735,1.36908,-2.93797,-0.0528532,-0.0196171,-0.0453038,0.00219119,510,541,0.0013871,-0.0916589,145.838,141.589,145.825,141.627,5.7049e-05,5.56515e-05,0.000194789
-0.611999,6.64216,-295.146,0.000375187,0.00227016,0.00028455,-7.51439e-05,5.59521e-05,4.12803e-05,6.78677e-05,-8.70595e-05,1.28978,0.000134514,-0.312906,1.40459,-3.12645,-0.0576492,-0.019488,-0.0418916,0.0023294,517,541,0.0044988,-0.0903518,147.538,142.272,147.524,142.309,5.94967e-05,5.81191e-05,0.000203442
-0.315407,6.6306,-295.073,0.000400978,0.00230561,0.000210584,-5.59121e-05,5.9272e-05,6.19095e-05,8.62354e-05,-8.28756e-05,1.16004,0.000146464,-0.347565,1.46358,-3.40943,-0.0633075,-0.019184,-0.038967,0.00242951,524,541,0.00565354,-0.0908719,149.342,142.977,149.329,143.016,6.1769e-05,6.06276e-05,0.000211058
-0.0184109,6.61901,-294.997,0.000390356,0.00238631,0.000299061,-3.87887e-05,6.20178e-05,8.31072e-05,0.000108812,-8.55826e-05,1.05799,0.000168751,-0.349071,1.49706,-3.5916,-0.0682229,-0.0205918,-0.0342158,0.00246911,531,541,0.00467916,-0.0928161,151.178,143.685,151.164,143.726,6.35163e-05,6.1975e-05,0.000216516
0.277998,6.60732,-294.923,0.000337976,0.00249282,0.000351297,-2.4685e-05,6.48753e-05,0.00010148,0.000131016,-9.08257e-05,0.993184,0.000193169,-0.344901,1.51557,-3.62213,-0.0714307,-0.0223552,-0.028535,0.00246349,538,541,0.00287367,-0.0955472,152.987,144.397,152.974,144.441,6.3423e-05,6.15657e-05,0.000215403
0.573492,6.59569,-294.851,0.000262739,0.00255911,0.000507921,-1.16373e-05,6.84043e-05,0.000116507,0.000151573,-9.48057e-05,0.950837,0.00021525,-0.317876,1.46332,-3.49044,-0.0732889,-0.0235783,-0.0232559,0.00246,545,541,-0.000198159,-0.0969113,154.751,145.105,154.739,145.151,6.27101e-05,6.03512e-05,0.000212179
0.867254,6.58433,-294.785,0.000210393,0.0025652,0.000444166,1.55686e-06,7.25142e-05,0.000127747,0.000169618,-9.55467e-05,0.920847,0.000232606,-0.326645,1.42431,-3.1638,-0.0749652,-0.0234203,-0.0193957,0.00243298,552,541,-0.001055,-0.0956702,156.422,145.793,156.411,145.842,6.31884e-05,5.96272e-05,0.00021353
1.16019,6.57298,-294.72,0.00018585,0.00254107,0.000452546,1.39498e-05,7.6316e-05,0.000133691,0.000182412,-9.21466e-05,0.899974,0.000242021,-0.329833,1.41563,-3.11509,-0.0776303,-0.0209594,-0.0173995,0.00245452,559,541,-0.00168936,-0.0942577,158.053,146.481,158.043,146.529,6.59536e-05,5.91856e-05,0.000222681
1.45316,6.56174,-294.655,0.000159813,0.0025227,0.0004868,2.86851e-05,7.89251e-05,0.000132116,0.000188288,-8.06777e-05,0.879345,0.000239064,-0.334836,1.39895,-3.30757,-0.0844557,-0.0159953,-0.0172609,0.0025238,566,541,-0.00254387,-0.0925694,159.694,147.164,159.684,147.213,6.86913e-05,5.96899e-05,0.00023164
1.74649,6.5502,-294.587,0.000108363,0.00254384,0.000618329,5.51512e-05,8.00275e-05,0.000123706,0.000191919,-5.67399e-05,0.835503,0.000225703,-0.349282,1.33539,-3.61882,-0.103872,-0.00825235,-0.0198814,0.00257941,573,541,-0.00476292,-0.0915407,161.364,147.863,161.354,147.914,7.05474e-05,6.03956e-05,0.000237455
0,0,0,0,0,0,0,0,0,0,0,0,0,0,0,0,0,0,0,-1,580,541,0,0,0,0,0,0,0,0,0
0,0,0,0,0,0,0,0,0,0,0,0,0,0,0,0,0,0,0,-1,587,541,0,0,0,0,0,0,0,0,0
0,0,0,0,0,0,0,0,0,0,0,0,0,0,0,0,0,0,0,-1,594,541,0,0,0,0,0,0,0,0,0
0,0,0,0,0,0,0,0,0,0,0,0,0,0,0,0,0,0,0,-1,601,541,0,0,0,0,0,0,0,0,0
0,0,0,0,0,0,0,0,0,0,0,0,0,0,0,0,0,0,0,-1,62,548,0,0,0,0,0,0,0,0,0
0,0,0,0,0,0,0,0,0,0,0,0,0,0,0,0,0,0,0,-1,69,548,0,0,0,0,0,0,0,0,0
0,0,0,0,0,0,0,0,0,0,0,0,0,0,0,0,0,0,0,-1,76,548,0,0,0,0,0,0,0,0,0
-19.0151,7.09972,-298.221,0.000393809,0.00286029,-0.000851714,-0.000164948,6.17128e-05,5.21566e-05,7.31385e-05,-0.000176374,1.35514,0.000222164,-0.362482,1.44573,-3.4243,-0.00595055,0.0312882,-0.0361746,0.00235541,83,548,0.0135775,-0.0704898,43.2334,100.164,43.2241,100.251,5.62915e-05,6.04213e-05,0.000200624
-18.733,7.08808,-298.233,0.000393041,0.00288631,-0.00055242,-0.000140959,4.33594e-05,6.04688e-05,6.14263e-05,-0.000159026,1.28046,0.000197055,-0.333823,1.45872,-3.43883,-0.0199005,0.0349213,-0.0309955,0.0023194,90,548,0.0110477,-0.0715226,44.1627,100.796,44.1514,100.883,5.54137e-05,5.95868e-05,0.000195776
-18.4503,7.07665,-298.242,0.000381494,0.00287102,-0.000315724,-0.000103959,3.05229e-05,7.4436e-05,6.35918e-05,-0.000137028,1.15273,0.000177579,-0.289768,1.45294,-3.36482,-0.0263937,0.0376612,-0.0258354,0.00224128,97,548,0.00881413,-0.0723038,45.1236,101.421,45.1112,101.506,5.62155e-05,5.74502e-05,0.000197097
-18.1677,7.06538,-298.252,0.000369818,0.00283678,-0.000185112,-6.41062e-05,2.18587e-05,8.84286e-05,7.71977e-05,-0.000119445,1.01162,0.000171603,-0.279253,1.41346,-3.28066,-0.027289,0.0385267,-0.0202991,0.00218824,104,548,0.00747708,-0.0725177,46.0688,102.038,46.056,102.121,5.65984e-05,5.55505e-05,0.000198445
-17.8851,7.05391,-298.261,0.00037566,0.00279204,-3.13257e-05,-2.52305e-05,1.62109e-05,9.97258e-05,9.73459e-05,-0.000106366,0.887829,0.000176477,-0.279467,1.39204,-3.30997,-0.0226613,0.0375096,-0.0147971,0.00215352,111,548,0.00639824,-0.0722995,47.0123,102.664,46.9984,102.745,5.62513e-05,5.4305e-05,0.000197137
-17.6024,7.04226,-298.27,0.000378148,0.00282083,0.00023543,1.22497e-05,1.26545e-05,0.000108219,0.000120671,-9.57667e-05,0.786333,0.000187854,-0.307343,1.37948,-3.30451,-0.0132871,0.0351637,-0.0095119,0.00210867,118,548,0.00424019,-0.074168,47.9589,103.3,47.9432,103.38,5.5123e-05,5.30537e-05,0.000193244
-17.3184,7.03026,-298.275,0.000403308,0.00287299,0.000588075,4.80655e-05,1.07885e-05,0.000114101,0.00014504,-8.6186e-05,0.704437,0.000202398,-0.336383,1.41058,-3.45753,-0.000421918,0.031829,-0.00439094,0.00205546,125,548,0.00193612,-0.0757879,48.9637,103.954,48.9449,104.035,5.32394e-05,5.20742e-05,0.000187541
-17.032,7.01828,-298.272,0.000439507,0.00294443,0.000901982,7.95068e-05,1.04094e-05,0.00011689,0.000166846,-7.69303e-05,0.641706,0.000215851,-0.360787,1.46121,-3.55541,0.0136246,0.0276742,0.000625638,0.00201772,132,548,0.000208495,-0.0780078,50.0805,104.615,50.0583,104.697,5.25655e-05,5.12231e-05,0.00018543
-16.7419,7.00639,-298.257,0.000483885,0.00305532,0.00112988,0.000104621,1.00349e-05,0.000116673,0.000183221,-6.85659e-05,0.592845,0.000225464,-0.357052,1.50654,-3.6104,0.0249733,0.0232906,0.00471533,0.0020171,139,548,-0.000627024,-0.0793389,51.3789,105.277,51.3537,105.364,5.32931e-05,5.09619e-05,0.000187999
-16.448,6.9944,-298.231,0.000502549,0.00314609,0.00138275,0.0001262,1.17599e-05,0.000113789,0.000196346,-5.83859e-05,0.552431,0.000231138,-0.379378,1.51181,-3.67209,0.034482,0.0184982,0.00683803,0.00203684,146,548,-0.0022616,-0.080048,52.864,105.957,52.8363,106.048,5.42981e-05,5.05559e-05,0.000190784
-16.1511,6.98271,-298.195,0.000458397,0.00318973,0.00163284,0.000142753,1.50004e-05,0.000109395,0.000205555,-4.7802e-05,0.521148,0.000233161,-0.426743,1.50217,-3.74975,0.0417808,0.0137591,0.00739332,0.00206474,153,548,-0.00536632,-0.0804949,54.4915,106.632,54.4632,106.724,5.51822e-05,5.00001e-05,0.000193248
-15.8528,6.97086,-298.154,0.000403967,0.00322363,0.00202989,0.000151686,1.88014e-05,0.000104133,0.000208768,-3.82804e-05,0.501433,0.000230306,-0.392112,1.46798,-3.71617,0.046248,0.00911458,0.00712025,0.00204877,160,548,-0.00988796,-0.0809115,56.1866,107.32,56.1571,107.413,5.47354e-05,4.87132e-05,0.000191483
-15.5536,6.95892,-298.11,0.000388934,0.00326218,0.00261592,0.000152067,2.17499e-05,9.76737e-05,0.000204321,-3.05044e-05,0.491245,0.000221157,-0.321504,1.45093,-3.60498,0.046778,0.00479527,0.00597898,0.0020042,167,548,-0.0149555,-0.0819359,57.9271,108.016,57.8938,108.11,5.34995e-05,4.91904e-05,0.000186979
-15.2538,6.94675,-298.064,0.000413666,0.00330285,0.00334564,0.000146344,2.29668e-05,9.05812e-05,0.000194247,-2.49368e-05,0.486458,0.000207841,-0.245493,1.4534,-3.46817,0.0425637,0.00119095,0.00418971,0.00201358,174,548,-0.0201727,-0.0827435,59.704,108.726,59.6648,108.821,5.26983e-05,5.18179e-05,0.000183864
-14.9528,6.93469,-298.013,0.00046565,0.00336624,0.00397962,0.000138925,2.16944e-05,8.35612e-05,0.000182379,-2.17601e-05,0.479545,0.000194176,-0.197467,1.4777,-3.45475,0.0330922,-0.00180936,0.00196307,0.00204519,181,548,-0.0239528,-0.0840516,61.5417,109.433,61.4964,109.53,5.18919e-05,5.28626e-05,0.00018045
-14.6505,6.92279,-297.957,0.000451891,0.00337645,0.00440521,0.000132924,1.81274e-05,7.76493e-05,0.000172087,-2.10349e-05,0.467121,0.000183511,-0.220674,1.51879,-3.48828,0.0188209,-0.00407325,2.47455e-05,0.00201391,188,548,-0.0276083,-0.0839565,63.4412,110.138,63.3932,110.235,5.0835e-05,5.21536e-05,0.000176463
-14.3482,6.91113,-297.902,0.00044694,0.00339116,0.00482328,0.000127512,1.25683e-05,7.32809e-05,0.00016317,-2.30894e-05,0.452861,0.000175855,-0.249818,1.53917,-3.41821,0.00173138,-0.00554682,-0.000572349,0.00193012,195,548,-0.0309637,-0.0829925,65.3403,110.83,65.2893,110.928,4.98696e-05,4.9898e-05,0.000173275
-14.0476,6.89941,-297.85,0.000425624,0.00340157,0.00522306,0.00012287,5.41997e-06,7.01608e-05,0.000155639,-2.73491e-05,0.436947,0.000170962,-0.252667,1.49922,-3.23087,-0.015698,-0.00607194,0.000293585,0.00192103,202,548,-0.0345594,-0.0820912,67.1593,111.521,67.1058,111.62,5.0186e-05,4.87522e-05,0.000174149
-13.7494,6.8876,-297.806,0.00039619,0.00338685,0.00531011,0.000120646,-3.19226e-06,6.75004e-05,0.000150326,-3.28715e-05,0.414247,0.000169174,-0.249808,1.45917,-3.08989,-0.0329745,-0.00585875,0.00291635,0.00200152,209,548,-0.0358525,-0.0814261,68.8554,112.211,68.802,112.31,5.17512e-05,4.97166e-05,0.000179355
-13.4537,6.87574,-297.769,0.000368758,0.00333314,0.00514807,0.000122035,-1.31418e-05,6.26058e-05,0.000146575,-3.7682e-05,0.373573,0.000168605,-0.263452,1.4279,-2.94135,-0.0486001,-0.0054158,0.00681851,0.0021039,216,548,-0.0350963,-0.0805357,70.4246,112.899,70.3731,112.996,5.4577e-05,5.14443e-05,0.000188672
-13.1591,6.86427,-297.734,0.000368042,0.00330835,0.00495394,0.000126889,-2.38486e-05,5.42149e-05,0.000144362,-4.13223e-05,0.311791,0.000168859,-0.291745,1.41469,-2.86234,-0.0606004,-0.0050623,0.0109324,0.00217372,223,548,-0.0334817,-0.0814619,71.9401,113.565,71.89,113.66,5.68539e-05,5.28676e-05,0.000195888
-12.8643,6.85299,-297.699,0.000432559,0.00336165,0.00492231,0.000131727,-3.50706e-05,4.21394e-05,0.000141768,-4.51121e-05,0.23393,0.000168905,-0.347218,1.42955,-2.74549,-0.0682578,-0.00442313,0.0149527,0.00222215,230,548,-0.0316388,-0.0853074,73.47,114.22,73.4183,114.314,5.88873e-05,5.3657e-05,0.000203957
-12.5696,6.84173,-297.663,0.000539861,0.00344514,0.00516642,0.000135025,-4.59231e-05,2.65989e-05,0.000138854,-4.97521e-05,0.142969,0.000169305,-0.457967,1.43478,-2.60059,-0.070867,-0.0035749,0.019041,0.00222982,237,548,-0.030925,-0.0894144,74.9967,114.872,74.9401,114.967,5.94986e-05,5.37356e-05,0.000207881
-12.2746,6.83037,-297.626,0.000614321,0.00355439,0.00528985,0.000136368,-5.56673e-05,9.02607e-06,0.000136791,-5.60906e-05,0.0468645,0.000171845,-0.585364,1.43506,-2.53796,-0.0689854,-0.00267841,0.0229077,0.00227247,244,548,-0.0300928,-0.093937,76.5383,115.531,76.4786,115.627,6.06294e-05,5.34846e-05,0.000213282
-11.9792,6.81852,-297.587,0.00063698,0.00361391,0.00521623,0.000134779,-6.40698e-05,-1.00177e-05,0.000135282,-6.45732e-05,-0.050209,0.000176654,-0.654873,1.45005,-2.57444,-0.0643545,-0.00203875,0.0265177,0.00241493,251,548,-0.0289272,-0.0959519,78.0968,116.216,78.0368,116.314,6.41566e-05,5.55207e-05,0.000225506
-11.6819,6.8063,-297.541,0.000681171,0.00363965,0.00516122,0.00013107,-7.07335e-05,-3.01334e-05,0.000135473,-7.51369e-05,-0.145105,0.000184872,-0.647631,1.48675,-2.63888,-0.0579648,-0.00156476,0.0292994,0.00249467,258,548,-0.0273303,-0.0964065,79.7573,116.928,79.6963,117.027,6.59216e-05,5.82652e-05,0.000230602
-11.3837,6.794,-297.492,0.000788884,0.00364199,0.00509384,0.000126192,-7.55136e-05,-5.09178e-05,0.000138316,-8.76383e-05,-0.23377,0.000197316,-0.645344,1.51155,-2.78729,-0.0493058,-0.000910877,0.0306302,0.00245814,265,548,-0.0240342,-0.0956954,81.4629,117.647,81.3992,117.747,6.47365e-05,5.88735e-05,0.000225021
-11.083,6.78181,-297.434,0.00091024,0.00360032,0.00509883,0.000117442,-7.86131e-05,-7.23047e-05,0.000141224,-0.000102394,-0.317757,0.000211871,-0.613376,1.53108,-2.95393,-0.0377903,-0.000315631,0.0306641,0.0023028,272,548,-0.0209065,-0.0934267,83.304,118.37,83.2367,118.47,6.0341e-05,5.69396e-05,0.000208067
-10.7801,6.76997,-297.369,0.00101917,0.00354205,0.0050126,0.000101766,-8.13418e-05,-9.34713e-05,0.000141052,-0.000120628,-0.39788,0.000226851,-0.582391,1.52251,-3.05654,-0.0233157,-0.000426102,0.0299027,0.00213912,279,548,-0.01737,-0.0914259,85.261,119.083,85.1912,119.181,5.60001e-05,5.39779e-05,0.000193204
-10.4766,6.75836,-297.301,0.00106102,0.00342331,0.00483893,8.12599e-05,-8.41335e-05,-0.000113266,0.000138806,-0.00014168,-0.470074,0.000242912,-0.548655,1.52718,-3.07147,-0.00647963,-0.00110498,0.029122,0.00201382,286,548,-0.014773,-0.0892054,87.2471,119.79,87.1775,119.884,5.24702e-05,5.18842e-05,0.000181266
-10.1753,6.74663,-297.239,0.00100508,0.00329632,0.00457842,6.16007e-05,-8.69154e-05,-0.000131541,0.000138397,-0.000163711,-0.528435,0.000261939,-0.523216,1.56831,-3.07833,0.0103237,-0.00199742,0.0286265,0.00193531,293,548,-0.0139356,-0.0873062,89.1251,120.497,89.059,120.587,5.01355e-05,4.98561e-05,0.000173557
-9.87714,6.73482,-297.186,0.000969353,0.00324992,0.00438237,4.51911e-05,-9.02804e-05,-0.000148172,0.000140376,-0.000185465,-0.571009,0.000283086,-0.550888,1.58586,-3.13836,0.0258662,-0.00264225,0.0285549,0.00187637,300,548,-0.0131926,-0.0876569,90.8396,121.198,90.776,121.285,4.93852e-05,4.79767e-05,0.000171013
-9.57909,6.72307,-297.134,0.000970844,0.00328885,0.00431417,2.92321e-05,-9.25356e-05,-0.000161088,0.000140558,-0.000203861,-0.604719,0.00029995,-0.560596,1.56887,-3.1222,0.0396465,-0.00331073,0.0287296,0.00186161,307,548,-0.012606,-0.0901989,92.5545,121.893,92.4914,121.98,4.92675e-05,4.67831e-05,0.000170665
-9.27862,6.71098,-297.072,0.00101183,0.00334489,0.00438176,1.06277e-05,-9.43635e-05,-0.000171312,0.000137307,-0.000221043,-0.636724,0.000313151,-0.5442,1.53788,-3.06559,0.0527573,-0.00412143,0.0297514,0.00188929,314,548,-0.0120887,-0.0926108,94.4012,122.614,94.3363,122.701,4.99312e-05,4.67526e-05,0.000172841
-8.97087,6.69904,-296.986,0.00109726,0.00337881,0.00447717,-1.05402e-05,-9.53049e-05,-0.000178935,0.000130964,-0.000236809,-0.669112,0.000322867,-0.507222,1.52713,-3.03606,0.0656274,-0.00496211,0.0313832,0.00199112,321,548,-0.0106371,-0.0933916,96.6366,123.35,96.5684,123.439,5.1979e-05,4.94857e-05,0.000179157
-8.65549,6.68727,-296.875,0.00113109,0.00330899,0.00451526,-3.33566e-05,-9.46928e-05,-0.000184407,0.000122915,-0.000250965,-0.702999,0.000330059,-0.481488,1.53202,-3.12298,0.0768766,-0.00559376,0.0331603,0.00214022,328,548,-0.00991283,-0.091474,99.2784,124.106,99.209,124.192,5.52876e-05,5.42841e-05,0.000190024
-8.33878,6.67577,-296.758,0.00111122,0.00318603,0.00430452,-5.49424e-05,-9.1671e-05,-0.000188199,0.000115786,-0.000262399,-0.736762,0.000335621,-0.474794,1.55711,-3.09186,0.0863852,-0.00574464,0.0333299,0.00224352,335,548,-0.00859676,-0.0896144,101.997,124.855,101.93,124.937,5.72447e-05,5.72309e-05,0.000197557
-8.02594,6.66524,-296.652,0.00114094,0.00305793,0.00404622,-7.39288e-05,-8.67303e-05,-0.000189692,0.000109471,-0.00027013,-0.768533,0.000338416,-0.448644,1.53369,-3.01324,0.0950246,-0.0052392,0.0310566,0.0023209,342,548,-0.00568494,-0.0874649,104.523,125.543,104.457,125.621,5.938e-05,5.91843e-05,0.000205857
-7.73244,6.65379,-296.61,0.00120088,0.00296456,0.0038022,-9.41706e-05,-8.08839e-05,-0.000189592,0.000102181,-0.000277235,-0.802911,0.000340042,-0.451068,1.52698,-2.94778,0.102594,-0.00515268,0.0276853,0.00236974,349,548,-0.00216783,-0.0858298,106.027,126.216,105.961,126.291,6.14806e-05,6.0255e-05,0.00021335
-7.44411,6.641,-296.583,0.0012576,0.00291014,0.00379977,-0.00011912,-7.25512e-05,-0.000187797,9.33997e-05,-0.000285071,-0.847077,0.000341488,-0.410797,1.53172,-2.93975,0.108424,-0.00450465,0.0239111,0.00233735,356,548,-0.000614859,-0.0862888,107.257,126.944,107.19,127.015,6.19909e-05,5.84453e-05,0.000214778
-7.15804,6.62901,-296.564,0.00127235,0.00287067,0.00370002,-0.000146368,-6.45984e-05,-0.000183756,8.27662e-05,-0.000293733,-0.894863,0.000342696,-0.347513,1.56647,-2.95385,0.108899,-0.00508835,0.0197191,0.00233643,363,548,0.00059139,-0.0882692,108.366,127.624,108.299,127.691,6.20003e-05,5.75986e-05,0.000214284
-6.86746,6.61686,-296.53,0.00120044,0.00286353,0.00365882,-0.000172395,-5.71073e-05,-0.000177499,7.18735e-05,-0.000301376,-0.942404,0.000343008,-0.288693,1.62178,-3.04623,0.105739,-0.00592755,0.0141462,0.00228983,370,548,-0.000835482,-0.090519,109.716,128.325,109.652,128.39,5.97099e-05,5.533e-05,0.000206075
-6.56619,6.60554,-296.459,0.00107966,0.00285252,0.00366036,-0.000194676,-5.0265e-05,-0.000168248,6.06172e-05,-0.000305559,-0.988093,0.000339945,-0.211103,1.6585,-3.08569,0.101675,-0.00678348,0.00771109,0.00215976,377,548,-0.00379963,-0.0925197,111.644,129.019,111.583,129.082,5.54958e-05,5.23557e-05,0.000191465
-6.2554,6.59511,-296.355,0.000989319,0.00283453,0.00360899,-0.000213482,-4.43385e-05,-0.00015716,4.95596e-05,-0.000307381,-1.03224,0.000334922,-0.214393,1.65061,-3.07467,0.0962114,-0.00767156,0.00128889,0.00205563,384,548,-0.00561436,-0.0950548,114.095,129.699,114.037,129.759,5.26583e-05,5.0314e-05,0.00018157
-5.94352,6.58471,-296.247,0.000965845,0.00277109,0.00350014,-0.000231895,-4.0113e-05,-0.000145229,3.80261e-05,-0.000310035,-1.07718,0.000330691,-0.211137,1.58427,-2.83605,0.0880708,-0.00903916,-0.00444039,0.00203525,391,548,-0.00528453,-0.0964934,116.614,130.384,116.558,130.439,5.22902e-05,5.02804e-05,0.000180202
-5.63752,6.57431,-296.157,0.000958939,0.00271766,0.00330919,-0.000249825,-3.78044e-05,-0.00013317,2.6398e-05,-0.000314027,-1.12156,0.000328024,-0.199328,1.56006,-2.58503,0.0777658,-0.0111499,-0.0097654,0.00203127,398,548,-0.00393653,-0.0974955,118.824,131.05,118.769,131.102,5.20005e-05,5.08155e-05,0.000179124
-5.33594,6.56267,-296.081,0.000904183,0.00266502,0.00320909,-0.000262539,-3.77025e-05,-0.000121728,1.55766e-05,-0.000315818,-1.15823,0.000323887,-0.194147,1.55361,-2.40376,0.0660823,-0.0143886,-0.0152375,0.00204295,405,548,-0.00445849,-0.0978448,120.797,131.766,120.745,131.815,5.15678e-05,5.13839e-05,0.000177592
-5.04011,6.55022,-296.024,0.000846515,0.00264705,0.00298519,-0.000269646,-3.82537e-05,-0.000112035,7.10133e-06,-0.000315001,-1.18613,0.000318611,-0.212234,1.59192,-2.51433,0.0533638,-0.0180609,-0.0202822,0.00202176,412,548,-0.0041642,-0.0977172,122.46,132.505,122.411,132.553,5.07294e-05,5.07007e-05,0.000174702
-4.74689,6.53834,-295.975,0.000788846,0.00259043,0.00270185,-0.000273704,-3.80977e-05,-0.00010431,1.44661e-06,-0.000313248,-1.20843,0.000313974,-0.249342,1.60928,-2.66692,0.0391897,-0.0217218,-0.024539,0.00197337,419,548,-0.0033998,-0.0966736,123.985,133.207,123.94,133.253,5.08324e-05,4.86205e-05,0.000174989
-4.45539,6.52623,-295.931,0.000746187,0.00251609,0.00245111,-0.000276958,-3.65235e-05,-9.78688e-05,-1.72312e-06,-0.000311759,-1.22916,0.000310901,-0.210433,1.5888,-2.77007,0.0245262,-0.0249208,-0.028083,0.0019831,426,548,-0.00249518,-0.0955209,125.42,133.916,125.378,133.96,5.14748e-05,4.7789e-05,0.000177066
-4.16601,6.51425,-295.894,0.000721394,0.0024501,0.00228493,-0.000276999,-3.35893e-05,-9.1752e-05,-2.87851e-06,-0.000307709,-1.2478,0.00030628,-0.141984,1.58133,-2.81261,0.0107001,-0.0275238,-0.0315426,0.00201279,433,548,-0.00178501,-0.0948563,126.743,134.612,126.703,134.653,5.25762e-05,4.89533e-05,0.000180839
-3.87711,6.50232,-295.857,0.000666146,0.00242939,0.00216488,-0.000273551,-2.9524e-05,-8.58413e-05,-2.35299e-06,-0.000300722,-1.26425,0.000299553,-0.0915131,1.56543,-2.82018,-0.00153817,-0.0298207,-0.0345405,0.00209483,440,548,-0.00223471,-0.0953674,128.042,135.303,128.005,135.343,5.51161e-05,5.26628e-05,0.000189714
-3.58689,6.49033,-295.816,0.00056513,0.00246452,0.00197694,-0.000269056,-2.40903e-05,-8.1083e-05,3.16228e-07,-0.000293463,-1.27842,0.000293621,-0.0919853,1.55898,-2.86104,-0.0114044,-0.0312481,-0.0372194,0.0021474,447,548,-0.00340503,-0.0971051,129.415,136.002,129.383,136.042,5.63511e-05,5.45468e-05,0.000194126
-3.295,6.47857,-295.768,0.000512295,0.00251261,0.00181821,-0.000261809,-1.6819e-05,-7.8007e-05,5.9103e-06,-0.000284539,-1.28727,0.000287539,-0.132272,1.54326,-2.85162,-0.0183212,-0.0311289,-0.0404317,0.00218538,454,548,-0.00360309,-0.0993921,130.887,136.694,130.857,136.734,5.67651e-05,5.5434e-05,0.000195582
-3.0003,6.46748,-295.71,0.000484031,0.00254953,0.00170315,-0.000248894,-9.17913e-06,-7.60329e-05,1.29028e-05,-0.000270976,-1.28815,0.000277653,-0.179097,1.51924,-2.78947,-0.0223805,-0.0310048,-0.0437975,0.00216849,461,548,-0.003479,-0.100225,132.523,137.361,132.495,137.403,5.61623e-05,5.4901e-05,0.00019341
-2.70211,6.45616,-295.638,0.000453978,0.00251047,0.00164002,-0.000232149,-2.93325e-07,-7.24195e-05,2.04677e-05,-0.00025291,-1.29161,0.00026374,-0.21846,1.51216,-2.79073,-0.0253495,-0.0297828,-0.0473133,0.00212755,468,548,-0.00369731,-0.0991573,134.359,138.055,134.333,138.096,5.39128e-05,5.44428e-05,0.000185441
-2.40078,6.44471,-295.555,0.000375986,0.0024273,0.00139035,-0.000213356,9.26696e-06,-6.57156e-05,2.7218e-05,-0.000231307,-1.30414,0.000246048,-0.22321,1.4871,-2.87134,-0.0306905,-0.0284065,-0.0502069,0.00213016,475,548,-0.0037261,-0.0966101,136.376,138.769,136.354,138.808,5.20906e-05,5.44013e-05,0.000179039
-2.09933,6.43333,-295.471,0.000309284,0.00235844,0.00120726,-0.000194129,1.83356e-05,-5.54407e-05,3.19322e-05,-0.000207726,-1.3303,0.000225395,-0.209623,1.47824,-2.87845,-0.0389918,-0.0267953,-0.0522081,0.00217807,482,548,-0.00398297,-0.0948609,138.409,139.482,138.39,139.519,5.22447e-05,5.55029e-05,0.000179223
-1.80101,6.42165,-295.396,0.000296242,0.00235087,0.000975927,-0.000174895,2.62523e-05,-4.15059e-05,3.44803e-05,-0.000183123,-1.3751,0.000202576,-0.235869,1.42937,-2.83337,-0.0470263,-0.0250002,-0.0533813,0.00220704,489,548,-0.00261911,-0.0949576,140.274,140.199,140.257,140.236,5.30329e-05,5.59681e-05,0.000181624
-1.50568,6.4102,-295.331,0.000282063,0.00236236,0.000705735,-0.000155199,3.29525e-05,-2.50203e-05,3.62229e-05,-0.000158469,-1.44083,0.000179346,-0.249354,1.40352,-2.88681,-0.0517297,-0.0236495,-0.053518,0.0022067,496,548,-0.00102859,-0.095051,141.976,140.893,141.962,140.93,5.41428e-05,5.57415e-05,0.000185083
-1.2123,6.39879,-295.272,0.000277435,0.00234783,0.000364225,-0.000135431,3.86053e-05,-6.57519e-06,3.88533e-05,-0.000135679,-1.53309,0.000158714,-0.255089,1.38948,-2.92847,-0.0543258,-0.0232052,-0.0519159,0.00216741,503,548,0.00133111,-0.0945692,143.574,141.579,143.563,141.616,5.5217e-05,5.49031e-05,0.000188635
-0.918629,6.38738,-295.211,0.000315079,0.00226505,9.81654e-05,-0.000115878,4.37557e-05,1.35981e-05,4.49058e-05,-0.000117028,1.48642,0.000144801,-0.263995,1.38123,-3.02833,-0.0584901,-0.0232799,-0.0489905,0.00217416,510,548,0.00429079,-0.0919406,145.197,142.269,145.187,142.305,5.68371e-05,5.47049e-05,0.000194174
-0.62292,6.37623,-295.142,0.000383361,0.00221328,1.76087e-05,-9.58257e-05,4.81117e-05,3.53055e-05,5.63052e-05,-0.000104019,1.34276,0.00014088,-0.246841,1.44732,-3.1265,-0.0647775,-0.0232517,-0.0463265,0.00231205,517,548,0.00666732,-0.0897928,146.946,142.953,146.934,142.988,5.99922e-05,5.75207e-05,0.000205007
-0.325885,6.36476,-295.068,0.00045215,0.00226228,9.80226e-05,-7.52615e-05,5.17117e-05,5.74775e-05,7.38651e-05,-9.74149e-05,1.20292,0.000148799,-0.287637,1.49567,-3.34466,-0.0718009,-0.0228296,-0.0443241,0.00242559,524,548,0.00779178,-0.0909304,148.779,143.658,148.764,143.695,6.3046e-05,6.04537e-05,0.000215271
-0.0291049,6.35337,-294.993,0.000426839,0.00233659,0.000256246,-5.6342e-05,5.54227e-05,8.00853e-05,9.71953e-05,-9.81146e-05,1.09002,0.000169144,-0.30877,1.50201,-3.51311,-0.0782825,-0.0237998,-0.0403871,0.00248645,531,548,0.00594447,-0.0936676,150.603,144.359,150.588,144.397,6.52137e-05,6.20093e-05,0.000222044
0.266808,6.34189,-294.921,0.000331429,0.00246396,0.000272059,-3.96299e-05,5.95938e-05,9.97015e-05,0.000121345,-0.000101381,1.01626,0.000193145,-0.341746,1.50457,-3.63998,-0.0831698,-0.0249025,-0.0356238,0.00250879,538,548,0.00327533,-0.0973858,152.382,145.061,152.37,145.102,6.59061e-05,6.15457e-05,0.000223535
0.561641,6.33037,-294.851,0.000223844,0.00255046,0.000395161,-2.32795e-05,6.44689e-05,0.000115897,0.000144518,-0.000103329,0.966344,0.000215627,-0.346834,1.45935,-3.61467,-0.0865744,-0.0253702,-0.0313571,0.00252331,545,548,-0.000409234,-0.0995381,154.107,145.763,154.097,145.807,6.55944e-05,5.98387e-05,0.000221522
0.854846,6.31904,-294.787,0.000160356,0.00257326,0.000355039,-5.8288e-06,6.97018e-05,0.000128565,0.000165934,-0.000102061,0.928252,0.000234277,-0.355107,1.44198,-3.36614,-0.0892827,-0.0245752,-0.0286395,0.00250789,552,548,-0.00173694,-0.0987175,155.745,146.45,155.737,146.496,6.55235e-05,5.94003e-05,0.000220933
1.14755,6.30778,-294.723,0.000166854,0.00254886,0.000441951,1.21231e-05,7.41035e-05,0.000136374,0.000182964,-9.67376e-05,0.897123,0.000246036,-0.333265,1.44656,-3.22848,-0.0919439,-0.0217927,-0.0278079,0.00251692,559,548,-0.00212367,-0.0964199,157.365,147.134,157.355,147.181,6.7476e-05,6.02801e-05,0.000227316
1.44069,6.29667,-294.657,0.000170008,0.00252857,0.000495779,3.37493e-05,7.64959e-05,0.000136814,0.000193596,-8.33512e-05,0.862883,0.000246096,-0.304384,1.42464,-3.39137,-0.097188,-0.0170919,-0.0288313,0.00255972,566,548,-0.00236102,-0.0938986,159.017,147.813,159.007,147.861,7.00884e-05,6.14905e-05,0.000235975
1.73407,6.28528,-294.59,0.000150933,0.00253222,0.000616442,6.917e-05,7.6293e-05,0.000130075,0.000202855,-5.73925e-05,0.799085,0.000236826,-0.324725,1.3506,-3.69928,-0.112961,-0.00998579,-0.0329813,0.00260662,573,548,-0.00366347,-0.0926189,160.691,148.508,160.68,148.557,7.14314e-05,6.28506e-05,0.000240524
0,0,0,0,0,0,0,0,0,0,0,0,0,0,0,0,0,0,0,-1,580,548,0,0,0,0,0,0,0,0,0
0,0,0,0,0,0,0,0,0,0,0,0,0,0,0,0,0,0,0,-1,587,548,0,0,0,0,0,0,0,0,0
0,0,0,0,0,0,0,0,0,0,0,0,0,0,0,0,0,0,0,-1,594,548,0,0,0,0,0,0,0,0,0
0,0,0,0,0,0,0,0,0,0,0,0,0,0,0,0,0,0,0,-1,601,548,0,0,0,0,0,0,0,0,0
0,0,0,0,0,0,0,0,0,0,0,0,0,0,0,0,0,0,0,-1,62,555,0,0,0,0,0,0,0,0,0
0,0,0,0,0,0,0,0,0,0,0,0,0,0,0,0,0,0,0,-1,69,555,0,0,0,0,0,0,0,0,0
0,0,0,0,0,0,0,0,0,0,0,0,0,0,0,0,0,0,0,-1,76,555,0,0,0,0,0,0,0,0,0
-19.0305,6.82763,-298.231,0.000391919,0.00285161,-0.000879049,-0.00019042,6.23652e-05,6.22954e-05,7.68833e-05,-0.000204938,1.34183,0.000252323,-0.281911,1.4349,-3.45276,-0.00606557,0.0245026,-0.0380999,0.00228701,83,555,0.0137744,-0.0698169,42.3902,101.067,42.3811,101.154,5.58193e-05,5.87438e-05,0.000198705
-18.7481,6.81602,-298.242,0.000394067,0.00287497,-0.00052034,-0.000158956,4.1934e-05,6.72561e-05,6.23715e-05,-0.000179393,1.27579,0.000217396,-0.279647,1.44752,-3.43357,-0.02215,0.0283651,-0.033003,0.00226194,90,555,0.0108272,-0.0709634,43.338,101.697,43.3265,101.783,5.42998e-05,5.82195e-05,0.000192069
-18.4655,6.80449,-298.252,0.000390841,0.00286385,-0.000192253,-0.000116342,2.83833e-05,7.7788e-05,6.22624e-05,-0.000150221,1.16004,0.000189199,-0.250977,1.44766,-3.3885,-0.0305345,0.0317699,-0.0269192,0.00218241,97,555,0.00804133,-0.0719979,44.2902,102.325,44.2767,102.41,5.45522e-05,5.61708e-05,0.000191783
-18.183,6.79308,-298.261,0.000387264,0.00281598,2.38664e-05,-7.16304e-05,2.01803e-05,8.86073e-05,7.40675e-05,-0.000125518,1.0244,0.00017475,-0.245779,1.40918,-3.28457,-0.0330756,0.0334292,-0.020136,0.00212199,104,555,0.00621634,-0.0721252,45.233,102.947,45.2183,103.029,5.50458e-05,5.37944e-05,0.000193141
-17.9003,6.78162,-298.27,0.000372497,0.00278132,0.000243164,-2.91701e-05,1.57839e-05,9.71845e-05,9.30568e-05,-0.000106443,0.899041,0.000172901,-0.238014,1.38244,-3.28375,-0.0297408,0.0331773,-0.0135996,0.00208355,111,555,0.00409105,-0.072202,46.1849,103.572,46.1693,103.652,5.40535e-05,5.22956e-05,0.000190423
-17.6168,6.76996,-298.277,0.000362277,0.00281394,0.000489166,1.07512e-05,1.39097e-05,0.000103511,0.000115854,-9.11931e-05,0.793026,0.000179731,-0.27148,1.38316,-3.29479,-0.0210394,0.0314957,-0.00759724,0.00204444,118,555,0.00179431,-0.0740426,47.1698,104.208,47.1528,104.288,5.27645e-05,5.15059e-05,0.000186352
-17.3318,6.75798,-298.278,0.000368312,0.00284478,0.000778191,4.83017e-05,1.38996e-05,0.000107794,0.000140259,-7.80572e-05,0.706279,0.000191608,-0.315337,1.39699,-3.50796,-0.00804568,0.0286835,-0.00201923,0.0020079,125,555,-0.000433263,-0.0751474,48.2191,104.864,48.2,104.944,5.10513e-05,5.11564e-05,0.000181033
-17.0437,6.7461,-298.27,0.000387887,0.00291073,0.00103528,8.10278e-05,1.54248e-05,0.000109626,0.000162655,-6.6202e-05,0.640031,0.000203979,-0.331369,1.42991,-3.64677,0.0067899,0.0249644,0.00315795,0.00198261,132,555,-0.00209618,-0.0770949,49.4245,105.523,49.403,105.605,5.05237e-05,5.05798e-05,0.00017885
-16.7516,6.73452,-298.25,0.000417148,0.00300454,0.00119947,0.0001072,1.66426e-05,0.000108815,0.000179781,-5.59378e-05,0.58824,0.000213323,-0.329832,1.45707,-3.72231,0.0191345,0.0210079,0.00704845,0.00197807,139,555,-0.00276899,-0.078166,50.8208,106.176,50.7971,106.261,5.14234e-05,5.01618e-05,0.000181435
-16.4562,6.72267,-298.219,0.000445764,0.00311547,0.00143187,0.00012905,1.98019e-05,0.000105827,0.000193519,-4.46669e-05,0.54715,0.000219291,-0.345199,1.47164,-3.73913,0.029579,0.0165623,0.00873226,0.00198066,146,555,-0.00401029,-0.0789464,52.3762,106.851,52.3499,106.942,5.19674e-05,4.98395e-05,0.000182801
-16.1581,6.71097,-298.179,0.000428388,0.00319902,0.00170862,0.000145398,2.40766e-05,0.000101902,0.000203328,-3.38532e-05,0.516925,0.000222197,-0.395625,1.47655,-3.72941,0.0377434,0.0120828,0.00875427,0.00199956,153,555,-0.00671404,-0.0802235,54.0649,107.529,54.0369,107.623,5.2906e-05,4.9582e-05,0.000185268
-15.8589,6.69915,-298.136,0.00038383,0.00324862,0.00216729,0.000154133,2.84499e-05,9.77366e-05,0.000207487,-2.49046e-05,0.49969,0.000220995,-0.397677,1.45251,-3.66992,0.0432409,0.00765181,0.00789779,0.00198822,160,555,-0.0115053,-0.0810551,55.8057,108.218,55.7757,108.313,5.26397e-05,4.91248e-05,0.000184377
-15.5592,6.68727,-298.09,0.00037344,0.00327573,0.0027356,0.000154577,3.15052e-05,9.29917e-05,0.000204549,-1.84673e-05,0.493108,0.00021438,-0.342261,1.43653,-3.50571,0.0450267,0.00352262,0.00612118,0.00199244,167,555,-0.0163042,-0.0819063,57.5755,108.914,57.5417,109.009,5.22334e-05,5.02986e-05,0.000182761
-15.2593,6.67527,-298.043,0.000374394,0.00331199,0.00339872,0.000149245,3.25023e-05,8.80065e-05,0.000196479,-1.4731e-05,0.492576,0.000204243,-0.261728,1.45133,-3.30289,0.0419769,3.9221e-05,0.00374266,0.00203705,174,555,-0.0215663,-0.0825718,59.3549,109.617,59.3164,109.712,5.19663e-05,5.2377e-05,0.0001815
-14.9584,6.66336,-297.993,0.00040507,0.00335073,0.00395956,0.000142559,3.08512e-05,8.31616e-05,0.000186882,-1.34723e-05,0.489683,0.00019397,-0.217034,1.47872,-3.27421,0.0331906,-0.00286637,0.00102042,0.00205906,181,555,-0.0252629,-0.083478,61.1868,110.318,61.1433,110.415,5.14986e-05,5.32193e-05,0.000179182
-14.6571,6.65167,-297.941,0.000385556,0.00335155,0.00430883,0.000137573,2.68077e-05,7.92772e-05,0.000178897,-1.4516e-05,0.480507,0.000186579,-0.246647,1.51537,-3.30426,0.0188978,-0.00512833,-0.00131354,0.00200993,188,555,-0.0284452,-0.0832795,63.0379,111.011,62.9925,111.107,5.06517e-05,5.20412e-05,0.000175749
-14.3561,6.6401,-297.889,0.000375972,0.00335202,0.00460746,0.000133362,2.08935e-05,7.67621e-05,0.000172284,-1.80285e-05,0.46927,0.000181969,-0.280996,1.53218,-3.29173,0.00131159,-0.00665943,-0.00215,0.00191074,195,555,-0.0309611,-0.0825166,64.8761,111.696,64.8286,111.793,4.93122e-05,4.94043e-05,0.000170884
-14.0565,6.62852,-297.84,0.000368328,0.00336416,0.00496331,0.00013016,1.36356e-05,7.5257e-05,0.000167072,-2.32763e-05,0.456001,0.000179843,-0.288029,1.50465,-3.16734,-0.0166548,-0.00732546,-0.0013937,0.00188618,202,555,-0.0338907,-0.0825313,66.6457,112.379,66.5958,112.476,4.89554e-05,4.79258e-05,0.000169499
-13.7587,6.6168,-297.797,0.000372568,0.00337782,0.00517085,0.000130318,5.29674e-06,7.39614e-05,0.000164646,-2.90321e-05,0.434555,0.000180918,-0.281597,1.4822,-3.08952,-0.0343036,-0.00740533,0.00133449,0.00193117,209,555,-0.0353497,-0.0830662,68.3234,113.065,68.2718,113.161,4.98756e-05,4.78333e-05,0.000172586
-13.4621,6.60508,-297.757,0.00035376,0.00340043,0.00510792,0.000134704,-3.82185e-06,7.01944e-05,0.000164055,-3.31723e-05,0.396038,0.000182911,-0.293931,1.461,-2.96199,-0.0499705,-0.00736007,0.00540391,0.00204741,216,555,-0.0352384,-0.0833111,69.9415,113.746,69.8907,113.844,5.32819e-05,4.9177e-05,0.000184016
-13.1655,6.59361,-297.717,0.00037645,0.00342681,0.00505146,0.000142073,-1.33711e-05,6.28559e-05,0.000164309,-3.56069e-05,0.340019,0.000184705,-0.315438,1.44419,-2.86085,-0.0618628,-0.00743961,0.0095357,0.00213363,223,555,-0.0341861,-0.0854778,71.5578,114.416,71.5067,114.514,5.62144e-05,5.061e-05,0.000193485
-12.8683,6.58227,-297.674,0.000423543,0.00348477,0.00509349,0.00014872,-2.33164e-05,5.18201e-05,0.000163123,-3.77196e-05,0.271103,0.000184891,-0.377305,1.46122,-2.75232,-0.0695953,-0.00726107,0.0133999,0.00218617,230,555,-0.0333497,-0.0890821,73.2105,115.082,73.1577,115.179,5.83155e-05,5.15778e-05,0.000201412
-12.5718,6.57113,-297.632,0.00052498,0.00350636,0.00528407,0.000153233,-3.30837e-05,3.7139e-05,0.000160363,-4.02139e-05,0.189677,0.0001838,-0.490899,1.46927,-2.64608,-0.0723833,-0.00690926,0.0173564,0.00216523,237,555,-0.0322876,-0.0913788,74.8283,115.736,74.7712,115.832,5.7945e-05,5.22338e-05,0.000201532
-12.2763,6.55978,-297.593,0.00058117,0.00352818,0.00535909,0.000155606,-4.21269e-05,2.01848e-05,0.000157645,-4.41663e-05,0.100697,0.000183754,-0.591139,1.46788,-2.61595,-0.0705202,-0.00641297,0.0211773,0.00215332,244,555,-0.0314268,-0.0934065,76.3983,116.399,76.3391,116.494,5.76187e-05,5.20242e-05,0.000201431
-11.9821,6.54792,-297.558,0.000608904,0.00352291,0.0053618,0.000154733,-5.01462e-05,1.38167e-06,0.000154742,-5.01555e-05,0.00674343,0.000184991,-0.646813,1.45703,-2.69381,-0.0657629,-0.00597122,0.0246783,0.00221929,251,555,-0.0306524,-0.0933181,77.8994,117.084,77.8392,117.179,5.91981e-05,5.29253e-05,0.000207169
-11.6877,6.53598,-297.521,0.000671803,0.00355338,0.00532612,0.000150921,-5.66874e-05,-1.89657e-05,0.000152639,-5.84057e-05,-0.0903567,0.000188746,-0.644723,1.4797,-2.79375,-0.0592507,-0.00552361,0.0271414,0.00232198,258,555,-0.0287437,-0.0937711,79.413,117.773,79.3511,117.869,6.15872e-05,5.43783e-05,0.000214698
-11.3916,6.5241,-297.479,0.000796963,0.00361394,0.00526308,0.000145625,-6.16084e-05,-4.02878e-05,0.000153182,-6.91651e-05,-0.185414,0.000197087,-0.651412,1.49717,-2.94413,-0.050693,-0.00478011,0.0280868,0.00233842,265,555,-0.0251097,-0.0945011,81.0113,118.463,80.9462,118.562,6.19049e-05,5.53619e-05,0.000214523
-11.0922,6.51215,-297.425,0.00092851,0.00362006,0.00527681,0.000136739,-6.51225e-05,-6.22073e-05,0.00015437,-8.2753e-05,-0.276172,0.000208453,-0.604441,1.52653,-3.03176,-0.0393949,-0.0039999,0.0279396,0.00223529,272,555,-0.0218509,-0.0937677,82.7862,119.17,82.7171,119.27,5.91559e-05,5.42435e-05,0.000203853
-10.7901,6.50031,-297.362,0.00103968,0.00356156,0.00515285,0.000120974,-6.85158e-05,-8.38862e-05,0.000152774,-0.000100315,-0.362342,0.000220745,-0.559752,1.51061,-3.03109,-0.0250206,-0.00379685,0.0271616,0.00210292,279,555,-0.0179727,-0.0924156,84.702,119.883,84.6306,119.981,5.58973e-05,5.1975e-05,0.000192727
-10.4867,6.48876,-297.294,0.00108438,0.00345041,0.00494092,9.99806e-05,-7.2175e-05,-0.000104492,0.000149283,-0.000121478,-0.440863,0.000234898,-0.523635,1.52793,-3.01485,-0.00816609,-0.00409412,0.0263801,0.00198643,286,555,-0.015013,-0.0901788,86.6887,120.588,86.6176,120.683,5.24965e-05,5.05524e-05,0.000181518
-10.1851,6.47705,-297.232,0.00103055,0.00332919,0.00464589,7.93706e-05,-7.61098e-05,-0.000123944,0.000147937,-0.000144676,-0.505301,0.000253416,-0.513786,1.57721,-3.07837,0.00872728,-0.00456242,0.0258917,0.00195341,293,555,-0.013858,-0.0881387,88.5784,121.297,88.5111,121.387,5.06002e-05,4.98029e-05,0.000175159
-9.88635,6.46528,-297.177,0.000983922,0.00332425,0.00446795,6.17329e-05,-8.06884e-05,-0.000141889,0.000149278,-0.000168233,-0.552824,0.000275136,-0.548471,1.61313,-3.14294,0.0242551,-0.00479343,0.0258274,0.00193087,300,555,-0.0135574,-0.0887607,90.3241,121.997,90.2594,122.086,4.98735e-05,4.92148e-05,0.000172777
-9.58796,6.45362,-297.123,0.000978029,0.00335977,0.00443551,4.45025e-05,-8.43223e-05,-0.000156135,0.00014899,-0.00018881,-0.589762,0.00029322,-0.567542,1.58253,-3.17218,0.0381209,-0.00504272,0.0262172,0.00190548,307,555,-0.0134122,-0.0904951,92.0582,122.69,91.9938,122.78,4.9052e-05,4.84288e-05,0.000170131
-9.2871,6.44163,-297.061,0.00101807,0.00339438,0.00456921,2.44347e-05,-8.76028e-05,-0.00016765,0.000145178,-0.000208346,-0.62416,0.000307785,-0.566805,1.52541,-3.14109,0.0513988,-0.00542134,0.0275579,0.00189788,314,555,-0.0134008,-0.0926511,93.9264,123.409,93.8598,123.499,4.89445e-05,4.78632e-05,0.000169768
-8.97951,6.42986,-296.975,0.00110756,0.00339674,0.0047153,1.84144e-06,-9.02633e-05,-0.00017669,0.000138382,-0.000226803,-0.657914,0.000319335,-0.537251,1.48242,-3.09986,0.0645579,-0.00583793,0.0295635,0.00198243,321,555,-0.0122021,-0.0930731,96.1545,124.14,96.0842,124.23,5.05927e-05,4.96214e-05,0.000174862
-8.66488,6.41832,-296.866,0.00114119,0.00331593,0.00475507,-2.21452e-05,-9.16185e-05,-0.00018388,0.000130251,-0.000244014,-0.692044,0.000329076,-0.490792,1.49137,-3.06886,0.0764192,-0.00609326,0.0317372,0.00215924,328,555,-0.0114835,-0.0911745,98.7583,124.887,98.6867,124.973,5.48298e-05,5.47677e-05,0.000188739
-8.34982,6.4073,-296.755,0.00109972,0.00321319,0.00454359,-4.5149e-05,-9.0804e-05,-0.000189466,0.00012286,-0.000258813,-0.725446,0.000337456,-0.482063,1.54027,-2.92827,0.0869998,-0.00582504,0.0323004,0.00227508,335,555,-0.010708,-0.089159,101.39,125.609,101.321,125.692,5.75574e-05,5.77873e-05,0.000198581
-8.03924,6.39676,-296.657,0.00113637,0.00309896,0.00431353,-6.57979e-05,-8.82394e-05,-0.000192469,0.000115777,-0.000269814,-0.756282,0.000342698,-0.457015,1.53874,-2.78439,0.0967871,-0.004902,0.0306432,0.00232751,342,555,-0.00784593,-0.087196,103.797,126.293,103.729,126.372,5.93006e-05,5.93901e-05,0.000205429
-7.74296,6.38546,-296.605,0.00122896,0.00300548,0.00406928,-8.76474e-05,-8.49713e-05,-0.000193387,0.000107082,-0.000279701,-0.788858,0.000345904,-0.470181,1.54672,-2.78007,0.105099,-0.00450119,0.0281786,0.00234782,349,555,-0.00351581,-0.0861098,105.45,126.969,105.381,127.045,6.06562e-05,5.97294e-05,0.000210442
-7.45357,6.37295,-296.575,0.00131189,0.00293538,0.00400655,-0.000114363,-7.92994e-05,-0.000192186,9.61531e-05,-0.000289815,-0.830884,0.000348002,-0.453504,1.54639,-2.82598,0.111221,-0.00336902,0.0253964,0.00230781,356,555,-0.000839466,-0.0867284,106.738,127.687,106.667,127.759,6.12359e-05,5.75975e-05,0.000212193
-7.16567,6.36118,-296.55,0.00131855,0.00291532,0.00382164,-0.000143328,-7.38942e-05,-0.000188323,8.28851e-05,-0.000300108,-0.876549,0.000349011,-0.403228,1.61361,-2.9102,0.111636,-0.00350561,0.0220528,0.00231263,363,555,0.000788715,-0.0891859,107.945,128.361,107.876,128.429,6.14987e-05,5.67933e-05,0.000212641
-6.8724,6.34918,-296.506,0.0012284,0.00291803,0.00372368,-0.000171652,-6.88439e-05,-0.000182258,6.91206e-05,-0.000309617,-0.922848,0.000349344,-0.337222,1.65372,-3.07088,0.108452,-0.00388776,0.0169984,0.00229622,370,555,-0.000673308,-0.0915161,109.439,129.064,109.374,129.131,6.04691e-05,5.57977e-05,0.000208742
-6.56781,6.338,-296.424,0.00109345,0.00289154,0.00372001,-0.000196384,-6.43094e-05,-0.000173245,5.50577e-05,-0.000315751,-0.967486,0.000346575,-0.224495,1.67377,-3.11975,0.104381,-0.00433383,0.0107537,0.00217905,377,555,-0.00393402,-0.0931954,111.547,129.765,111.486,129.829,5.67937e-05,5.35782e-05,0.000195958
-6.25115,6.32725,-296.301,0.000972523,0.00285695,0.00367669,-0.000216694,-6.04977e-05,-0.000162222,4.14471e-05,-0.000318638,-1.00974,0.000341255,-0.196312,1.63979,-3.08256,0.0989501,-0.00487953,0.00442154,0.00205644,384,555,-0.00655264,-0.0952351,114.315,130.487,114.257,130.547,5.28426e-05,5.13658e-05,0.000182336
-5.93488,6.31665,-296.177,0.000961663,0.00279294,0.00350706,-0.000235491,-5.79154e-05,-0.000150084,2.76773e-05,-0.000321084,-1.0525,0.000335779,-0.168777,1.59708,-2.81837,0.0910681,-0.00594939,-0.00117437,0.0020449,391,555,-0.00544761,-0.0962645,117.075,131.202,117.019,131.258,5.16153e-05,5.20389e-05,0.000178012
-5.62908,6.30642,-296.088,0.000986757,0.00272263,0.00334726,-0.00025337,-5.63663e-05,-0.000137706,1.44406e-05,-0.000324177,-1.09586,0.000331633,-0.152888,1.58294,-2.57794,0.0813875,-0.00774043,-0.00637681,0.00210455,398,555,-0.00351257,-0.0970442,119.279,131.863,119.223,131.915,5.1162e-05,5.36214e-05,0.000176296
-5.32884,6.2948,-296.017,0.000934977,0.00263361,0.00324503,-0.000266535,-5.6119e-05,-0.000126167,2.94957e-06,-0.000325604,-1.13293,0.000327088,-0.164628,1.57348,-2.46059,0.0706829,-0.0105292,-0.0117622,0.00213008,405,555,-0.00390902,-0.0969811,121.183,132.578,121.13,132.626,5.07537e-05,5.42581e-05,0.000174834
-5.03806,6.28269,-295.977,0.000891106,0.00260632,0.00302011,-0.00027408,-5.58564e-05,-0.000116706,-5.20091e-06,-0.000324736,-1.16129,0.000322167,-0.186865,1.59596,-2.61747,0.0587416,-0.0138702,-0.0168993,0.00207698,412,555,-0.00325376,-0.0969381,122.574,133.284,122.524,133.33,4.99264e-05,5.26626e-05,0.000172017
-4.74932,6.27098,-295.943,0.000809817,0.0025516,0.00266562,-0.000278379,-5.45157e-05,-0.000109537,-9.83595e-06,-0.000323059,-1.1835,0.000318255,-0.221284,1.60481,-2.73884,0.0450135,-0.0171522,-0.0213456,0.00198947,419,555,-0.00255917,-0.0960384,123.854,133.962,123.809,134.007,4.99166e-05,5.00683e-05,0.000171944
-4.46078,6.2588,-295.909,0.000745212,0.00248928,0.00239422,-0.000282043,-5.15307e-05,-0.000103789,-1.16863e-05,-0.000321888,-1.20425,0.000316207,-0.187642,1.60963,-2.7979,0.0304476,-0.0199789,-0.0250532,0.0019527,426,555,-0.00206629,-0.0951535,125.127,134.666,125.086,134.708,5.01969e-05,4.86548e-05,0.000172791
-4.17325,6.24701,-295.878,0.000694319,0.00243889,0.00221318,-0.000282583,-4.70513e-05,-9.84372e-05,-1.13288e-05,-0.000318305,-1.22268,0.000312795,-0.133728,1.59805,-2.79805,0.0164988,-0.0222763,-0.0285263,0.00197532,433,555,-0.00191843,-0.094719,126.349,135.346,126.311,135.387,5.0961e-05,4.9518e-05,0.00017535
-3.88577,6.23525,-295.846,0.000628732,0.00246017,0.00204656,-0.000279459,-4.13342e-05,-9.32846e-05,-9.14233e-06,-0.000311651,-1.2385,0.000307182,-0.104018,1.57927,-2.7506,0.00403912,-0.0244786,-0.0314789,0.00205432,440,555,-0.0023228,-0.0953565,127.57,136.023,127.535,136.064,5.22476e-05,5.26739e-05,0.0001799
-3.59711,6.22341,-295.81,0.000561566,0.0025035,0.00190913,-0.000275323,-3.42819e-05,-8.93114e-05,-4.79666e-06,-0.000304808,-1.25192,0.000302439,-0.0910608,1.56329,-2.74566,-0.00603628,-0.0260765,-0.0343379,0.00210849,447,555,-0.00301544,-0.0967901,128.859,136.708,128.827,136.75,5.28158e-05,5.4059e-05,0.000181992
-3.30629,6.21159,-295.766,0.000540609,0.00255178,0.00183227,-0.000269122,-2.54812e-05,-8.71176e-05,2.46386e-06,-0.000297067,-1.26039,0.000298306,-0.111088,1.54493,-2.69502,-0.0131155,-0.026499,-0.0377807,0.00216247,454,555,-0.00300647,-0.09893,130.273,137.401,130.242,137.444,5.32983e-05,5.51927e-05,0.000183737
-3.01233,6.20056,-295.71,0.000533058,0.00254923,0.00173546,-0.000257839,-1.69097e-05,-8.59245e-05,1.05944e-05,-0.000285343,-1.26101,0.000290785,-0.132337,1.53322,-2.5699,-0.017437,-0.027536,-0.0413031,0.00212546,461,555,-0.00246131,-0.0996965,131.869,138.066,131.839,138.108,5.2858e-05,5.38754e-05,0.000182178
-2.71367,6.18937,-295.637,0.000494738,0.00249015,0.00173237,-0.0002429,-7.66996e-06,-8.27594e-05,1.85288e-05,-0.000269099,-1.26421,0.000278826,-0.171318,1.52058,-2.67766,-0.0208606,-0.0277013,-0.0450604,0.00207883,468,555,-0.00331863,-0.0996333,133.732,138.76,133.704,138.799,5.15609e-05,5.3032e-05,0.000177431
-2.41198,6.17809,-295.553,0.000399822,0.00240306,0.00158663,-0.000225943,1.84577e-06,-7.59956e-05,2.4872e-05,-0.000248969,-1.27659,0.000262291,-0.206011,1.50543,-2.84473,-0.0269131,-0.0278896,-0.0484197,0.00208734,475,555,-0.00452893,-0.0978153,135.77,139.472,135.745,139.508,5.12368e-05,5.32269e-05,0.000176064
-2.11037,6.16685,-295.468,0.000335197,0.00235464,0.0014116,-0.000208847,1.07051e-05,-6.50828e-05,2.85478e-05,-0.000226689,-1.30322,0.000242228,-0.216513,1.49215,-2.90425,-0.0362242,-0.0278847,-0.0511916,0.00216646,482,555,-0.00480259,-0.0959957,137.813,140.179,137.791,140.215,5.22866e-05,5.51164e-05,0.000179325
-1.81198,6.15539,-295.393,0.000314357,0.00235746,0.00107191,-0.000192071,1.8456e-05,-5.02059e-05,2.9816e-05,-0.000203431,-1.34828,0.00021986,-0.245862,1.43821,-2.87881,-0.0456444,-0.0276136,-0.0533491,0.00221893,489,555,-0.00285514,-0.0956746,139.681,140.886,139.662,140.923,5.3276e-05,5.63532e-05,0.000182465
-1.51662,6.14408,-295.328,0.000305226,0.00235069,0.000693671,-0.00017477,2.49959e-05,-3.27237e-05,3.02198e-05,-0.000179994,-1.4125,0.000196851,-0.238213,1.41337,-2.91266,-0.0520458,-0.0276436,-0.0545301,0.00220439,496,555,-0.000335591,-0.0949594,141.385,141.576,141.37,141.613,5.45464e-05,5.59398e-05,0.000186578
-1.22315,6.13265,-295.269,0.000295371,0.00232435,0.00023114,-0.000156807,3.05057e-05,-1.34785e-05,3.14706e-05,-0.000157772,-1.49933,0.000175635,-0.211828,1.40418,-2.91946,-0.056466,-0.0281423,-0.0540056,0.00216239,503,555,0.00276699,-0.0944832,142.987,142.266,142.977,142.303,5.59201e-05,5.47515e-05,0.000191163
-0.929114,6.12144,-295.206,0.000318252,0.00226505,-3.62333e-05,-0.000137899,3.5538e-05,7.42422e-06,3.58552e-05,-0.000138217,1.52809,0.000159202,-0.206029,1.40957,-2.99803,-0.0624059,-0.0286395,-0.0522172,0.00219516,510,555,0.00533096,-0.0927108,144.631,142.95,144.622,142.985,5.80731e-05,5.419e-05,0.000198572
-0.633353,6.11036,-295.137,0.000360561,0.0022239,-4.72846e-05,-0.000117577,3.99945e-05,2.99858e-05,4.55079e-05,-0.00012309,1.38896,0.000151075,-0.191702,1.47582,-3.07243,-0.0703384,-0.0285258,-0.0506976,0.00228927,517,555,0.00653035,-0.0916548,146.383,143.633,146.372,143.667,6.06311e-05,5.64876e-05,0.000207288
-0.336297,6.09913,-295.063,0.000430398,0.00225139,5.21505e-05,-9.59536e-05,4.42e-05,5.31701e-05,6.2088e-05,-0.000113842,1.24626,0.000154541,-0.225282,1.51175,-3.17839,-0.0787721,-0.0277964,-0.0498554,0.00236705,524,555,0.00755546,-0.0932642,148.218,144.33,148.205,144.364,6.29776e-05,5.88522e-05,0.000214992
-0.0399081,6.08786,-294.99,0.000390173,0.00230397,0.000249706,-7.52921e-05,4.92545e-05,7.66344e-05,8.57273e-05,-0.000111765,1.12659,0.000171528,-0.260838,1.50416,-3.32763,-0.0871367,-0.0279035,-0.0469345,0.00244669,531,555,0.00507085,-0.0957522,150.02,145.028,150.007,145.062,6.50233e-05,6.06508e-05,0.000221299
0.255227,6.0765,-294.92,0.000307629,0.00242644,0.000341828,-5.5935e-05,5.50269e-05,9.71684e-05,0.000111438,-0.000112346,1.0448,0.000193803,-0.311747,1.48882,-3.47946,-0.0940249,-0.0277505,-0.0432544,0.00249677,538,555,0.00219103,-0.0995618,151.756,145.723,151.744,145.761,6.63405e-05,6.03983e-05,0.000224797
0.54915,6.06525,-294.854,0.000181694,0.00253475,0.000363871,-3.63207e-05,6.1339e-05,0.000114421,0.000136914,-0.000111896,0.987077,0.000215838,-0.344961,1.44747,-3.60498,-0.0992254,-0.0267502,-0.0401418,0.00253949,545,555,-0.00126066,-0.101489,153.427,146.409,153.418,146.45,6.66948e-05,5.93598e-05,0.000225134
0.841499,6.05415,-294.793,0.000112189,0.00259407,0.000275395,-1.48888e-05,6.75333e-05,0.000128634,0.000161396,-0.000108752,0.94042,0.000235431,-0.373161,1.47128,-3.4787,-0.103061,-0.0245628,-0.038718,0.00254111,552,555,-0.00243935,-0.101247,155.015,147.081,155.009,147.126,6.66193e-05,5.97232e-05,0.00022447
1.13404,6.04308,-294.73,0.00011641,0.00259058,0.000352297,8.08987e-06,7.21447e-05,0.000138618,0.000182387,-0.000102153,0.89893,0.000249663,-0.36353,1.50176,-3.31632,-0.105514,-0.0207869,-0.0392766,0.00252881,559,555,-0.00283556,-0.0991362,156.625,147.756,156.618,147.803,6.811e-05,6.1196e-05,0.000229213
1.42728,6.03178,-294.663,0.000146401,0.00256116,0.000529278,3.56369e-05,7.36732e-05,0.000141584,0.000197511,-8.82006e-05,0.852161,0.000253398,-0.322479,1.48339,-3.42922,-0.108433,-0.015879,-0.0417788,0.00255258,566,555,-0.00324843,-0.0966836,158.285,148.449,158.275,148.496,7.02954e-05,6.28343e-05,0.000236423
1.72079,6.0203,-294.595,0.000164807,0.00255963,0.000760889,7.7984e-05,7.12184e-05,0.000137227,0.00021187,-6.26676e-05,0.773075,0.000249186,-0.31515,1.39541,-3.63222,-0.118827,-0.00942038,-0.04796,0.00263299,573,555,-0.00436963,-0.0956073,159.967,149.153,159.955,149.201,7.096e-05,6.38092e-05,0.000239046
0,0,0,0,0,0,0,0,0,0,0,0,0,0,0,0,0,0,0,-1,580,555,0,0,0,0,0,0,0,0,0
0,0,0,0,0,0,0,0,0,0,0,0,0,0,0,0,0,0,0,-1,587,555,0,0,0,0,0,0,0,0,0
0,0,0,0,0,0,0,0,0,0,0,0,0,0,0,0,0,0,0,-1,594,555,0,0,0,0,0,0,0,0,0
0,0,0,0,0,0,0,0,0,0,0,0,0,0,0,0,0,0,0,-1,601,555,0,0,0,0,0,0,0,0,0
0,0,0,0,0,0,0,0,0,0,0,0,0,0,0,0,0,0,0,-1,62,562,0,0,0,0,0,0,0,0,0
0,0,0,0,0,0,0,0,0,0,0,0,0,0,0,0,0,0,0,-1,69,562,0,0,0,0,0,0,0,0,0
0,0,0,0,0,0,0,0,0,0,0,0,0,0,0,0,0,0,0,-1,76,562,0,0,0,0,0,0,0,0,0
-19.0431,6.55545,-298.233,0.000416243,0.00282664,-0.000776126,-0.000217443,5.93529e-05,7.02277e-05,7.61514e-05,-0.000234241,1.33601,0.000280189,-0.209728,1.44586,-3.45869,-0.00292796,0.021391,-0.0380891,0.00215732,83,562,0.0135439,-0.0696116,41.6819,101.984,41.6715,102.069,5.44853e-05,5.54177e-05,0.000194422
-18.76,6.5438,-298.241,0.00039517,0.0028399,-0.000450958,-0.000177996,3.7438e-05,7.14422e-05,5.89763e-05,-0.000199534,1.27798,0.000234648,-0.247408,1.44702,-3.50493,-0.0220399,0.0241471,-0.0332998,0.00215623,90,562,0.0103143,-0.0707931,42.6661,102.616,42.6542,102.701,5.3563e-05,5.54194e-05,0.000190083
-18.4773,6.53222,-298.25,0.000379265,0.00282914,-0.000127943,-0.000129284,2.34222e-05,7.79966e-05,5.62171e-05,-0.000162079,1.17277,0.00019632,-0.238935,1.43702,-3.49903,-0.0328137,0.0271986,-0.0266725,0.00211804,97,562,0.00726043,-0.0719007,43.6257,103.246,43.6122,103.329,5.36853e-05,5.4355e-05,0.0001895
-18.195,6.52084,-298.261,0.000382997,0.00278987,0.000158242,-7.95148e-05,1.56381e-05,8.51424e-05,6.5595e-05,-0.000129472,1.04018,0.000171925,-0.234347,1.39932,-3.38149,-0.0372041,0.0290366,-0.0190705,0.00207168,104,562,0.0050382,-0.0718251,44.5614,103.864,44.546,103.945,5.37781e-05,5.24224e-05,0.000189465
-17.9121,6.50939,-298.27,0.000353523,0.0027801,0.000403614,-3.35449e-05,1.22631e-05,9.06608e-05,8.28683e-05,-0.00010415,0.909126,0.000162312,-0.216575,1.36813,-3.33524,-0.0352953,0.0292917,-0.0118947,0.00206148,111,562,0.002323,-0.0719897,45.5161,104.486,45.4999,104.566,5.32243e-05,5.20168e-05,0.000188018
-17.6282,6.49766,-298.275,0.000338617,0.00280431,0.0006243,8.47602e-06,1.17546e-05,9.461e-05,0.00010474,-8.45089e-05,0.794061,0.000164206,-0.248515,1.3839,-3.30691,-0.0274007,0.0282679,-0.00552458,0.00205652,118,562,0.000136289,-0.0731533,46.5206,105.125,46.5033,105.205,5.21122e-05,5.2288e-05,0.000184801
-17.3425,6.48566,-298.274,0.000332496,0.00281248,0.000847994,4.72578e-05,1.32348e-05,9.71533e-05,0.000128878,-6.83851e-05,0.698727,0.000173492,-0.305849,1.39451,-3.51429,-0.0143847,0.0261744,0.000171844,0.00207284,125,562,-0.00182734,-0.0734134,47.606,105.784,47.5873,105.863,5.12571e-05,5.30143e-05,0.000182245
-17.0516,6.47417,-298.258,0.000349682,0.00286809,0.00102615,8.07803e-05,1.63204e-05,9.7922e-05,0.00015164,-5.45394e-05,0.626413,0.00018504,-0.338869,1.42129,-3.69117,0.00117825,0.02326,0.00517597,0.00208713,132,562,-0.00289416,-0.0749181,48.9485,106.43,48.9281,106.511,5.10681e-05,5.33315e-05,0.000180684
-16.7572,6.4628,-298.23,0.000372046,0.00295386,0.0012006,0.000107659,1.89017e-05,9.6452e-05,0.000169452,-4.28914e-05,0.569782,0.000194478,-0.340686,1.4197,-3.79903,0.0143927,0.0201391,0.00858619,0.00205203,139,562,-0.0038147,-0.076045,50.4603,107.079,50.4379,107.164,5.14155e-05,5.21156e-05,0.000180917
-16.4604,6.451,-298.195,0.000422182,0.00306682,0.00149934,0.000129406,2.32877e-05,9.34579e-05,0.000183817,-3.11223e-05,0.527219,0.000201191,-0.34446,1.42184,-3.81609,0.0255591,0.016626,0.00962533,0.00200323,146,562,-0.00507836,-0.0777229,52.0839,107.757,52.0578,107.846,5.1456e-05,5.04268e-05,0.000180424
-16.1624,6.43934,-298.155,0.000434627,0.00316235,0.00186573,0.000145272,2.84511e-05,9.01747e-05,0.000194301,-2.0578e-05,0.498003,0.000205365,-0.364207,1.43134,-3.73027,0.0342947,0.0130905,0.00891375,0.00198579,153,562,-0.00779511,-0.0800829,53.7736,108.434,53.7445,108.525,5.18379e-05,4.98519e-05,0.000181106
-15.8635,6.4276,-298.113,0.000397524,0.00321772,0.00232864,0.000153725,3.33787e-05,8.72283e-05,0.000199522,-1.24178e-05,0.483462,0.000206011,-0.366906,1.42424,-3.62862,0.0404602,0.00953922,0.00730877,0.00197278,160,562,-0.0124492,-0.0816664,55.499,109.119,55.4676,109.212,5.16183e-05,4.99526e-05,0.000180499
-15.5643,6.41577,-298.069,0.000379919,0.0032493,0.0028315,0.000154344,3.67947e-05,8.42278e-05,0.000198276,-7.13799e-06,0.480773,0.00020194,-0.3334,1.42302,-3.4031,0.0430899,0.00621608,0.00477719,0.00200078,167,562,-0.0169042,-0.0827487,57.2454,109.812,57.2109,109.904,5.17629e-05,5.11782e-05,0.000181056
-15.2648,6.40389,-298.023,0.000375969,0.00328713,0.00341561,0.000149607,3.80742e-05,8.13137e-05,0.00019244,-4.75876e-06,0.484827,0.000194862,-0.292498,1.44501,-3.22384,0.0408332,0.00337141,0.0017339,0.00203984,174,562,-0.0216544,-0.0833793,59.01,110.508,58.9714,110.601,5.21415e-05,5.25272e-05,0.000182214
-14.9642,6.39208,-297.974,0.000397227,0.00333631,0.00390996,0.00014376,3.67263e-05,7.85882e-05,0.000185323,-4.83661e-06,0.486476,0.000187788,-0.266169,1.47749,-3.18236,0.0324765,0.000959128,-0.00150807,0.00205098,181,562,-0.0250563,-0.0840139,60.8247,111.204,60.7819,111.298,5.17777e-05,5.29812e-05,0.000180412
-14.6639,6.38059,-297.924,0.000370601,0.00334387,0.00417956,0.00013982,3.29803e-05,7.66779e-05,0.000179852,-7.05135e-06,0.481152,0.000183479,-0.280304,1.51259,-3.16757,0.0179603,-0.00104832,-0.00418797,0.00198731,188,562,-0.0277865,-0.0838962,62.6262,111.884,62.5822,111.979,5.08112e-05,5.1395e-05,0.000176461
-14.3642,6.36908,-297.876,0.000343306,0.00333588,0.00437277,0.000136985,2.74724e-05,7.59874e-05,0.000175889,-1.14321e-05,0.473191,0.000181875,-0.305721,1.51655,-3.16736,-0.000235799,-0.00259503,-0.00520163,0.00190645,195,562,-0.0298991,-0.0832912,64.398,112.564,64.3533,112.659,4.89808e-05,4.94095e-05,0.000169595
-14.066,6.35752,-297.833,0.000340381,0.00334898,0.00469032,0.000135543,2.08089e-05,7.6058e-05,0.000173443,-1.7091e-05,0.46229,0.000182589,-0.331817,1.49206,-3.1274,-0.0187199,-0.00359294,-0.00444644,0.00186543,202,562,-0.03242,-0.0837313,66.0968,113.242,66.0497,113.337,4.78232e-05,4.75571e-05,0.000165502
-13.769,6.34589,-297.792,0.000352849,0.00338252,0.00497829,0.000138332,1.33613e-05,7.60712e-05,0.000174291,-2.25975e-05,0.441569,0.000186618,-0.333967,1.46742,-3.11235,-0.036565,-0.0043251,-0.00149351,0.00190041,209,562,-0.0343382,-0.0846969,67.7384,113.921,67.6888,114.017,4.88684e-05,4.68821e-05,0.000168696
-13.4716,6.33425,-297.749,0.000357471,0.00346689,0.00506126,0.000145754,5.55033e-06,7.34766e-05,0.000177206,-2.59011e-05,0.404449,0.000191475,-0.351205,1.45808,-2.99158,-0.0520098,-0.00512304,0.00286607,0.00201453,216,562,-0.0348652,-0.0860042,69.3974,114.599,69.3468,114.698,5.24545e-05,4.78113e-05,0.000180918
-13.1732,6.32271,-297.703,0.000386194,0.00355622,0.00507255,0.000155455,-2.53166e-06,6.7429e-05,0.000180321,-2.73969e-05,0.353291,0.000195464,-0.367345,1.45923,-2.9039,-0.0635641,-0.00613077,0.00717668,0.00211534,223,562,-0.0342553,-0.088872,71.1065,115.277,71.0549,115.378,5.57941e-05,4.92439e-05,0.000191686
-12.874,6.31125,-297.654,0.000415105,0.00360989,0.00515517,0.000163651,-1.09914e-05,5.78432e-05,0.000181071,-2.8412e-05,0.292528,0.000196821,-0.413206,1.48064,-2.81297,-0.0711427,-0.00697705,0.0111144,0.00217389,230,562,-0.034174,-0.0918265,72.8621,115.956,72.8089,116.057,5.78332e-05,5.08079e-05,0.000199057
-12.5753,6.30005,-297.605,0.000509355,0.00359386,0.00532668,0.000169302,-1.95676e-05,4.45803e-05,0.000179296,-2.95614e-05,0.22053,0.000195758,-0.494887,1.49744,-2.71643,-0.0738778,-0.00772719,0.0151344,0.00212035,237,562,-0.0330934,-0.0927973,74.5946,116.623,74.5375,116.722,5.65344e-05,5.2063e-05,0.000195665
-12.2792,6.28871,-297.564,0.000563734,0.00356269,0.00540893,0.000172986,-2.78453e-05,2.88078e-05,0.000177037,-3.18959e-05,0.139691,0.000194952,-0.543449,1.49538,-2.66848,-0.0717457,-0.00822277,0.0190074,0.00205811,244,562,-0.0322755,-0.0935138,76.1968,117.289,76.1376,117.386,5.50082e-05,5.15671e-05,0.000191054
-11.9859,6.27714,-297.532,0.000626535,0.00350514,0.00555383,0.000173454,-3.54349e-05,1.07747e-05,0.000174008,-3.59892e-05,0.0513995,0.000194516,-0.582043,1.4732,-2.73148,-0.0665479,-0.00851811,0.0224667,0.00205181,251,562,-0.031689,-0.0924062,77.6528,117.959,77.5907,118.053,5.4985e-05,5.12735e-05,0.000191314
-11.6941,6.26546,-297.504,0.000700244,0.00351232,0.00557081,0.000170284,-4.18494e-05,-9.29447e-06,0.000170691,-4.22558e-05,-0.0437026,0.000195278,-0.610281,1.48627,-2.85916,-0.0596854,-0.00855762,0.0246854,0.00210927,258,562,-0.0298921,-0.0922227,79.0345,118.627,78.9701,118.722,5.64706e-05,5.1236e-05,0.000196213
-11.3998,6.25398,-297.467,0.000826546,0.00357734,0.00552533,0.000165125,-4.68685e-05,-3.06815e-05,0.000169476,-5.12197e-05,-0.140878,0.000200065,-0.625148,1.52575,-2.97735,-0.0511501,-0.008118,0.0252975,0.00215894,265,562,-0.0263666,-0.0931309,80.5474,119.292,80.4795,119.39,5.78297e-05,5.17995e-05,0.000199883
-11.1012,6.24219,-297.416,0.000945446,0.003602,0.00549615,0.000156507,-5.06797e-05,-5.2684e-05,0.000169134,-6.33068e-05,-0.235239,0.000208138,-0.583576,1.5442,-2.9794,-0.0401372,-0.00746219,0.0249731,0.00212402,272,562,-0.0231103,-0.0933705,82.281,119.99,82.2098,120.088,5.69034e-05,5.08669e-05,0.000195898
-10.7992,6.23044,-297.353,0.00103429,0.00357105,0.00529513,0.000141181,-5.45235e-05,-7.4504e-05,0.000166316,-7.96587e-05,-0.325377,0.000217382,-0.536701,1.53095,-2.92129,-0.0260839,-0.00717045,0.0241312,0.00205333,279,562,-0.0192147,-0.0926493,84.1889,120.698,84.1165,120.796,5.51307e-05,4.97305e-05,0.000189677
-10.4953,6.21889,-297.284,0.00107729,0.00348926,0.00505433,0.000120303,-5.87363e-05,-9.55939e-05,0.000161749,-0.000100182,-0.4091,0.000228918,-0.513855,1.53635,-2.95046,-0.00956711,-0.00720711,0.0233221,0.00197914,286,562,-0.0160982,-0.0906745,86.1985,121.405,86.1267,121.501,5.27907e-05,4.9345e-05,0.000182211
-10.1929,6.2073,-297.218,0.00104261,0.00339988,0.0047913,9.91874e-05,-6.3421e-05,-0.000115949,0.000159497,-0.000123731,-0.47963,0.000245933,-0.524876,1.57397,-3.08706,0.00704184,-0.00732102,0.0228772,0.00197409,293,562,-0.0147388,-0.0887939,88.1363,122.111,88.0674,122.204,5.13234e-05,4.95161e-05,0.000177659
-9.89343,6.19562,-297.161,0.00100177,0.0034044,0.00466023,8.05254e-05,-6.87143e-05,-0.000134965,0.000160125,-0.000148314,-0.532871,0.000267182,-0.544766,1.5938,-3.11418,0.0221432,-0.00710752,0.0228388,0.00197814,300,562,-0.0146587,-0.0894257,89.9204,122.81,89.8536,122.903,5.08327e-05,4.97245e-05,0.00017648
-9.59451,6.18401,-297.106,0.000996359,0.00339759,0.0046733,6.18881e-05,-7.33258e-05,-0.000150534,0.0001593,-0.000170738,-0.57434,0.000285878,-0.55868,1.54747,-3.15486,0.0357639,-0.00682996,0.0234596,0.00196489,307,562,-0.014801,-0.0902135,91.6833,123.506,91.6165,123.597,5.02497e-05,4.95455e-05,0.000174555
-9.29372,6.1723,-297.043,0.00102127,0.00339624,0.00481406,4.01668e-05,-7.77894e-05,-0.000163387,0.000154894,-0.000192517,-0.61219,0.000301454,-0.57497,1.48871,-3.15807,0.0489463,-0.00657949,0.025105,0.00194859,314,562,-0.0151799,-0.0918219,93.5491,124.213,93.4805,124.304,5.00662e-05,4.9106e-05,0.00017384
-8.98738,6.16069,-296.962,0.00110642,0.00337101,0.00497828,1.61037e-05,-8.20369e-05,-0.000173921,0.000147744,-0.000213678,-0.647902,0.000314732,-0.577546,1.44631,-3.14716,0.0621682,-0.00635899,0.0275003,0.00201197,321,562,-0.014199,-0.0920695,95.7125,124.937,95.6403,125.025,5.11401e-05,5.05331e-05,0.000177141
-8.6748,6.14955,-296.859,0.00115279,0.00332818,0.00498595,-9.03992e-06,-8.545e-05,-0.000182961,0.000139663,-0.000234153,-0.68247,0.000327163,-0.526014,1.48443,-3.0272,0.0744849,-0.00602331,0.0300956,0.00214603,328,562,-0.0129625,-0.0915952,98.2097,125.658,98.1361,125.744,5.41519e-05,5.41904e-05,0.000187184
-8.36227,6.1389,-296.756,0.00112804,0.00326959,0.00483714,-3.35816e-05,-8.72403e-05,-0.000190521,0.00013199,-0.000252812,-0.715448,0.000338679,-0.497768,1.5435,-2.7998,0.0860031,-0.005149,0.0310864,0.00224006,335,562,-0.0122901,-0.0907114,100.71,126.355,100.638,126.439,5.70524e-05,5.64925e-05,0.00019721
-8.05519,6.12804,-296.67,0.00116773,0.00320408,0.00463912,-5.62941e-05,-8.77684e-05,-0.000195314,0.000123916,-0.000267979,-0.745198,0.000346951,-0.460673,1.55138,-2.61369,0.0968324,-0.00367593,0.030132,0.0022466,342,562,-0.00964324,-0.0900431,102.931,127.045,102.859,127.127,5.82559e-05,5.68225e-05,0.000201864
-7.75623,6.11682,-296.609,0.00126331,0.00312758,0.00441812,-8.02736e-05,-8.80604e-05,-0.000197596,0.000113468,-0.000281802,-0.775548,0.000352509,-0.451876,1.56769,-2.62382,0.105911,-0.00282087,0.0286286,0.00224,349,562,-0.00543545,-0.0900982,104.726,127.729,104.654,127.807,5.89743e-05,5.63382e-05,0.000204609
-7.46486,6.10494,-296.573,0.00133349,0.00304388,0.00425345,-0.000108988,-8.62425e-05,-0.000197329,0.000100041,-0.000295272,-0.814183,0.000355995,-0.446792,1.57705,-2.71221,0.112583,-0.00114698,0.0268047,0.00223475,356,562,-0.00229077,-0.0906616,106.119,128.422,106.047,128.495,5.95709e-05,5.55453e-05,0.000206451
-7.17386,6.0932,-296.538,0.00130025,0.00300247,0.00394968,-0.000139643,-8.44254e-05,-0.000193915,8.38368e-05,-0.000307905,-0.85611,0.000357278,-0.416983,1.63387,-2.86688,0.113493,-0.000742679,0.0241901,0.00224679,363,562,-0.000727406,-0.0918899,107.492,129.106,107.422,129.176,5.97835e-05,5.5443e-05,0.000206859
-6.87772,6.08138,-296.484,0.00119513,0.00296301,0.00377806,-0.000170082,-8.27492e-05,-0.000188224,6.68077e-05,-0.000319639,-0.899377,0.000357752,-0.355926,1.67208,-3.02148,0.110895,-0.00061452,0.0195209,0.00225289,370,562,-0.00196214,-0.0931572,109.14,129.813,109.075,129.88,5.94e-05,5.54246e-05,0.000205297
-6.56758,6.07015,-296.383,0.00108604,0.0029269,0.00375035,-0.000197113,-8.12906e-05,-0.000179654,4.95555e-05,-0.000327959,-0.941314,0.000355338,-0.260219,1.68241,-3.05075,0.107203,-0.000663829,0.0133341,0.00218712,377,562,-0.00438467,-0.0944945,111.549,130.539,111.487,130.603,5.69686e-05,5.43546e-05,0.000196764
-6.24699,6.05949,-296.247,0.000986706,0.00288808,0.00376917,-0.000218977,-8.00938e-05,-0.000168907,3.30889e-05,-0.00033216,-0.980428,0.00034988,-0.215333,1.65836,-2.93798,0.10197,-0.000965891,0.00700139,0.00209777,384,562,-0.0069185,-0.096193,114.532,131.275,114.473,131.336,5.3375e-05,5.31972e-05,0.000184349
-5.92495,6.04891,-296.104,0.000999609,0.002848,0.00356373,-0.000238322,-7.9361e-05,-0.000156843,1.69906e-05,-0.000334674,-1.01992,0.000343484,-0.171974,1.63322,-2.72399,0.0943751,-0.00191123,0.00142161,0.00214856,391,562,-0.00496747,-0.0971589,117.608,132.013,117.55,132.072,5.21411e-05,5.48229e-05,0.000179983
-5.62213,6.03852,-296.025,0.00103501,0.0027644,0.00340658,-0.000256349,-7.85258e-05,-0.000144477,2.2062e-06,-0.000337081,-1.06123,0.000338189,-0.163235,1.62404,-2.59462,0.0852339,-0.00356802,-0.00376663,0.00217645,398,562,-0.00277403,-0.0974227,119.653,132.675,119.596,132.729,5.15541e-05,5.56822e-05,0.000177749
0,0,0,0,0,0,0,0,0,0,0,0,0,0,0,0,0,0,0,-1,405,562,0,0,0,0,0,0,0,0,0
-5.03724,6.01537,-295.933,0.000919016,0.00256621,0.00301259,-0.000278308,-7.62093e-05,-0.000123894,-1.73816e-05,-0.000337136,-1.12749,0.00032879,-0.193798,1.59782,-2.77882,0.0637964,-0.00929814,-0.0141091,0.00213669,412,562,-0.0024483,-0.0961872,122.619,134.052,122.569,134.096,5.03151e-05,5.43147e-05,0.000173327
-4.7534,6.0038,-295.916,0.000844731,0.002532,0.00270071,-0.000282981,-7.31509e-05,-0.000117186,-2.07773e-05,-0.000335354,-1.1505,0.000325464,-0.214781,1.58402,-2.82576,0.0502605,-0.0124196,-0.0185101,0.00203398,419,562,-0.00191988,-0.0962544,123.635,134.706,123.588,134.749,4.98194e-05,5.13938e-05,0.000171618
-4.46818,5.9917,-295.894,0.00077576,0.00252603,0.00246983,-0.000287155,-6.8189e-05,-0.000111952,-2.1084e-05,-0.00033426,-1.17252,0.000324232,-0.194998,1.59336,-2.78515,0.0356482,-0.0151043,-0.0221226,0.00193937,426,562,-0.00189629,-0.0968809,124.726,135.393,124.684,135.435,4.94408e-05,4.89825e-05,0.000170284
-4.1822,5.98002,-295.868,0.000690632,0.00252705,0.00228373,-0.000288325,-6.15929e-05,-0.000107124,-1.89863e-05,-0.000330932,-1.19225,0.000321859,-0.152295,1.58875,-2.72552,0.0215151,-0.0173452,-0.0253106,0.00191993,433,562,-0.00262324,-0.0975451,125.863,136.061,125.824,136.103,4.9461e-05,4.87818e-05,0.000170341
-3.89544,5.96829,-295.839,0.000606522,0.00254851,0.00208926,-0.000285648,-5.3682e-05,-0.000102435,-1.49235e-05,-0.000324407,-1.20907,0.000317208,-0.142069,1.55937,-2.68491,0.00892274,-0.0196697,-0.0279117,0.00195586,440,562,-0.0032858,-0.0979913,127.044,136.734,127.009,136.777,4.92814e-05,4.9946e-05,0.000169818
-3.60755,5.95626,-295.805,0.000547444,0.00257044,0.00194379,-0.000281882,-4.45675e-05,-9.88347e-05,-8.7973e-06,-0.000317652,-1.22354,0.000313346,-0.107549,1.54296,-2.6182,-0.00110795,-0.0216484,-0.0306393,0.00202371,447,562,-0.0036904,-0.0987451,128.291,137.428,128.259,137.471,4.99043e-05,5.16236e-05,0.000172062
-3.31677,5.94442,-295.761,0.000527366,0.00259447,0.00186739,-0.000276719,-3.39971e-05,-9.69483e-05,-2.7896e-08,-0.000310688,-1.23378,0.000310675,-0.113039,1.52785,-2.57916,-0.00801866,-0.0228985,-0.0339749,0.00207589,454,562,-0.00363177,-0.100007,129.704,138.123,129.673,138.167,4.99215e-05,5.25867e-05,0.000172241
-3.0222,5.93343,-295.703,0.000521144,0.00257096,0.00177091,-0.000267253,-2.45027e-05,-9.58792e-05,8.7985e-06,-0.000300554,-1.23651,0.000305048,-0.12892,1.53501,-2.54361,-0.0122307,-0.0253006,-0.0373656,0.00205966,461,562,-0.00303528,-0.100527,131.333,138.792,131.304,138.834,5.01351e-05,5.17997e-05,0.000172937
-2.72289,5.9225,-295.628,0.000473695,0.00250146,0.00180108,-0.000254374,-1.50632e-05,-9.25815e-05,1.65717e-05,-0.000286009,-1.24154,0.000294644,-0.153319,1.54135,-2.72275,-0.0157527,-0.027026,-0.0411884,0.00202247,468,562,-0.00435625,-0.100614,133.234,139.478,133.206,139.517,5.07352e-05,5.12027e-05,0.000174648
-2.42106,5.91142,-295.543,0.00038407,0.00241718,0.0017492,-0.000239505,-5.86954e-06,-8.52918e-05,2.1954e-05,-0.000267328,-1.25547,0.000278954,-0.199249,1.54008,-2.90844,-0.0220644,-0.0288922,-0.0449571,0.00204706,475,562,-0.0061214,-0.0995013,135.281,140.184,135.256,140.219,5.23559e-05,5.18404e-05,0.000179922
-2.11988,5.90023,-295.459,0.000330952,0.00236018,0.00160419,-0.000224661,2.4882e-06,-7.34261e-05,2.41563e-05,-0.000246329,-1.28384,0.000259252,-0.217511,1.50681,-2.92194,-0.0318182,-0.0305877,-0.0485319,0.00212335,482,562,-0.00630697,-0.0972829,137.301,140.89,137.278,140.925,5.47501e-05,5.34401e-05,0.000187852
-1.82219,5.88909,-295.387,0.00032454,0.00234846,0.00127629,-0.000210278,9.87408e-06,-5.74665e-05,2.39718e-05,-0.000224376,-1.33023,0.000237271,-0.241829,1.46872,-2.91667,-0.0420768,-0.031832,-0.0517861,0.00218909,489,562,-0.00405808,-0.0963907,139.131,141.581,139.111,141.616,5.69067e-05,5.4958e-05,0.000195061
-1.52741,5.87791,-295.324,0.000318514,0.00232636,0.000896444,-0.000195164,1.61842e-05,-3.89953e-05,2.31495e-05,-0.00020213,-1.39404,0.000214643,-0.225317,1.43728,-2.90348,-0.0498837,-0.033067,-0.0541827,0.00218095,496,562,-0.00142807,-0.0953116,140.803,142.265,140.786,142.3,5.75065e-05,5.46152e-05,0.000196865
-1.23427,5.86653,-295.266,0.000312909,0.00232838,0.000384983,-0.000178739,2.16116e-05,-1.90766e-05,2.34119e-05,-0.000180539,-1.47671,0.000193311,-0.180237,1.41845,-2.93471,-0.0562167,-0.0341869,-0.0550139,0.00218514,503,562,0.00210379,-0.0956053,142.387,142.953,142.375,142.988,5.77797e-05,5.40322e-05,0.000197711
-0.940321,5.85541,-295.204,0.000316589,0.00231159,3.92478e-05,-0.000160394,2.66886e-05,2.30145e-06,2.67169e-05,-0.000160422,1.5585,0.000175314,-0.149513,1.42796,-2.99219,-0.0642679,-0.0347361,-0.0547066,0.00219207,510,562,0.00469441,-0.0951089,144.025,143.632,144.015,143.667,5.8419e-05,5.35961e-05,0.000199894
-0.644555,5.84438,-295.135,0.000335433,0.00228987,-7.544e-07,-0.00013988,3.14961e-05,2.5328e-05,3.5161e-05,-0.000143545,1.4271,0.000163977,-0.135097,1.48486,-3.07252,-0.0742432,-0.034233,-0.0546384,0.00223424,517,562,0.00547854,-0.0951023,145.776,144.316,145.767,144.35,5.94246e-05,5.51208e-05,0.00020328
-0.347583,5.83332,-295.061,0.000394956,0.00228648,6.70045e-05,-0.000117362,3.6682e-05,4.89762e-05,5.09346e-05,-0.000131614,1.28761,0.000163158,-0.172247,1.50946,-3.13277,-0.0845253,-0.0329142,-0.0550822,0.00229169,524,562,0.0064957,-0.0964497,147.606,145.008,147.594,145.041,6.12959e-05,5.6865e-05,0.000209264
-0.0515915,5.82225,-294.989,0.000345154,0.00231473,0.000279091,-9.50492e-05,4.34539e-05,7.27845e-05,7.4668e-05,-0.000126263,1.16566,0.000175914,-0.203449,1.4899,-3.16736,-0.0952965,-0.0317526,-0.0533433,0.00237964,531,562,0.00369195,-0.0983644,149.386,145.697,149.374,145.729,6.32899e-05,5.86059e-05,0.000215444
0.243008,5.81113,-294.922,0.000255868,0.00241291,0.000357888,-7.31462e-05,5.12376e-05,9.39395e-05,0.000101707,-0.000123615,1.0778,0.000195442,-0.277254,1.45425,-3.26347,-0.104705,-0.0298629,-0.0508337,0.00243787,538,562,0.000765314,-0.101314,151.091,146.381,151.081,146.416,6.49718e-05,5.8813e-05,0.000220229
0.536047,5.80009,-294.859,0.000138757,0.0025055,0.000312773,-5.05458e-05,5.9413e-05,0.000112187,0.000129368,-0.000120501,1.01323,0.000216439,-0.333917,1.41844,-3.38399,-0.112235,-0.0268826,-0.0488299,0.00247943,545,562,-0.00195847,-0.101728,152.712,147.053,152.704,147.093,6.56286e-05,5.86905e-05,0.000221924
0.828154,5.78898,-294.798,9.66824e-05,0.00256972,0.00017109,-2.56871e-05,6.70321e-05,0.00012804,0.000156847,-0.000115502,0.959092,0.000236765,-0.379282,1.46088,-3.31014,-0.117723,-0.0227807,-0.0485205,0.00247643,552,562,-0.00206411,-0.100807,154.286,147.728,154.281,147.772,6.59545e-05,5.93275e-05,0.00022271
1.12062,5.77781,-294.736,8.74882e-05,0.00259338,0.000190206,1.48822e-06,7.23918e-05,0.000140426,0.000181771,-0.000107891,0.909044,0.000253561,-0.386196,1.50983,-3.16548,-0.120475,-0.0175788,-0.0501594,0.00244783,559,562,-0.00242011,-0.0986485,155.89,148.409,155.885,148.456,6.73229e-05,6.00632e-05,0.000226668
1.41419,5.76645,-294.668,8.93877e-05,0.00257677,0.000530994,3.35434e-05,7.369e-05,0.00014629,0.000201277,-9.40436e-05,0.85358,0.000261315,-0.35761,1.51905,-3.20272,-0.12156,-0.0121894,-0.0536965,0.00256193,566,562,-0.00471271,-0.0966343,157.569,149.108,157.561,149.156,6.97426e-05,6.15839e-05,0.000234655
1.70812,5.75512,-294.598,0.000108256,0.0025828,0.000885579,8.01277e-05,6.97333e-05,0.00014485,0.000219874,-7.00129e-05,0.767466,0.000261993,-0.352767,1.43309,-3.33932,-0.126962,-0.0064554,-0.0612873,0.00263521,573,562,-0.00669565,-0.0962149,159.277,149.81,159.266,149.858,7.00501e-05,6.31571e-05,0.000236086
0,0,0,0,0,0,0,0,0,0,0,0,0,0,0,0,0,0,0,-1,580,562,0,0,0,0,0,0,0,0,0
0,0,0,0,0,0,0,0,0,0,0,0,0,0,0,0,0,0,0,-1,587,562,0,0,0,0,0,0,0,0,0
0,0,0,0,0,0,0,0,0,0,0,0,0,0,0,0,0,0,0,-1,594,562,0,0,0,0,0,0,0,0,0
0,0,0,0,0,0,0,0,0,0,0,0,0,0,0,0,0,0,0,-1,601,562,0,0,0,0,0,0,0,0,0
0,0,0,0,0,0,0,0,0,0,0,0,0,0,0,0,0,0,0,-1,62,569,0,0,0,0,0,0,0,0,0
0,0,0,0,0,0,0,0,0,0,0,0,0,0,0,0,0,0,0,-1,69,569,0,0,0,0,0,0,0,0,0
0,0,0,0,0,0,0,0,0,0,0,0,0,0,0,0,0,0,0,-1,76,569,0,0,0,0,0,0,0,0,0
-19.0528,6.2832,-298.225,0.000484132,0.00276216,-0.000614115,-0.000248359,5.52737e-05,7.50764e-05,7.28228e-05,-0.000265908,1.34117,0.000308827,-0.175264,1.41682,-3.53725,-0.00127227,0.0215501,-0.0356508,0.00206754,83,569,0.0139189,-0.069589,41.1188,102.916,41.1056,102.998,5.37743e-05,5.29377e-05,0.000191613
-18.7705,6.27168,-298.236,0.000446744,0.00278196,-0.000332275,-0.000200327,3.16201e-05,7.22804e-05,5.23006e-05,-0.000221007,1.29213,0.000251273,-0.226749,1.42782,-3.5967,-0.0230914,0.0223603,-0.0312571,0.00208324,90,569,0.0106453,-0.0708033,42.0603,103.538,42.0463,103.619,5.33739e-05,5.33753e-05,0.000189636
-18.4886,6.26025,-298.248,0.000405459,0.00279488,-5.79239e-05,-0.000144671,1.66747e-05,7.47337e-05,4.5971e-05,-0.000173968,1.1972,0.000200937,-0.243983,1.41477,-3.59217,-0.0357763,0.0242678,-0.0244094,0.00210251,97,569,0.00735556,-0.0718786,42.9821,104.154,42.9675,104.236,5.37746e-05,5.38285e-05,0.000190292
-18.2061,6.24885,-298.258,0.000359163,0.00280237,0.000161085,-8.92217e-05,8.62224e-06,7.82201e-05,5.19594e-05,-0.000132559,1.06486,0.000164801,-0.233441,1.38208,-3.41876,-0.0414697,0.0256837,-0.0163972,0.00207232,104,569,0.00442562,-0.071818,43.9257,104.77,43.9109,104.852,5.35239e-05,5.28572e-05,0.000188785
-17.9227,6.23732,-298.265,0.000301037,0.00281669,0.000390336,-3.9402e-05,5.45822e-06,8.07775e-05,6.68619e-05,-0.000100806,0.920825,0.000146193,-0.217999,1.35425,-3.32336,-0.0405271,0.0260355,-0.0089777,0.00207309,111,569,0.00112121,-0.0720841,44.9058,105.395,44.8911,105.477,5.31934e-05,5.29209e-05,0.000188099
-17.6381,6.22551,-298.268,0.000285791,0.00282753,0.000590911,4.78478e-06,5.50415e-06,8.24616e-05,8.76068e-05,-7.73179e-05,0.787579,0.000142922,-0.260137,1.38587,-3.32233,-0.0331166,0.0254042,-0.00259894,0.00212363,118,569,-0.000900554,-0.073255,45.9442,106.039,45.9286,106.121,5.27655e-05,5.44198e-05,0.00018731
-17.3509,6.21369,-298.263,0.000284852,0.00281685,0.00075979,4.46729e-05,7.70463e-06,8.33458e-05,0.00011156,-5.9182e-05,0.676276,0.000150168,-0.321988,1.4031,-3.52312,-0.0198843,0.0238997,0.00289609,0.00219446,125,569,-0.00227893,-0.0735375,47.1066,106.693,47.09,106.773,5.35415e-05,5.62464e-05,0.000189983
-17.057,6.20257,-298.237,0.000330943,0.00288091,0.000942065,7.88157e-05,1.16367e-05,8.30783e-05,0.000134838,-4.43855e-05,0.593289,0.000161667,-0.373469,1.41921,-3.7497,-0.00345238,0.0217843,0.00743182,0.00223284,132,569,-0.00268297,-0.0753027,48.5959,107.329,48.5766,107.411,5.36377e-05,5.70001e-05,0.000189272
-16.7607,6.19115,-298.204,0.000361813,0.00296381,0.00116962,0.000106198,1.4984e-05,8.09788e-05,0.00015353,-3.23474e-05,0.528938,0.000172,-0.353756,1.3898,-3.83191,0.0107724,0.0195767,0.0101332,0.0021923,139,569,-0.0038281,-0.0766821,50.1982,107.987,50.1763,108.071,5.33975e-05,5.55943e-05,0.000187054
-16.4634,6.17958,-298.167,0.000417021,0.00306872,0.00155979,0.000127552,2.01279e-05,7.79555e-05,0.000168508,-2.08281e-05,0.483742,0.000179829,-0.354727,1.39186,-3.88084,0.0226634,0.0171717,0.0103759,0.00207242,146,569,-0.00570294,-0.0785479,51.8568,108.656,51.8304,108.744,5.2103e-05,5.22736e-05,0.000182267
-16.166,6.16813,-298.13,0.000453234,0.0031561,0.00200615,0.000142866,2.58955e-05,7.52811e-05,0.000179711,-1.09489e-05,0.455152,0.000185428,-0.342956,1.42178,-3.78703,0.0317698,0.0148226,0.00887089,0.00198961,153,569,-0.00848078,-0.0814675,53.5168,109.322,53.4863,109.411,5.10747e-05,5.03265e-05,0.000178418
-15.8685,6.1565,-298.091,0.000428144,0.00319197,0.00245207,0.00015107,3.13856e-05,7.34078e-05,0.000185937,-3.48114e-06,0.443427,0.000187702,-0.333917,1.43641,-3.67213,0.0382639,0.0124854,0.00644874,0.00197911,160,569,-0.012685,-0.0829618,55.1775,109.999,55.1446,110.088,5.05257e-05,5.05857e-05,0.000176685
-15.5706,6.14473,-298.051,0.00040865,0.00321901,0.00287159,0.000151989,3.54923e-05,7.19405e-05,0.000186306,1.17553e-06,0.445092,0.000185721,-0.328987,1.43057,-3.487,0.0413325,0.0103243,0.00311519,0.00201642,167,569,-0.016516,-0.0843346,56.8566,110.685,56.8212,110.774,5.12101e-05,5.17235e-05,0.000179219
-15.2715,6.13287,-298.007,0.000382949,0.00323983,0.00334967,0.000148003,3.76793e-05,7.08897e-05,0.000182664,3.01804e-06,0.454766,0.000181174,-0.328603,1.4388,-3.38531,0.0394847,0.0084782,-0.000600514,0.00205695,174,569,-0.0209364,-0.0847747,58.6002,111.381,58.5621,111.47,5.25432e-05,5.30032e-05,0.000183579
-14.9713,6.12112,-297.958,0.000383804,0.00328875,0.00383388,0.000142987,3.74548e-05,7.0161e-05,0.000178009,2.43233e-06,0.462986,0.000176806,-0.323099,1.46945,-3.34205,0.031295,0.00685041,-0.0043079,0.00206995,181,569,-0.0247569,-0.0851543,60.3966,112.073,60.3549,112.164,5.29563e-05,5.32595e-05,0.000184346
-14.6719,6.10966,-297.912,0.000353822,0.00330523,0.00413847,0.00013995,3.49686e-05,7.02007e-05,0.000175114,-1.95854e-07,0.464378,0.000175212,-0.325887,1.50982,-3.26407,0.0164328,0.00532936,-0.00722425,0.00201178,188,569,-0.0278587,-0.0851833,62.1554,112.749,62.1122,112.841,5.22987e-05,5.17229e-05,0.000181264
-14.3736,6.09813,-297.868,0.000313431,0.00330177,0.00432902,0.000138493,3.09084e-05,7.13821e-05,0.000174082,-4.68056e-06,0.462503,0.000176469,-0.327647,1.51141,-3.17175,-0.00240504,0.00391043,-0.00830906,0.00191875,195,569,-0.0302763,-0.0845502,63.8557,113.427,63.8123,113.518,4.94698e-05,4.96898e-05,0.000171065
-14.0767,6.08667,-297.828,0.000291036,0.00331358,0.00458669,0.000138951,2.58727e-05,7.31804e-05,0.000174889,-1.00654e-05,0.456494,0.000180133,-0.356729,1.47313,-3.12485,-0.0214101,0.00261286,-0.00743649,0.0018749,202,569,-0.032797,-0.0846039,65.4896,114.096,65.4449,114.189,4.73781e-05,4.81753e-05,0.00016393
-13.7801,6.07514,-297.789,0.000298733,0.00336422,0.00487537,0.000144451,2.0233e-05,7.47436e-05,0.000179523,-1.4839e-05,0.438731,0.000187383,-0.370954,1.44053,-3.14683,-0.0393789,0.00122221,-0.00421286,0.00187139,209,569,-0.0348476,-0.0850753,67.1106,114.768,67.0633,114.862,4.78333e-05,4.68861e-05,0.000165086
-13.4823,6.06349,-297.745,0.000327237,0.00347724,0.00510596,0.000154795,1.43841e-05,7.37342e-05,0.0001864,-1.72218e-05,0.404955,0.000195581,-0.392564,1.43414,-3.06165,-0.0544706,-0.000440013,0.000462627,0.00198882,216,569,-0.0359775,-0.0865352,68.7954,115.448,68.7453,115.546,5.18293e-05,4.73241e-05,0.000178186
-13.1827,6.05198,-297.695,0.000368834,0.00358721,0.00516846,0.000166548,8.16915e-06,6.95382e-05,0.000192746,-1.8029e-05,0.360299,0.000202363,-0.411846,1.44424,-3.0146,-0.0655513,-0.00237084,0.00496211,0.00207983,223,569,-0.0354614,-0.0888176,70.5667,116.128,70.5147,116.23,5.47033e-05,4.86522e-05,0.000187331
-12.8823,6.04048,-297.642,0.00038582,0.00363849,0.00523374,0.000176041,1.41063e-06,6.20419e-05,0.000195839,-1.83869e-05,0.308885,0.00020565,-0.45015,1.46258,-3.00139,-0.0727936,-0.00426217,0.00898557,0.00213767,230,569,-0.035527,-0.0911567,72.382,116.813,72.329,116.916,5.63773e-05,5.01897e-05,0.000193331
-12.5817,6.0292,-297.587,0.000452278,0.00360954,0.00527186,0.000182832,-5.86772e-06,5.0859e-05,0.000195666,-1.87024e-05,0.247198,0.000205656,-0.490785,1.48114,-2.89152,-0.0753313,-0.00612448,0.0130207,0.00208538,237,569,-0.0340717,-0.0917197,74.2096,117.492,74.1544,117.592,5.47862e-05,5.13595e-05,0.000188742
-12.2849,6.01802,-297.544,0.000517935,0.00356684,0.00534479,0.000188173,-1.33719e-05,3.6858e-05,0.000194702,-1.99009e-05,0.17532,0.000205377,-0.500764,1.48589,-2.83623,-0.0728166,-0.00763672,0.0168334,0.00199812,244,569,-0.0328959,-0.0924819,75.8472,118.154,75.7897,118.252,5.26718e-05,5.06168e-05,0.000182069
-11.9917,6.00663,-297.512,0.000591983,0.00350296,0.00550976,0.000190618,-2.07019e-05,2.01095e-05,0.000192514,-2.25985e-05,0.094037,0.000204751,-0.521153,1.48905,-2.84207,-0.0670128,-0.00872257,0.020117,0.00194285,251,569,-0.0321839,-0.0913058,77.3042,118.815,77.2433,118.91,5.15663e-05,5.01344e-05,0.000178805
-11.7004,5.99502,-297.485,0.000679227,0.00349927,0.00556634,0.000188831,-2.73048e-05,7.12668e-07,0.000188834,-2.73071e-05,0.00329726,0.000203864,-0.542793,1.50292,-2.92812,-0.0596473,-0.00929465,0.0219783,0.0019477,258,569,-0.0303549,-0.0912657,78.6624,119.479,78.5986,119.574,5.1986e-05,4.97879e-05,0.000180402
-11.4074,5.98353,-297.453,0.000801482,0.0035531,0.00553256,0.000184372,-3.28136e-05,-2.04937e-05,0.000186289,-3.47305e-05,-0.0932635,0.000205864,-0.555694,1.54586,-2.97951,-0.0510722,-0.00923948,0.0221998,0.00198807,265,569,-0.0270133,-0.0922953,80.1088,120.142,80.0416,120.239,5.33804e-05,5.01382e-05,0.000184601
-11.1094,5.97215,-297.403,0.000931284,0.0035908,0.0055193,0.000176433,-3.72532e-05,-4.24435e-05,0.000184554,-4.53749e-05,-0.189067,0.000210935,-0.529527,1.57462,-2.93803,-0.0404087,-0.00880207,0.0216189,0.00200175,272,569,-0.0236316,-0.0934021,81.8117,120.817,81.7408,120.915,5.38886e-05,4.96508e-05,0.000185679
-10.807,5.96066,-297.339,0.00102404,0.00359198,0.00535185,0.000162055,-4.17126e-05,-6.43589e-05,0.00018068,-6.03377e-05,-0.281698,0.000217227,-0.503786,1.56248,-2.85203,-0.0269143,-0.00855423,0.0206437,0.00198043,279,569,-0.0199322,-0.0933954,83.7457,121.515,83.6732,121.613,5.33735e-05,4.88229e-05,0.00018364
-10.5023,5.94918,-297.267,0.00108519,0.00355594,0.00521513,0.000141982,-4.6504e-05,-8.58818e-05,0.000175244,-7.97655e-05,-0.369506,0.000225946,-0.510981,1.5543,-2.92042,-0.0111184,-0.00854041,0.0197636,0.00194992,286,569,-0.017211,-0.0921078,85.7988,122.222,85.7255,122.319,5.21767e-05,4.86616e-05,0.000179972
-10.1987,5.93779,-297.198,0.00105788,0.00349118,0.00504239,0.000120928,-5.17882e-05,-0.000107093,0.000172143,-0.000103004,-0.446087,0.000240779,-0.533838,1.55894,-3.04905,0.00484198,-0.00857377,0.019336,0.00197689,293,569,-0.0163815,-0.0903988,87.7964,122.922,87.7251,123.018,5.16344e-05,4.92871e-05,0.000178613
-9.89834,5.92614,-297.138,0.001011,0.00347097,0.00495094,0.0001014,-5.75613e-05,-0.000127169,0.000171883,-0.000128044,-0.506099,0.000260668,-0.548682,1.55234,-3.07849,0.0192643,-0.00822401,0.0192817,0.00199743,300,569,-0.0167246,-0.0905099,89.6298,123.625,89.5604,123.72,5.21319e-05,5.00206e-05,0.000180852
-9.59878,5.91467,-297.081,0.00099709,0.0034225,0.00495085,8.11888e-05,-6.27842e-05,-0.000144101,0.000170284,-0.000151879,-0.553752,0.000279153,-0.555256,1.50126,-3.15229,0.0324479,-0.00764581,0.0200808,0.00199213,307,569,-0.0169261,-0.0902292,91.4276,124.318,91.3586,124.411,5.22302e-05,5.00442e-05,0.000181196
-9.29825,5.90318,-297.019,0.00101951,0.00337617,0.00501508,5.75679e-05,-6.79446e-05,-0.00015832,0.000165116,-0.000175493,-0.596704,0.000295022,-0.571214,1.46244,-3.15385,0.0454061,-0.00699784,0.0220029,0.00199314,314,569,-0.0167323,-0.0910695,93.2807,125.018,93.2107,125.107,5.25538e-05,5.013e-05,0.000182143
-8.99447,5.89157,-296.946,0.00110577,0.00333756,0.00515425,3.18605e-05,-7.31799e-05,-0.000170365,0.000157617,-0.000198937,-0.63588,0.000309475,-0.591325,1.44633,-3.14449,0.0585817,-0.00633948,0.0247522,0.00202555,321,569,-0.0155116,-0.0907435,95.311,125.735,95.2374,125.822,5.25639e-05,5.10417e-05,0.000182117
-8.68567,5.88066,-296.856,0.00117563,0.00333363,0.00514885,5.39413e-06,-7.80881e-05,-0.000181154,0.000149554,-0.000222248,-0.672166,0.000324034,-0.5469,1.5038,-2.97937,0.07123,-0.00553703,0.0277161,0.00213365,328,569,-0.0136372,-0.0917958,97.6108,126.433,97.5353,126.52,5.45023e-05,5.37992e-05,0.000188725
-8.3771,5.86987,-296.766,0.00119842,0.0033137,0.00510735,-2.09822e-05,-8.2027e-05,-0.000190521,0.000141446,-0.000244455,-0.705971,0.000338146,-0.493856,1.56148,-2.70434,0.0835142,-0.00407095,0.0291275,0.00218446,335,569,-0.0126416,-0.0924947,99.9038,127.127,99.8279,127.211,5.66582e-05,5.46803e-05,0.000196116
-8.07286,5.85876,-296.689,0.00123997,0.00328078,0.00493925,-4.62811e-05,-8.53878e-05,-0.000197028,0.000132161,-0.00026383,-0.735939,0.0003492,-0.448026,1.575,-2.55946,0.0953355,-0.00199492,0.0288965,0.00214987,342,569,-0.0102097,-0.0930932,101.973,127.823,101.897,127.905,5.69271e-05,5.3713e-05,0.000197307
-7.773,5.84766,-296.625,0.00132255,0.00319926,0.00471587,-7.30013e-05,-8.92239e-05,-0.000200729,0.00011978,-0.000282006,-0.765205,0.000357286,-0.416936,1.58574,-2.57478,0.105334,-0.000517866,0.0283408,0.00210864,349,569,-0.00630335,-0.0936398,103.816,128.506,103.74,128.584,5.6256e-05,5.22085e-05,0.000195264
-7.4781,5.83625,-296.577,0.00136133,0.00311569,0.00441485,-0.000104041,-9.15027e-05,-0.000201531,0.000103856,-0.0002994,-0.800947,0.000362659,-0.429134,1.59242,-2.75348,0.112834,0.00184438,0.0274628,0.00213459,356,569,-0.00290076,-0.0935806,105.396,129.188,105.321,129.262,5.68408e-05,5.25948e-05,0.000197082
-7.18349,5.82442,-296.53,0.00130113,0.00306206,0.00406087,-0.000136449,-9.36705e-05,-0.000198753,8.4841e-05,-0.000314961,-0.839001,0.000364856,-0.426203,1.6325,-2.93773,0.114686,0.00295785,0.025623,0.00217309,363,569,-0.00160443,-0.0936394,106.96,129.89,106.889,129.961,5.7066e-05,5.34914e-05,0.000197666
-6.88327,5.8133,-296.463,0.00119548,0.00298828,0.00387288,-0.000168785,-9.58418e-05,-0.000193568,6.46602e-05,-0.000329287,-0.878516,0.000365927,-0.39673,1.64655,-3.05326,0.113095,0.00373284,0.0214914,0.00221474,370,569,-0.00268519,-0.0936891,108.829,130.577,108.763,130.645,5.74577e-05,5.42173e-05,0.000198801
-6.56806,5.803,-296.345,0.0011321,0.00295244,0.00391692,-0.000197894,-9.78904e-05,-0.000185602,4.43268e-05,-0.000340111,-0.916977,0.000364303,-0.319132,1.64915,-2.99906,0.110013,0.0041465,0.0156425,0.00220108,377,569,-0.00449783,-0.0948316,111.515,131.277,111.451,131.342,5.64854e-05,5.41022e-05,0.000195251
-6.24482,5.79186,-296.2,0.00105125,0.00292755,0.00397273,-0.000221342,-9.95724e-05,-0.000175359,2.51706e-05,-0.000346085,-0.952488,0.000359332,-0.259683,1.65972,-2.82935,0.105065,0.00409881,0.00958639,0.00216266,384,569,-0.00684605,-0.09604,114.644,132.054,114.581,132.116,5.38138e-05,5.42274e-05,0.000186034
-5.92053,5.78095,-296.049,0.00105608,0.00287385,0.00377133,-0.000241402,-0.000100666,-0.000163725,7.1726e-06,-0.00034924,-0.98836,0.000352881,-0.212386,1.63638,-2.73255,0.097744,0.00325056,0.00423519,0.00222065,391,569,-0.0051086,-0.0968035,117.844,132.824,117.782,132.883,5.26884e-05,5.64403e-05,0.000182013
-5.61802,5.77129,-295.971,0.00108564,0.00279592,0.00355073,-0.000259727,-0.00010041,-0.00015175,-8.68169e-06,-0.000351456,-1.02709,0.000347196,-0.199097,1.64443,-2.71618,0.0889575,0.00158801,-0.000773332,0.00221475,398,569,-0.0025912,-0.0972441,119.876,133.449,119.815,133.505,5.16698e-05,5.65895e-05,0.000178312
0,0,0,0,0,0,0,0,0,0,0,0,0,0,0,0,0,0,0,-1,405,569,0,0,0,0,0,0,0,0,0
-5.04182,5.74739,-295.909,0.000955652,0.00260611,0.00313775,-0.000282875,-9.57581e-05,-0.000132066,-2.74689e-05,-0.000351164,-1.09358,0.000338268,-0.211887,1.60937,-2.88306,0.068064,-0.0043101,-0.010673,0.0021551,412,569,-0.00248295,-0.09669,122.369,134.835,122.317,134.881,5.04077e-05,5.48429e-05,0.00017369
-4.76084,5.73611,-295.901,0.000876986,0.0025912,0.00284747,-0.000287977,-9.06063e-05,-0.000125864,-2.93521e-05,-0.000349231,-1.11787,0.000335519,-0.226149,1.58608,-2.90071,0.054527,-0.00758367,-0.014932,0.00206297,419,569,-0.00224968,-0.097889,123.23,135.464,123.182,135.508,5.0037e-05,5.21979e-05,0.000172362
-4.47808,5.72436,-295.887,0.000791277,0.00260358,0.00261906,-0.000292707,-8.32309e-05,-0.000121095,-2.78626e-05,-0.000348076,-1.14195,0.000335015,-0.21935,1.58034,-2.81037,0.0397901,-0.0104811,-0.0184022,0.00195169,426,569,-0.00268572,-0.0993444,124.188,136.123,124.144,136.167,4.91861e-05,4.94555e-05,0.000169449
-4.19302,5.71278,-295.864,0.00069144,0.0026305,0.00245176,-0.000294565,-7.39867e-05,-0.000116738,-2.36786e-05,-0.000344874,-1.1639,0.000333665,-0.184607,1.56598,-2.71205,0.025555,-0.0130559,-0.0213119,0.00189674,433,569,-0.00394221,-0.100415,125.274,136.782,125.234,136.827,4.85956e-05,4.81219e-05,0.000167482
-3.90644,5.70108,-295.836,0.000598188,0.0026392,0.00224346,-0.000292421,-6.34163e-05,-0.000112426,-1.74497e-05,-0.000338388,-1.18267,0.000330009,-0.156573,1.54862,-2.59781,0.0130592,-0.0158323,-0.0236472,0.00189527,440,569,-0.00471496,-0.100443,126.446,137.454,126.41,137.499,4.78227e-05,4.82072e-05,0.000164885
-3.61808,5.68906,-295.801,0.000552232,0.00264113,0.00208783,-0.000289095,-5.19128e-05,-0.000108932,-9.47583e-06,-0.000331532,-1.19931,0.000326897,-0.114949,1.53424,-2.51939,0.00333245,-0.0184103,-0.026237,0.00194597,447,569,-0.00468267,-0.100045,127.719,138.15,127.686,138.196,4.82151e-05,4.9294e-05,0.000166327
-3.32625,5.67753,-295.753,0.000512157,0.00261833,0.00197985,-0.000285004,-3.93872e-05,-0.000106878,6.07426e-07,-0.000324999,-1.21272,0.000325303,-0.108882,1.5162,-2.49897,-0.00313876,-0.0205957,-0.0293484,0.00198518,454,569,-0.00483942,-0.0998644,129.19,138.837,129.159,138.882,4.85042e-05,4.98353e-05,0.000167395
-3.03092,5.66665,-295.692,0.000482972,0.00255878,0.00188132,-0.000277537,-2.89193e-05,-0.000105368,9.72916e-06,-0.000316186,-1.21924,0.000321161,-0.132211,1.54662,-2.59451,-0.00692182,-0.0242085,-0.0324536,0.00198687,461,569,-0.00476358,-0.0994428,130.863,139.505,130.833,139.548,4.95949e-05,4.98077e-05,0.000171006
-2.73182,5.65585,-295.618,0.000423519,0.00248409,0.00187161,-0.000266985,-1.93905e-05,-0.000101461,1.68749e-05,-0.00030325,-1.22752,0.00031203,-0.151689,1.5646,-2.84433,-0.0101668,-0.0272263,-0.0362201,0.00198406,468,569,-0.0060891,-0.0992791,132.752,140.187,132.724,140.226,5.12993e-05,5.01823e-05,0.000176522
-2.43098,5.64484,-295.536,0.000369664,0.00241987,0.00192266,-0.000254486,-1.08234e-05,-9.32918e-05,2.07932e-05,-0.000286102,-1.24404,0.000297045,-0.172544,1.5812,-3.00014,-0.0162278,-0.030415,-0.0402697,0.0020491,475,569,-0.00772232,-0.0990493,134.746,140.888,134.719,140.924,5.40256e-05,5.09813e-05,0.000185703
-2.1315,5.63389,-295.459,0.000324887,0.00235467,0.00173239,-0.000241973,-3.47234e-06,-8.03057e-05,2.10467e-05,-0.000266492,-1.27446,0.000277615,-0.189729,1.55596,-2.9978,-0.0258724,-0.0334108,-0.0445287,0.00214544,482,569,-0.00736988,-0.0974586,136.671,141.58,136.647,141.613,5.72554e-05,5.22599e-05,0.000196696
-1.83542,5.623,-295.392,0.000325398,0.00232907,0.00143808,-0.000229716,2.88866e-06,-6.32306e-05,1.89658e-05,-0.000245793,-1.32181,0.000255804,-0.215015,1.52153,-2.94567,-0.0364952,-0.0357647,-0.0487584,0.00221336,489,569,-0.00517714,-0.0967827,138.411,142.255,138.389,142.288,5.91746e-05,5.35934e-05,0.000203104
-1.54133,5.61185,-295.331,0.000315643,0.00231736,0.0011099,-0.000216357,8.301e-06,-4.38226e-05,1.65465e-05,-0.000224603,-1.38481,0.000233317,-0.194343,1.473,-2.78657,-0.0454358,-0.0377731,-0.0522852,0.00221075,496,569,-0.00302439,-0.0962685,140.044,142.936,140.026,142.969,5.91406e-05,5.34517e-05,0.000202823
-1.24813,5.60066,-295.273,0.000312829,0.00236072,0.000634982,-0.000201094,1.30647e-05,-2.33361e-05,1.55781e-05,-0.000203608,-1.46351,0.000211827,-0.149155,1.45783,-2.74525,-0.0536095,-0.0391101,-0.0544633,0.00217507,503,569,0.000270162,-0.0979613,141.631,143.615,141.617,143.65,5.82203e-05,5.33526e-05,0.000199489
-0.95349,5.58954,-295.209,0.00029402,0.00237574,0.000219532,-0.00018312,1.77113e-05,-1.63493e-06,1.77246e-05,-0.000183134,-1.56266,0.000192608,-0.110503,1.47424,-2.77847,-0.0638398,-0.0393813,-0.0556867,0.00217202,510,569,0.00275534,-0.0985252,143.308,144.299,143.297,144.335,5.81926e-05,5.32052e-05,0.000199217
-0.656991,5.57857,-295.137,0.000293957,0.00236993,0.000111058,-0.00016229,2.24846e-05,2.15418e-05,2.49628e-05,-0.000164769,1.45626,0.000178564,-0.098269,1.5042,-2.92535,-0.0760656,-0.0382885,-0.0571492,0.00220276,517,569,0.0035316,-0.0990786,145.1,144.985,145.09,145.02,5.89459e-05,5.39189e-05,0.000201667
-0.359875,5.56759,-295.063,0.00031525,0.00232871,8.40616e-05,-0.000138812,2.83235e-05,4.52369e-05,3.97818e-05,-0.00015027,1.32272,0.000173614,-0.147141,1.49538,-2.97843,-0.0885302,-0.0362224,-0.0589924,0.00226147,524,569,0.00429886,-0.0993172,146.937,145.678,146.927,145.71,6.06403e-05,5.52293e-05,0.000206935
-0.0641914,5.55656,-294.992,0.000280682,0.00231825,0.000256646,-0.000114784,3.62725e-05,6.89666e-05,6.30228e-05,-0.000141535,1.20079,0.000181449,-0.203725,1.45267,-3.02182,-0.102038,-0.0337452,-0.0586327,0.00232983,531,569,0.00221262,-0.099497,148.699,146.366,148.688,146.398,6.21249e-05,5.6906e-05,0.000211529
0.230057,5.54564,-294.926,0.000219962,0.00237226,0.000271263,-9.03655e-05,4.55789e-05,9.04713e-05,9.07671e-05,-0.000135554,1.10757,0.000197275,-0.287557,1.40265,-3.11526,-0.114343,-0.0301254,-0.0574757,0.00237206,538,569,0.000520366,-0.100627,150.384,147.042,150.375,147.075,6.32915e-05,5.73227e-05,0.000214738
0.522809,5.53473,-294.864,0.000143056,0.00244194,9.36928e-05,-6.49688e-05,5.53915e-05,0.000109616,0.00012026,-0.000129837,1.03644,0.000216644,-0.326028,1.39512,-3.2101,-0.124638,-0.0251698,-0.0567145,0.00241824,545,569,-0.000216178,-0.0995863,151.988,147.709,151.982,147.747,6.4422e-05,5.84293e-05,0.000218553
0.815213,5.52369,-294.802,0.000121013,0.00252408,-0.000136768,-3.71215e-05,6.46391e-05,0.000127089,0.000150655,-0.000123137,0.975802,0.00023751,-0.338385,1.44684,-3.16745,-0.132287,-0.0190347,-0.0575709,0.00241888,552,569,0.000787691,-0.0989942,153.579,148.382,153.576,148.426,6.51583e-05,5.8994e-05,0.000220575
1.10804,5.51259,-294.738,9.30309e-05,0.00256567,-0.00010899,-6.53678e-06,7.15687e-05,0.000141964,0.000179754,-0.000114722,0.919623,0.000257088,-0.342209,1.49945,-3.08632,-0.136039,-0.0120563,-0.060171,0.00243866,559,569,-0.000136521,-0.0976093,155.204,149.063,155.201,149.11,6.68324e-05,5.90193e-05,0.000225408
1.40192,5.50141,-294.67,5.80552e-05,0.00258893,0.000339819,2.8641e-05,7.43029e-05,0.000151039,0.000204227,-0.000101283,0.86041,0.000269539,-0.369143,1.53613,-3.20907,-0.136316,-0.00547421,-0.0643956,0.00255517,566,569,-0.00417432,-0.0967377,156.902,149.756,156.896,149.805,6.96742e-05,5.98383e-05,0.000234517
1.69587,5.49025,-294.6,5.92311e-05,0.00262229,0.000856721,7.68611e-05,7.14662e-05,0.000153147,0.000227335,-7.90076e-05,0.776592,0.000275471,-0.391691,1.45581,-3.31216,-0.137896,0.000628363,-0.0728002,0.00261753,573,569,-0.00776959,-0.0966035,158.612,150.451,158.602,150.5,7.03736e-05,6.16467e-05,0.000237015
0,0,0,0,0,0,0,0,0,0,0,0,0,0,0,0,0,0,0,-1,580,569,0,0,0,0,0,0,0,0,0
0,0,0,0,0,0,0,0,0,0,0,0,0,0,0,0,0,0,0,-1,587,569,0,0,0,0,0,0,0,0,0
0,0,0,0,0,0,0,0,0,0,0,0,0,0,0,0,0,0,0,-1,594,569,0,0,0,0,0,0,0,0,0
0,0,0,0,0,0,0,0,0,0,0,0,0,0,0,0,0,0,0,-1,601,569,0,0,0,0,0,0,0,0,0
0,0,0,0,0,0,0,0,0,0,0,0,0,0,0,0,0,0,0,-1,62,576,0,0,0,0,0,0,0,0,0
0,0,0,0,0,0,0,0,0,0,0,0,0,0,0,0,0,0,0,-1,69,576,0,0,0,0,0,0,0,0,0
0,0,0,0,0,0,0,0,0,0,0,0,0,0,0,0,0,0,0,-1,76,576,0,0,0,0,0,0,0,0,0
-19.0601,6.01141,-298.211,0.000527487,0.00269689,-0.000501402,-0.000280861,4.72024e-05,7.81503e-05,6.48679e-05,-0.000298526,1.34849,0.000335694,-0.200645,1.40092,-3.64945,0.0011675,0.0249398,-0.0306455,0.00205093,83,576,0.0140991,-0.0698354,40.6706,103.834,40.6556,103.913,5.28649e-05,5.23373e-05,0.000188466
-18.7808,5.9997,-298.231,0.000456388,0.00273297,-0.000287908,-0.000224686,2.32236e-05,7.14262e-05,4.23299e-05,-0.000243793,1.30942,0.000267482,-0.241351,1.4172,-3.67574,-0.0233272,0.023092,-0.0265436,0.00207327,90,576,0.0105517,-0.0711921,41.4661,104.454,41.4517,104.533,5.32834e-05,5.31686e-05,0.000189819
-18.5001,5.98837,-298.247,0.000381397,0.00276783,-7.95404e-05,-0.000162059,8.1567e-06,6.9904e-05,3.31848e-05,-0.000187087,1.22698,0.000205697,-0.232683,1.41141,-3.572,-0.0377069,0.0232285,-0.0196641,0.00212603,97,576,0.00696676,-0.0720066,42.3254,105.058,42.3117,105.137,5.41189e-05,5.45548e-05,0.000192038
-18.2168,5.97696,-298.254,0.000303704,0.00281944,0.000107208,-0.000100781,1.43577e-07,6.99376e-05,3.59235e-05,-0.000136561,1.09791,0.000157623,-0.2279,1.38722,-3.44603,-0.0443604,0.0237158,-0.0115281,0.00211775,104,576,0.00349538,-0.0721918,43.3065,105.672,43.2936,105.754,5.3349e-05,5.43899e-05,0.000188603
-17.9323,5.96531,-298.258,0.000218802,0.00284018,0.000309485,-4.69496e-05,-2.89294e-06,6.97688e-05,4.82424e-05,-9.8085e-05,0.938312,0.00012915,-0.220514,1.34454,-3.34994,-0.0440897,0.0237544,-0.00414999,0.0021271,111,576,-0.000253394,-0.072688,44.3441,106.306,44.3322,106.389,5.29714e-05,5.46003e-05,0.000187558
-17.6465,5.95339,-298.257,0.000217173,0.00285316,0.00052787,-5.26291e-07,-2.63986e-06,6.93805e-05,6.78054e-05,-7.09716e-05,0.777783,0.000120195,-0.274003,1.36218,-3.3838,-0.0370438,0.0231786,0.00196465,0.00218353,118,576,-0.00209501,-0.0742002,45.4414,106.959,45.4282,107.04,5.28703e-05,5.60044e-05,0.000187961
-17.3573,5.94189,-298.246,0.000233102,0.00287128,0.000653414,4.04344e-05,-2.00196e-07,6.87256e-05,9.1783e-05,-5.15488e-05,0.641677,0.000125749,-0.345154,1.38128,-3.5894,-0.0235992,0.0220061,0.00697025,0.00227171,125,576,-0.00274941,-0.0758824,46.7019,107.601,46.6874,107.682,5.46809e-05,5.82298e-05,0.000193873
-17.0616,5.93104,-298.215,0.000294483,0.00295365,0.000841488,7.51408e-05,3.98252e-06,6.74653e-05,0.000115834,-3.67105e-05,0.542747,0.000137904,-0.403579,1.39659,-3.78178,-0.00635507,0.0204871,0.0107255,0.0023078,132,576,-0.00285095,-0.0783237,48.2831,108.229,48.2655,108.312,5.53399e-05,5.88272e-05,0.000194644
-16.7638,5.9196,-298.177,0.000329225,0.0030313,0.00112138,0.000102938,7.58656e-06,6.47509e-05,0.000135672,-2.51469e-05,0.468062,0.000149836,-0.375219,1.37716,-3.82626,0.00878861,0.0189877,0.0125021,0.00225152,139,576,-0.00432892,-0.080147,49.9637,108.894,49.9431,108.979,5.4255e-05,5.70798e-05,0.00018975
-16.4656,5.90828,-298.138,0.000396113,0.0031104,0.00166539,0.000123807,1.28904e-05,6.16581e-05,0.000151278,-1.45811e-05,0.419143,0.000159071,-0.362987,1.37794,-3.84359,0.0212376,0.0174766,0.0117791,0.00209494,146,576,-0.00713742,-0.0816943,51.6627,109.554,51.6363,109.641,5.16718e-05,5.30304e-05,0.000180952
-16.1687,5.897,-298.101,0.000439337,0.00316002,0.00219018,0.000138657,1.86387e-05,5.94184e-05,0.000163097,-5.80131e-06,0.390226,0.000166073,-0.321459,1.42059,-3.77321,0.0304805,0.0160895,0.0093001,0.00198421,153,576,-0.0103339,-0.083775,53.3001,110.212,53.2688,110.299,4.95417e-05,5.04937e-05,0.000173337
-15.8726,5.88557,-298.067,0.000417472,0.00316596,0.00260001,0.000146757,2.42612e-05,5.83624e-05,0.000170111,9.07261e-07,0.380638,0.00016966,-0.298412,1.44673,-3.7153,0.0369951,0.0148474,0.00590468,0.00198648,160,576,-0.0141312,-0.0843374,54.8956,110.875,54.862,110.962,4.8905e-05,5.08172e-05,0.000171324
-15.576,5.87397,-298.031,0.00039582,0.0032051,0.00293462,0.000148112,2.88127e-05,5.81075e-05,0.000171736,5.18833e-06,0.386152,0.000169202,-0.299246,1.4599,-3.59311,0.0401072,0.0137715,0.00164458,0.0020303,167,576,-0.0173432,-0.0858845,56.5139,111.549,56.4786,111.636,5.01675e-05,5.2072e-05,0.000176089
-15.2778,5.86217,-297.989,0.000374736,0.00323251,0.00328827,0.000144921,3.19032e-05,5.86467e-05,0.000169853,6.97073e-06,0.401981,0.000166477,-0.317437,1.46638,-3.57888,0.0382432,0.0128976,-0.00283596,0.00207638,174,576,-0.0206647,-0.0867711,58.2135,112.239,58.1762,112.326,5.26361e-05,5.34765e-05,0.000184417
-14.9786,5.85042,-297.944,0.000377852,0.00326963,0.00372501,0.000140593,3.30264e-05,5.97792e-05,0.000167222,6.39697e-06,0.419075,0.000164117,-0.303084,1.48552,-3.49699,0.0298893,0.0120633,-0.00706349,0.00210375,181,576,-0.0240473,-0.0874727,59.9596,112.929,59.9191,113.018,5.43316e-05,5.34159e-05,0.000189563
-14.6802,5.83879,-297.9,0.000357355,0.00327029,0.00403479,0.000138227,3.21937e-05,6.17018e-05,0.000166561,3.86003e-06,0.430482,0.000164664,-0.278476,1.52243,-3.33957,0.0145091,0.011101,-0.0102133,0.00206246,188,576,-0.0269452,-0.0873526,61.6684,113.613,61.6261,113.701,5.40392e-05,5.2042e-05,0.000187852
-14.383,5.82715,-297.86,0.000303706,0.00324452,0.00421586,0.000137965,3.01021e-05,6.47441e-05,0.000168297,-2.30357e-07,0.438129,0.000168413,-0.287154,1.50798,-3.25746,-0.00504524,0.00995865,-0.0113297,0.00194904,195,576,-0.0295889,-0.0859498,63.3161,114.294,63.2739,114.381,5.10193e-05,5.0199e-05,0.000176979
-14.0869,5.81574,-297.823,0.000271331,0.00325287,0.00446977,0.000140189,2.73043e-05,6.83738e-05,0.000172407,-4.91403e-06,0.44035,0.000174916,-0.329531,1.45117,-3.19849,-0.0245629,0.00859225,-0.0103035,0.00189078,202,576,-0.0323162,-0.0852988,64.9103,114.959,64.8671,115.047,4.84086e-05,4.86043e-05,0.00016785
-13.7907,5.80426,-297.784,0.000266746,0.00332473,0.00476677,0.000148203,2.40726e-05,7.17124e-05,0.000180978,-8.70291e-06,0.428695,0.000185483,-0.361868,1.40897,-3.19253,-0.0425752,0.00685916,-0.00681228,0.00186919,209,576,-0.0347468,-0.0851761,66.5128,115.625,66.4674,115.717,4.80432e-05,4.74687e-05,0.000166137
-13.4929,5.79272,-297.741,0.000289151,0.00345805,0.00511423,0.000161176,2.07e-05,7.27135e-05,0.000192035,-1.01591e-05,0.401356,0.000197311,-0.395548,1.40654,-3.14577,-0.0571718,0.00473041,-0.00186639,0.00195937,216,576,-0.0369644,-0.0863857,68.1951,116.299,68.1462,116.396,5.10949e-05,4.77118e-05,0.000175902
-13.1927,5.7814,-297.689,0.000329314,0.00357173,0.0051853,0.000174694,1.6761e-05,7.08793e-05,0.000201839,-1.03837e-05,0.36574,0.000207226,-0.416591,1.43117,-3.15429,-0.0676006,0.00231268,0.00278256,0.00204054,223,576,-0.0365435,-0.0877515,70.0005,116.971,69.9496,117.073,5.32913e-05,4.93063e-05,0.000182613
-12.8916,5.77,-297.633,0.000356146,0.00363382,0.0052609,0.000185323,1.20324e-05,6.59702e-05,0.000207579,-1.02235e-05,0.325373,0.000212875,-0.449587,1.43625,-3.17844,-0.0743189,-0.000221799,0.0069119,0.00208894,230,576,-0.0364521,-0.0897909,71.8526,117.655,71.8001,117.758,5.44646e-05,5.09293e-05,0.000187119
-12.5901,5.75875,-297.576,0.000419669,0.00362385,0.00525613,0.000193362,6.32323e-06,5.73479e-05,0.000209545,-9.86e-06,0.275042,0.000214645,-0.483984,1.43954,-3.10641,-0.0764855,-0.00280043,0.0109505,0.0020683,237,576,-0.034754,-0.0908399,73.7267,118.336,73.6724,118.438,5.36919e-05,5.19856e-05,0.000185156
-12.2923,5.74771,-297.53,0.000496516,0.00359983,0.00528239,0.000200768,-1.71931e-07,4.55644e-05,0.000210617,-1.00212e-05,0.212886,0.000215802,-0.48278,1.44913,-3.03331,-0.0734459,-0.00498092,0.0146218,0.00199045,244,576,-0.032962,-0.0924138,75.4146,118.995,75.358,119.094,5.17126e-05,5.1023e-05,0.00017914
-11.9982,5.73625,-297.495,0.000589716,0.00356077,0.00543616,0.000205887,-7.09972e-06,3.05117e-05,0.000210172,-1.13845e-05,0.139519,0.000216089,-0.488716,1.47589,-2.97646,-0.0668718,-0.00661161,0.0176442,0.00195825,251,576,-0.031723,-0.0922549,76.9172,119.663,76.8569,119.76,5.03842e-05,5.056e-05,0.000174969
-11.706,5.72465,-297.465,0.000664664,0.00354196,0.00544301,0.000206354,-1.38851e-05,1.21504e-05,0.000207023,-1.45534e-05,0.054947,0.00021467,-0.503427,1.49755,-2.99049,-0.0589035,-0.00759456,0.0191101,0.00195429,258,576,-0.0298023,-0.0923026,78.3207,120.331,78.2582,120.427,5.01944e-05,5.04137e-05,0.000174201
-11.4128,5.71318,-297.432,0.000772342,0.00355361,0.0054471,0.000203338,-2.01259e-05,-8.63964e-06,0.000203671,-2.04595e-05,-0.0385856,0.000214634,-0.508805,1.53428,-2.98854,-0.050246,-0.0079207,0.0189592,0.00195446,265,576,-0.0270786,-0.0928405,79.777,120.995,79.7112,121.092,5.0676e-05,5.05024e-05,0.000175383
-11.1149,5.70174,-297.383,0.000911925,0.00358082,0.00553295,0.000196689,-2.55636e-05,-3.04843e-05,0.000200795,-2.9669e-05,-0.133868,0.000217154,-0.506102,1.55893,-2.95863,-0.0399699,-0.00781294,0.0181166,0.00193557,272,576,-0.0242112,-0.0935741,81.4797,121.675,81.4092,121.772,5.14346e-05,4.9884e-05,0.000177394
-10.8123,5.69058,-297.318,0.00101605,0.00360751,0.00550606,0.000183878,-3.10253e-05,-5.25314e-05,0.000196032,-4.31788e-05,-0.227358,0.00022081,-0.52153,1.5535,-2.91945,-0.0272243,-0.00781388,0.0170304,0.00194309,279,576,-0.0213407,-0.0939909,83.4261,122.358,83.3527,122.456,5.21373e-05,4.89721e-05,0.000179375
-10.5076,5.67936,-297.246,0.00106411,0.00360286,0.00544668,0.000165207,-3.67719e-05,-7.45055e-05,0.000189716,-6.12812e-05,-0.317809,0.000226658,-0.542325,1.54425,-3.00555,-0.0124862,-0.00803085,0.016091,0.00194711,286,576,-0.0195675,-0.093154,85.4805,123.053,85.4061,123.151,5.19877e-05,4.8709e-05,0.000179187
-10.2038,5.66828,-297.176,0.00103143,0.00355822,0.00529074,0.000144559,-4.29462e-05,-9.64908e-05,0.000185343,-8.373e-05,-0.399895,0.000238498,-0.564184,1.52768,-3.08034,0.00243452,-0.00832881,0.0156064,0.00197404,293,576,-0.0190177,-0.0918718,87.4944,123.74,87.4219,123.837,5.2235e-05,4.93781e-05,0.000180407
-9.90278,5.65686,-297.114,0.00100284,0.00349242,0.00520011,0.000124142,-4.94251e-05,-0.000117568,0.000183488,-0.000108771,-0.46746,0.000255845,-0.561582,1.49544,-3.08694,0.0159104,-0.00822452,0.0154585,0.00199016,300,576,-0.0188705,-0.0917265,89.3629,124.437,89.292,124.531,5.30821e-05,4.98332e-05,0.00018359
-9.6027,5.64553,-297.055,0.000994384,0.00340731,0.0051353,0.000102072,-5.53203e-05,-0.000135874,0.000180395,-0.000133643,-0.522911,0.000272967,-0.568123,1.4376,-3.20765,0.0283931,-0.00775583,0.0163299,0.00199708,307,576,-0.0184044,-0.0911623,91.1887,125.128,91.1185,125.219,5.32047e-05,4.95228e-05,0.000183896
-9.30231,5.63429,-296.993,0.0010116,0.0033461,0.00505784,7.62126e-05,-6.10481e-05,-0.000151514,0.000173915,-0.000158751,-0.572741,0.000288197,-0.572249,1.43221,-3.20704,0.0409849,-0.00714003,0.0184133,0.00202982,314,576,-0.0172363,-0.0914804,93.0353,125.816,92.9653,125.903,5.40153e-05,4.9774e-05,0.000186373
-9.00037,5.62286,-296.926,0.00109596,0.00330583,0.00514471,4.84392e-05,-6.69627e-05,-0.000165119,0.000165649,-0.000184173,-0.617306,0.000303096,-0.583187,1.47114,-3.18787,0.0540217,-0.00645723,0.021378,0.00202786,321,576,-0.015656,-0.0906658,94.9705,126.519,94.8974,126.605,5.372e-05,5.08099e-05,0.000185708
-8.69559,5.61205,-296.849,0.00119116,0.00331674,0.00523695,2.01718e-05,-7.28645e-05,-0.000177602,0.000157246,-0.000209939,-0.657313,0.000319081,-0.552164,1.55277,-3.02864,0.0668626,-0.00552906,0.0245511,0.00207267,328,576,-0.0139074,-0.0919564,97.0608,127.2,96.9842,127.285,5.42925e-05,5.27144e-05,0.000188181
-8.39165,5.60082,-296.774,0.00126102,0.00331064,0.00533485,-8.44717e-06,-7.82965e-05,-0.000188615,0.000148449,-0.000235193,-0.693853,0.000335062,-0.514742,1.58724,-2.79518,0.0797179,-0.00369215,0.0262403,0.00209614,335,576,-0.0128105,-0.0930809,99.1115,127.902,99.0322,127.986,5.57184e-05,5.27291e-05,0.000193177
-8.09019,5.58957,-296.706,0.00130769,0.00328069,0.00524892,-3.67474e-05,-8.36794e-05,-0.00019672,0.000137901,-0.000258328,-0.726035,0.000348387,-0.459229,1.59387,-2.64069,0.092427,-0.0011054,0.0266153,0.0020788,342,576,-0.0108736,-0.0940256,101.033,128.598,100.953,128.679,5.56288e-05,5.12002e-05,0.000192979
-7.7906,5.5785,-296.644,0.0013576,0.00321936,0.00501201,-6.66227e-05,-9.02278e-05,-0.000201838,0.000123757,-0.000280608,-0.756194,0.000358865,-0.408478,1.5894,-2.645,0.103463,0.00106142,0.0269457,0.00203479,349,576,-0.00769111,-0.094821,102.86,129.28,102.78,129.357,5.44241e-05,4.94443e-05,0.000188792
-7.49232,5.56711,-296.585,0.00134491,0.0031451,0.00460306,-0.000100186,-9.58587e-05,-0.000203845,0.000105834,-0.000301879,-0.790705,0.000366443,-0.404061,1.58349,-2.8112,0.111995,0.0042394,0.027054,0.00204185,356,576,-0.00475758,-0.0945157,104.617,129.973,104.542,130.048,5.43026e-05,4.99747e-05,0.000188205
-7.19261,5.55574,-296.52,0.00125649,0.00308428,0.00419122,-0.000134363,-0.000101436,-0.000201984,8.47543e-05,-0.000320553,-0.826063,0.000370278,-0.413617,1.58753,-2.9823,0.115119,0.0062966,0.0261501,0.00206636,363,576,-0.00371776,-0.0942559,106.454,130.672,106.384,130.744,5.4091e-05,5.14559e-05,0.000187268
-6.88733,5.54539,-296.437,0.00118579,0.0030325,0.00404527,-0.000168334,-0.000106859,-0.000197572,6.23521e-05,-0.000337546,-0.862567,0.000372655,-0.409323,1.58753,-3.04357,0.114793,0.00801024,0.0228969,0.00211691,370,576,-0.00425938,-0.0945643,108.598,131.341,108.531,131.41,5.49111e-05,5.29e-05,0.000189804
-6.56919,5.53519,-296.309,0.00117556,0.00300629,0.00417447,-0.000199232,-0.000111848,-0.000190463,3.98703e-05,-0.00035095,-0.898146,0.000372489,-0.358186,1.61452,-2.94558,0.112472,0.0092157,0.0178591,0.00213309,377,576,-0.00538491,-0.0956675,111.446,132.051,111.378,132.118,5.48094e-05,5.32479e-05,0.000189361
-6.24632,5.52389,-296.165,0.00113064,0.00297585,0.00421687,-0.000224148,-0.000115876,-0.000181099,1.90049e-05,-0.000359029,-0.930636,0.000368899,-0.305242,1.64254,-2.75708,0.107962,0.00969241,0.0125264,0.00214811,384,576,-0.00671522,-0.0960835,114.557,132.839,114.49,132.904,5.37334e-05,5.34499e-05,0.000185719
-5.92178,5.51253,-296.013,0.00111967,0.00291391,0.00400921,-0.000244948,-0.000118328,-0.000170363,1.08615e-07,-0.000363384,-0.9633,0.000363439,-0.24086,1.63893,-2.69593,0.101008,0.00914771,0.00781236,0.00219235,391,576,-0.00530707,-0.0963059,117.771,133.641,117.706,133.702,5.27268e-05,5.54831e-05,0.000182257
-5.62054,5.50135,-295.939,0.00114096,0.00284504,0.00369758,-0.000263595,-0.00011832,-0.000159258,-1.59164e-05,-0.000365998,-0.999355,0.000358305,-0.217124,1.665,-2.756,0.0925562,0.00756706,0.00334464,0.0021979,398,576,-0.00232655,-0.0971614,119.732,134.344,119.669,134.401,5.1913e-05,5.61121e-05,0.00017933
0,0,0,0,0,0,0,0,0,0,0,0,0,0,0,0,0,0,0,-1,405,576,0,0,0,0,0,0,0,0,0
-5.04844,5.47914,-295.891,0.00100705,0.0026887,0.00335073,-0.000287818,-0.000111288,-0.000141127,-3.30969e-05,-0.000366009,-1.06485,0.000350634,-0.224646,1.64778,-2.90892,0.0717216,0.00136496,-0.0057444,0.0021448,412,576,-0.00284303,-0.0982051,122.009,135.627,121.953,135.675,5.12017e-05,5.45588e-05,0.000176469
-4.76948,5.46802,-295.89,0.000903459,0.00269143,0.00312761,-0.000293473,-0.000104158,-0.000135516,-3.35141e-05,-0.000364117,-1.09026,0.000348571,-0.232848,1.60863,-2.87422,0.0580124,-0.00220678,-0.00979163,0.002075,419,576,-0.00375295,-0.100563,122.759,136.239,122.708,136.286,5.09211e-05,5.24179e-05,0.000175418
-4.48927,5.45652,-295.884,0.000779038,0.00270167,0.00294335,-0.0002988,-9.45193e-05,-0.000131193,-3.03942e-05,-0.000362925,-1.11616,0.000348723,-0.22637,1.58276,-2.7588,0.0431695,-0.00556846,-0.0131377,0.00198259,426,576,-0.00547869,-0.102121,123.578,136.875,123.531,136.922,4.98395e-05,5.00107e-05,0.000171641
-4.20511,5.44515,-295.865,0.000675376,0.00272925,0.00276898,-0.000301306,-8.28601e-05,-0.000127226,-2.44042e-05,-0.000359761,-1.1401,0.000348201,-0.201001,1.56144,-2.69452,0.0289949,-0.00878562,-0.0159136,0.00190201,433,576,-0.00677199,-0.103041,124.615,137.52,124.573,137.567,4.87768e-05,4.82097e-05,0.000168075
-3.91796,5.43372,-295.835,0.000600606,0.00272519,0.00257821,-0.000299758,-6.99683e-05,-0.000123132,-1.64522e-05,-0.000353274,-1.1608,0.000345342,-0.157579,1.56285,-2.61425,0.0167759,-0.0122923,-0.018208,0.00186776,440,576,-0.00718351,-0.1023,125.819,138.18,125.78,138.228,4.76091e-05,4.71122e-05,0.000164159
-3.62811,5.42211,-295.794,0.000574524,0.00267934,0.00236972,-0.000297004,-5.649e-05,-0.000119439,-7.25524e-06,-0.000346239,-1.1798,0.000342669,-0.115055,1.55643,-2.56109,0.00747218,-0.0156344,-0.0208074,0.00186816,447,576,-0.00620683,-0.100674,127.177,138.864,127.141,138.911,4.78524e-05,4.66203e-05,0.00016506
-3.33491,5.41095,-295.742,0.000518606,0.00262154,0.00222661,-0.000294091,-4.24064e-05,-0.000116745,3.40689e-06,-0.000339904,-1.19684,0.00034162,-0.110612,1.55356,-2.59661,0.00152309,-0.0186949,-0.0237817,0.00189476,454,576,-0.00645885,-0.0993313,128.725,139.539,128.691,139.584,4.85358e-05,4.69498e-05,0.000167371
-3.03923,5.40009,-295.68,0.000467031,0.00256304,0.00206477,-0.000288818,-3.12301e-05,-0.0001142,1.2108e-05,-0.000332156,-1.20809,0.000338373,-0.140026,1.5869,-2.73491,-0.00165345,-0.0231208,-0.0266603,0.00192253,461,576,-0.00648002,-0.0986534,130.416,140.21,130.385,140.253,4.98008e-05,4.78951e-05,0.000171586
-2.74139,5.38936,-295.61,0.000412754,0.00251564,0.00196822,-0.000280832,-2.18188e-05,-0.000109207,1.80799e-05,-0.00032073,-1.22051,0.000330142,-0.148648,1.60847,-2.88811,-0.00433993,-0.0269746,-0.0303598,0.00196627,468,576,-0.00707006,-0.0989423,132.235,140.885,132.207,140.926,5.1988e-05,4.90078e-05,0.000178869
-2.44258,5.37847,-295.535,0.000358818,0.00246087,0.00195261,-0.000270925,-1.41257e-05,-9.98885e-05,2.01528e-05,-0.000305203,-1.24022,0.000315762,-0.151496,1.63013,-2.96706,-0.00975071,-0.0309928,-0.0345919,0.00205449,475,576,-0.00823057,-0.0988135,134.116,141.574,134.089,141.611,5.48911e-05,4.99199e-05,0.000188724
-2.14497,5.36779,-295.464,0.000335923,0.00239425,0.00179741,-0.000260799,-8.0455e-06,-8.57688e-05,1.83107e-05,-0.000287156,-1.27266,0.000296735,-0.161146,1.59998,-2.92705,-0.0188464,-0.0347599,-0.0393584,0.00217148,482,576,-0.00758153,-0.0975861,135.937,142.247,135.912,142.282,5.80253e-05,5.11093e-05,0.000199388
-1.8497,5.35688,-295.401,0.000328256,0.00235252,0.00154851,-0.000250498,-3.03125e-06,-6.77672e-05,1.4311e-05,-0.000267841,-1.32026,0.000275275,-0.173139,1.56999,-2.84775,-0.0294532,-0.0377084,-0.044374,0.00222585,489,576,-0.00591121,-0.097229,137.631,142.923,137.608,142.957,5.95367e-05,5.18537e-05,0.000204394
-1.55606,5.34575,-295.342,0.000315896,0.00235818,0.0012751,-0.000238562,1.19085e-06,-4.77283e-05,1.03429e-05,-0.000247714,-1.38134,0.000253044,-0.163198,1.51156,-2.7,-0.0392151,-0.0400657,-0.0488848,0.00220143,496,576,-0.00424654,-0.0981729,139.238,143.604,139.219,143.638,5.89531e-05,5.15769e-05,0.000202169
-1.26313,5.33475,-295.284,0.00029278,0.00241434,0.00086099,-0.000224133,5.00713e-06,-2.70416e-05,8.15513e-06,-0.000227281,-1.4549,0.000231467,-0.125723,1.48273,-2.66933,-0.0490363,-0.0413597,-0.0523366,0.00214677,503,576,-0.00191783,-0.100746,140.811,144.275,140.795,144.31,5.75007e-05,5.19838e-05,0.000197062
-0.968367,5.32364,-295.22,0.000250318,0.00243172,0.000451326,-0.000206288,8.98655e-06,-5.40052e-06,9.12195e-06,-0.000206423,-1.54573,0.000211132,-0.0946546,1.49555,-2.65965,-0.0613755,-0.0412828,-0.055082,0.00212718,510,576,-7.31744e-05,-0.101542,142.493,144.961,142.481,144.997,5.69584e-05,5.26276e-05,0.000194944
-0.671518,5.31282,-295.147,0.000218184,0.00241357,0.000270092,-0.000184948,1.35296e-05,1.74614e-05,1.50541e-05,-0.000186472,1.48371,0.000194437,-0.0796947,1.48698,-2.76046,-0.0758297,-0.0396961,-0.0580962,0.00215963,517,576,0.000430659,-0.101439,144.303,145.643,144.295,145.679,5.727e-05,5.36175e-05,0.000195757
-0.374314,5.30194,-295.072,0.000201614,0.00234715,0.000229168,-0.000160389,1.98058e-05,4.06745e-05,2.85617e-05,-0.000169144,1.35877,0.000185086,-0.123852,1.44131,-2.77408,-0.0905356,-0.0369826,-0.0614693,0.00222809,524,576,0.000378522,-0.100135,146.144,146.334,146.136,146.366,5.92988e-05,5.49981e-05,0.000202105
-0.0785522,5.29095,-295.001,0.00019732,0.00231937,0.000292206,-0.000134502,2.83826e-05,6.38024e-05,5.03985e-05,-0.000156518,1.23853,0.000186886,-0.199779,1.39442,-2.89289,-0.106915,-0.0334729,-0.0627484,0.00229508,531,576,-0.000134987,-0.0990698,147.91,147.023,147.902,147.055,6.0867e-05,5.66533e-05,0.000207171
0.215604,5.28022,-294.935,0.000178643,0.00235882,0.000226898,-0.000107611,3.86568e-05,8.52938e-05,7.78778e-05,-0.000146832,1.13979,0.000197634,-0.285874,1.37215,-2.9828,-0.122236,-0.0284703,-0.0632805,0.00234837,538,576,-0.000170597,-0.0989583,149.591,147.69,149.583,147.725,6.26616e-05,5.77274e-05,0.000213026
0.508341,5.26936,-294.873,0.000147211,0.00242511,1.19387e-06,-7.96414e-05,4.97556e-05,0.000105131,0.000108501,-0.000138387,1.06123,0.000214333,-0.322267,1.39794,-3.01317,-0.135418,-0.0218799,-0.0641673,0.00239985,545,576,0.000588691,-0.097726,151.194,148.357,151.189,148.396,6.42813e-05,5.87959e-05,0.000218843
0.801087,5.25828,-294.811,0.000151205,0.00248915,-0.000270976,-4.9289e-05,6.07106e-05,0.000124145,0.000141493,-0.000130072,0.99392,0.000235251,-0.323633,1.45591,-3.00551,-0.145459,-0.0139057,-0.0665874,0.00244753,552,576,0.00255479,-0.0975014,152.805,149.037,152.803,149.081,6.56937e-05,5.92829e-05,0.000223152
1.09413,5.24723,-294.746,0.00011235,0.00252006,-0.000230806,-1.62447e-05,6.99871e-05,0.000141565,0.000174856,-0.000121114,0.933219,0.000257722,-0.32145,1.4975,-2.97169,-0.150659,-0.0049882,-0.0704252,0.00251993,559,576,0.0012643,-0.0968847,154.443,149.721,154.441,149.767,6.8302e-05,5.96787e-05,0.000231083
1.38805,5.23611,-294.677,4.97271e-05,0.00256074,0.000219622,2.03626e-05,7.58935e-05,0.000154169,0.000204777,-0.000108521,0.874492,0.00027556,-0.396732,1.52141,-3.20345,-0.150789,0.0035355,-0.0754212,0.00264438,566,576,-0.00351874,-0.0972178,156.141,150.415,156.137,150.461,7.18798e-05,6.09667e-05,0.000242534
1.68205,5.2249,-294.607,-2.77776e-06,0.00263152,0.000739361,6.743e-05,7.70205e-05,0.000160429,0.000232726,-8.8275e-05,0.800339,0.000287224,-0.452481,1.45128,-3.39715,-0.149221,0.0113422,-0.0844979,0.00270557,573,576,-0.00854558,-0.0981266,157.853,151.113,157.846,151.162,7.33359e-05,6.2761e-05,0.000247055
0,0,0,0,0,0,0,0,0,0,0,0,0,0,0,0,0,0,0,-1,580,576,0,0,0,0,0,0,0,0,0
0,0,0,0,0,0,0,0,0,0,0,0,0,0,0,0,0,0,0,-1,587,576,0,0,0,0,0,0,0,0,0
0,0,0,0,0,0,0,0,0,0,0,0,0,0,0,0,0,0,0,-1,594,576,0,0,0,0,0,0,0,0,0
0,0,0,0,0,0,0,0,0,0,0,0,0,0,0,0,0,0,0,-1,601,576,0,0,0,0,0,0,0,0,0
0,0,0,0,0,0,0,0,0,0,0,0,0,0,0,0,0,0,0,-1,62,583,0,0,0,0,0,0,0,0,0
0,0,0,0,0,0,0,0,0,0,0,0,0,0,0,0,0,0,0,-1,69,583,0,0,0,0,0,0,0,0,0
0,0,0,0,0,0,0,0,0,0,0,0,0,0,0,0,0,0,0,-1,76,583,0,0,0,0,0,0,0,0,0
-19.0668,5.73992,-298.195,0.000512773,0.00267964,-0.000458535,-0.000312223,3.65234e-05,7.97841e-05,5.39092e-05,-0.000329609,1.35624,0.000359607,-0.222138,1.39131,-3.69307,0.00524492,0.0271381,-0.0246483,0.00205479,83,583,0.0133826,-0.0715123,40.247,104.739,40.2322,104.815,5.31139e-05,5.19429e-05,0.000188599
-18.7892,5.72764,-298.22,0.000412623,0.0027257,-0.000292007,-0.000248405,1.33072e-05,6.90902e-05,3.04267e-05,-0.000265525,1.3279,0.000281972,-0.231548,1.40942,-3.62454,-0.0217652,0.0228766,-0.0205598,0.00204871,90,583,0.00950197,-0.0730498,40.9611,105.38,40.948,105.457,5.35707e-05,5.24106e-05,0.000190644
-18.5092,5.71618,-298.237,0.000322353,0.00277555,-8.70641e-05,-0.000179149,-1.21244e-06,6.37284e-05,1.92572e-05,-0.000199619,1.26,0.000209911,-0.226008,1.41235,-3.50061,-0.0376281,0.0213829,-0.0136876,0.00209831,97,583,0.00556063,-0.0737611,41.7877,105.986,41.7758,106.065,5.39619e-05,5.3778e-05,0.000191684
-18.2259,5.70487,-298.245,0.000235582,0.00284965,0.000117453,-0.000112314,-8.89326e-06,6.06829e-05,1.91233e-05,-0.00014033,1.13827,0.000150804,-0.22488,1.38375,-3.39596,-0.0450192,0.0210424,-0.00556088,0.00211069,104,583,0.00170369,-0.0739133,42.7695,106.593,42.7585,106.675,5.26993e-05,5.41434e-05,0.000186613
-17.9405,5.69339,-298.246,0.000158677,0.00288412,0.000330215,-5.4602e-05,-1.17924e-05,5.82666e-05,2.88766e-05,-9.52711e-05,0.961426,0.000112524,-0.254131,1.34871,-3.33153,-0.045295,0.0208656,0.00165481,0.00215964,111,583,-0.00194621,-0.0744158,43.8486,107.219,43.8383,107.302,5.21087e-05,5.54103e-05,0.000184615
-17.6532,5.68162,-298.241,0.000169017,0.00290981,0.000520396,-6.07221e-06,-1.15154e-05,5.62233e-05,4.74953e-05,-6.50829e-05,0.761213,9.78914e-05,-0.32172,1.36022,-3.42931,-0.038625,0.0204223,0.0073646,0.00222738,118,583,-0.00327451,-0.0759134,45.021,107.867,45.0091,107.95,5.22858e-05,5.71383e-05,0.000185735
-17.3614,5.67025,-298.222,0.000201653,0.00293638,0.00062897,3.57459e-05,-9.09949e-06,5.43404e-05,7.2108e-05,-4.54616e-05,0.589723,0.000102686,-0.383436,1.37222,-3.62484,-0.0250816,0.0196601,0.011702,0.00229096,125,583,-0.00339642,-0.0782318,46.4128,108.511,46.3993,108.593,5.43403e-05,5.87325e-05,0.00019246
-17.0643,5.65924,-298.186,0.000266065,0.0030098,0.00083094,7.07966e-05,-5.02006e-06,5.22967e-05,9.74792e-05,-3.17027e-05,0.471787,0.000116609,-0.424021,1.3911,-3.79704,-0.00719964,0.0187686,0.0144927,0.00232057,132,583,-0.00353282,-0.0808776,48.062,109.152,48.0452,109.236,5.51443e-05,5.90977e-05,0.000193714
-16.7656,5.64768,-298.146,0.000301713,0.00308402,0.00112699,9.88615e-05,-1.50907e-06,4.90701e-05,0.000118865,-2.15124e-05,0.387082,0.000130953,-0.384238,1.3755,-3.86123,0.0086799,0.0179574,0.0152315,0.00225003,139,583,-0.0051205,-0.0829498,49.7853,109.828,49.7654,109.913,5.36939e-05,5.68743e-05,0.0001877
-16.4664,5.6366,-298.103,0.000357271,0.00314002,0.00171627,0.000119128,3.51827e-06,4.59101e-05,0.000135141,-1.24951e-05,0.335605,0.000141802,-0.350118,1.40224,-3.86117,0.0215144,0.0172406,0.0134583,0.002097,146,583,-0.00855192,-0.0842129,51.5399,110.481,51.5143,110.567,5.07847e-05,5.29924e-05,0.00017777
-16.1699,5.62574,-298.068,0.000396665,0.0031664,0.00226608,0.000133337,8.86273e-06,4.39798e-05,0.000147308,-5.10832e-06,0.307588,0.000149927,-0.291578,1.44888,-3.82623,0.0306979,0.0166569,0.00992347,0.00200387,153,583,-0.012012,-0.08518,53.1585,111.116,53.128,111.202,4.80521e-05,5.10591e-05,0.000167952
-15.8751,5.61457,-298.038,0.000378472,0.00316801,0.00265478,0.000141208,1.42574e-05,4.34996e-05,0.000154683,7.825e-07,0.300396,0.000154293,-0.265985,1.47269,-3.82625,0.0369482,0.0162751,0.005419,0.00200708,160,583,-0.0155319,-0.0846483,54.6921,111.761,54.6593,111.847,4.71669e-05,5.13656e-05,0.00016509
-15.5799,5.60327,-298.006,0.000353749,0.00320811,0.00292995,0.000143052,1.89567e-05,4.41061e-05,0.000157131,4.87772e-06,0.308983,0.00015475,-0.285623,1.4841,-3.80852,0.0397301,0.016113,9.58971e-05,0.00205097,167,583,-0.018334,-0.0854584,56.2415,112.414,56.2074,112.501,4.86574e-05,5.25872e-05,0.000170715
-15.2828,5.59165,-297.968,0.000333465,0.00325133,0.00322651,0.000140603,2.27883e-05,4.59318e-05,0.000156394,6.99758e-06,0.331128,0.000153015,-0.285818,1.49042,-3.81241,0.0374625,0.0160621,-0.00523684,0.00208055,174,583,-0.0211974,-0.086777,57.8869,113.091,57.8511,113.179,5.20159e-05,5.35547e-05,0.000182113
-14.9849,5.57982,-297.926,0.000333821,0.00326688,0.00359599,0.000136769,2.52223e-05,4.87291e-05,0.000155058,6.93363e-06,0.359045,0.00015171,-0.243303,1.51265,-3.65718,0.0286309,0.0159292,-0.0100582,0.00211198,181,583,-0.0241046,-0.0881855,59.5706,113.784,59.5322,113.871,5.45489e-05,5.34121e-05,0.000190662
-14.6872,5.56806,-297.885,0.000316883,0.00323447,0.00385865,0.000134816,2.61146e-05,5.24333e-05,0.000155985,4.94536e-06,0.383723,0.000153572,-0.198746,1.55163,-3.42703,0.012574,0.0155187,-0.0134977,0.00208729,188,583,-0.0265245,-0.0886828,61.2457,114.475,61.206,114.56,5.46243e-05,5.20029e-05,0.000190642
-14.39,5.55646,-297.845,0.000288209,0.00318408,0.00410204,0.000135542,2.61133e-05,5.7297e-05,0.000160053,1.60266e-06,0.404226,0.000159257,-0.203696,1.52286,-3.27921,-0.00772165,0.0147762,-0.0146943,0.00198188,195,583,-0.0290298,-0.0869505,62.893,115.156,62.8524,115.239,5.18605e-05,5.01815e-05,0.000180854
-14.0946,5.54486,-297.809,0.00026571,0.00319646,0.00439169,0.000139365,2.57475e-05,6.27686e-05,0.000167215,-2.10271e-06,0.4176,0.000168276,-0.269462,1.45059,-3.19906,-0.0277405,0.0135677,-0.0135445,0.00190476,202,583,-0.0317944,-0.085601,64.4528,115.828,64.4105,115.913,4.96988e-05,4.89598e-05,0.000172995
-13.799,5.53319,-297.773,0.000258017,0.00327656,0.00470616,0.00014955,2.50855e-05,6.79543e-05,0.000179462,-4.82704e-06,0.414662,0.000181924,-0.334306,1.39377,-3.22759,-0.0457524,0.0117792,-0.00981492,0.00187431,209,583,-0.0344375,-0.0845871,66.027,116.501,65.9823,116.591,4.89834e-05,4.821e-05,0.000169984
-13.5019,5.52172,-297.731,0.000250098,0.00341643,0.00507423,0.000164739,2.42789e-05,7.11917e-05,0.000194512,-5.49357e-06,0.396098,0.000197316,-0.378337,1.39429,-3.21302,-0.0597902,0.00953261,-0.00462293,0.00194421,216,583,-0.0375649,-0.0852174,67.6733,117.169,67.6258,117.265,5.07977e-05,4.87749e-05,0.000175702
-13.2019,5.51089,-297.68,0.000250487,0.00351448,0.00510399,0.000179824,2.26508e-05,7.19981e-05,0.000207818,-5.34404e-06,0.370837,0.000210541,-0.396313,1.42239,-3.25062,-0.0695164,0.00695476,0.000265791,0.00201754,223,583,-0.0377828,-0.0860717,69.471,117.817,69.4229,117.918,5.21334e-05,5.0238e-05,0.000179452
-12.9005,5.49985,-297.624,0.00029184,0.00357165,0.00518404,0.000191597,1.99353e-05,6.98628e-05,0.000216435,-4.90345e-06,0.341598,0.000218928,-0.423661,1.42509,-3.2688,-0.0756007,0.00403075,0.00465279,0.00203688,230,583,-0.037368,-0.088206,71.3388,118.485,71.2888,118.586,5.25497e-05,5.1187e-05,0.00018141
-12.5987,5.48889,-297.565,0.000368814,0.00360001,0.00519232,0.000201097,1.57374e-05,6.38964e-05,0.000220988,-4.1541e-06,0.301799,0.000223094,-0.441622,1.42841,-3.16013,-0.0772597,0.000959504,0.00883383,0.00202998,237,583,-0.035484,-0.0902477,73.2305,119.152,73.1782,119.253,5.22512e-05,5.18343e-05,0.000180736
-12.2999,5.47799,-297.516,0.0004765,0.00362124,0.00522134,0.000210982,1.01833e-05,5.43665e-05,0.000224757,-3.59155e-06,0.248148,0.000226574,-0.461876,1.43578,-3.10943,-0.0736391,-0.00178053,0.0125007,0.00197746,244,583,-0.032996,-0.0924024,74.9732,119.807,74.9175,119.907,5.06608e-05,5.10076e-05,0.000176144
-12.0044,5.46623,-297.476,0.000569011,0.00362404,0.00526885,0.000219326,3.60541e-06,4.10518e-05,0.000226874,-3.94264e-06,0.181836,0.000228871,-0.485953,1.47196,-3.07894,-0.0662594,-0.00397425,0.0154199,0.00198513,251,583,-0.030992,-0.0932365,76.5478,120.495,76.4892,120.595,4.99642e-05,5.11904e-05,0.00017392
-11.7107,5.4545,-297.442,0.000646963,0.00362243,0.00522703,0.000222725,-3.45021e-06,2.38621e-05,0.000225215,-5.94031e-06,0.103978,0.000228243,-0.503721,1.49465,-3.0774,-0.0576565,-0.00552611,0.0167072,0.00201743,258,583,-0.0286363,-0.0933348,78.0257,121.175,77.9651,121.275,5.0002e-05,5.2148e-05,0.000173656
-11.4167,5.44301,-297.406,0.000741004,0.00359439,0.00524699,0.000221824,-1.05642e-05,3.61682e-06,0.00022188,-1.06205e-05,0.0155587,0.000227376,-0.505736,1.51205,-3.05418,-0.0488699,-0.00647041,0.0164253,0.00201484,265,583,-0.0263408,-0.0934268,79.5264,121.846,79.4629,121.944,5.00755e-05,5.21892e-05,0.000173477
-11.119,5.43138,-297.357,0.000884192,0.00357407,0.00543302,0.000217022,-1.7233e-05,-1.81123e-05,0.000218415,-1.86252e-05,-0.076711,0.000228298,-0.513168,1.52006,-3.04869,-0.0389807,-0.0070109,0.0155107,0.00197317,272,583,-0.0241171,-0.0933977,81.2215,122.538,81.1526,122.635,4.99608e-05,5.10208e-05,0.000172794
-10.817,5.42029,-297.295,0.00100562,0.00360189,0.00555604,0.000206286,-2.40002e-05,-4.02866e-05,0.000213131,-3.08445e-05,-0.168285,0.000230109,-0.547266,1.50799,-3.05482,-0.0270982,-0.00757066,0.0144376,0.00192614,279,583,-0.0219799,-0.0938877,83.136,123.217,83.0625,123.315,5.06795e-05,4.91843e-05,0.000174906
-10.513,5.4095,-297.225,0.00103004,0.00360675,0.00551119,0.000189477,-3.09915e-05,-6.26673e-05,0.000206045,-4.75594e-05,-0.258465,0.000233486,-0.56001,1.50452,-3.13074,-0.0136004,-0.0082605,0.0134959,0.00194416,286,583,-0.0209161,-0.0934553,85.159,123.889,85.085,123.987,5.11159e-05,4.90117e-05,0.000176448
-10.2093,5.3987,-297.155,0.00100585,0.00357223,0.00539338,0.000169544,-3.82666e-05,-8.52435e-05,0.000200036,-6.87591e-05,-0.343528,0.000241861,-0.569409,1.47828,-3.12694,8.12579e-05,-0.00902028,0.0128881,0.00195465,293,583,-0.0204659,-0.0929748,87.1684,124.564,87.0959,124.661,5.18731e-05,4.95751e-05,0.000178984
-9.90751,5.38751,-297.091,0.00101445,0.00349576,0.00538095,0.000148375,-4.55402e-05,-0.00010714,0.000195916,-9.30812e-05,-0.417625,0.000255506,-0.553438,1.44043,-3.10989,0.0124764,-0.00931944,0.0125346,0.00198725,300,583,-0.0199889,-0.0930991,89.0801,125.255,89.0076,125.348,5.30856e-05,4.94287e-05,0.000182884
-9.60688,5.37635,-297.029,0.00103226,0.00340766,0.00535654,0.000124509,-5.20824e-05,-0.000126701,0.000190645,-0.000118218,-0.481082,0.000269924,-0.560532,1.41027,-3.24925,0.0241387,-0.00917537,0.0132192,0.00200506,307,583,-0.0191753,-0.0926575,90.9375,125.941,90.8647,126.03,5.32971e-05,4.88903e-05,0.000183311
-9.30617,5.36524,-296.967,0.00104407,0.00334441,0.00521329,9.64662e-05,-5.82148e-05,-0.000143731,0.000182344,-0.000144093,-0.538571,0.000283349,-0.576439,1.43707,-3.2922,0.0363402,-0.00878504,0.0151342,0.00203888,314,583,-0.0176275,-0.0925681,92.8022,126.626,92.7302,126.712,5.41235e-05,4.90811e-05,0.000185885
-9.00506,5.35403,-296.903,0.00109937,0.00330649,0.00522027,6.65589e-05,-6.45305e-05,-0.000158933,0.000172932,-0.000170904,-0.589821,0.000297773,-0.581312,1.50743,-3.29012,0.0492014,-0.00825012,0.0179171,0.002026,321,583,-0.0161543,-0.0913363,94.6937,127.316,94.62,127.4,5.3839e-05,5.01366e-05,0.00018559
-8.70347,5.34328,-296.836,0.00118385,0.00332384,0.00534048,3.6192e-05,-7.10246e-05,-0.000173126,0.000163819,-0.000198652,-0.635255,0.000314392,-0.546346,1.58378,-3.13078,0.0620636,-0.00731574,0.0208342,0.00201574,328,583,-0.0148838,-0.0922785,96.6178,127.983,96.5407,128.068,5.36901e-05,5.06507e-05,0.000185795
-8.40336,5.33222,-296.773,0.00126493,0.00333571,0.00546396,5.01532e-06,-7.74596e-05,-0.000185773,0.000154072,-0.000226517,-0.67618,0.000331584,-0.52075,1.61058,-2.92832,0.0752108,-0.00523304,0.0223535,0.00203239,335,583,-0.013713,-0.093361,98.4672,128.664,98.3868,128.748,5.42426e-05,4.99649e-05,0.000187971
-8.10475,5.32091,-296.715,0.00129334,0.00327382,0.00536813,-2.66207e-05,-8.42092e-05,-0.000195493,0.000142187,-0.000253017,-0.712279,0.000346714,-0.477623,1.59597,-2.82067,0.0885633,-0.00228215,0.0229038,0.00204381,342,583,-0.0121263,-0.0942247,100.238,129.355,100.157,129.435,5.46358e-05,4.88012e-05,0.000189281
-7.80532,5.30956,-296.653,0.00130958,0.00319847,0.0051007,-6.00473e-05,-9.26772e-05,-0.000202117,0.000126412,-0.000279136,-0.745125,0.000359421,-0.420943,1.56938,-2.85531,0.10054,0.000519256,0.023749,0.0020283,349,583,-0.00953768,-0.0949349,102.054,130.053,101.975,130.129,5.43086e-05,4.80856e-05,0.000187605
-7.50479,5.2981,-296.587,0.0012616,0.00310775,0.00463929,-9.64266e-05,-0.000100834,-0.000205547,0.000106928,-0.000304188,-0.780038,0.000369446,-0.38635,1.55028,-2.99973,0.110046,0.00448883,0.0246083,0.00201581,356,583,-0.00707916,-0.0949988,103.93,130.763,103.856,130.835,5.39575e-05,4.9511e-05,0.000186192
-7.20074,5.28735,-296.508,0.0011791,0.00306998,0.00425151,-0.000132631,-0.000109057,-0.000204974,8.44689e-05,-0.000326157,-0.814119,0.000375584,-0.392826,1.54208,-3.14008,0.114412,0.0076447,0.0246074,0.00200064,363,583,-0.00609777,-0.0952863,106,131.448,105.931,131.518,5.253e-05,5.09533e-05,0.000181228
-6.89181,5.27729,-296.412,0.00115935,0.00305907,0.0041691,-0.00016835,-0.00011692,-0.000201699,6.06963e-05,-0.000345967,-0.848803,0.000379968,-0.391153,1.55292,-3.12925,0.115245,0.0105621,0.0224644,0.00204779,370,583,-0.00588198,-0.0960913,108.343,132.116,108.276,132.185,5.24226e-05,5.23507e-05,0.000180852
-6.5726,5.26681,-296.281,0.0011891,0.00306581,0.00437365,-0.000201089,-0.000123994,-0.000195743,3.6961e-05,-0.000362044,-0.882619,0.000381868,-0.366745,1.60537,-2.99083,0.113658,0.0129127,0.0187056,0.00210575,377,583,-0.00658685,-0.0963921,111.252,132.849,111.182,132.918,5.32092e-05,5.36915e-05,0.000183565
-6.25182,5.25577,-296.143,0.00118243,0.00300289,0.0044065,-0.000227652,-0.000129551,-0.000187568,1.52742e-05,-0.000372477,-0.913289,0.000380344,-0.323758,1.61843,-2.8049,0.109688,0.0142471,0.0146762,0.00213953,384,583,-0.00684399,-0.0955016,114.252,133.622,114.182,133.688,5.34381e-05,5.3753e-05,0.000184475
-5.93341,5.24456,-296.012,0.00116192,0.00290845,0.00421055,-0.000249433,-0.000132749,-0.00017803,-3.74457e-06,-0.000378437,-0.943738,0.000376579,-0.256486,1.60965,-2.75524,0.103214,0.0143195,0.0111885,0.00214168,391,583,-0.00571952,-0.0947779,117.135,134.397,117.068,134.46,5.24776e-05,5.40933e-05,0.000181304
0,0,0,0,0,0,0,0,0,0,0,0,0,0,0,0,0,0,0,-1,398,583,0,0,0,0,0,0,0,0,0
-5.33717,5.22248,-295.884,0.00113821,0.00280719,0.00370464,-0.000284126,-0.000129573,-0.000158901,-3.01544e-05,-0.000383545,-1.01172,0.000369392,-0.207241,1.64486,-2.8829,0.086028,0.0105494,0.00430392,0.00214913,405,583,-0.0023351,-0.0978478,120.724,135.77,120.661,135.825,5.24834e-05,5.46385e-05,0.00018094
-5.05653,5.21154,-295.878,0.00105326,0.0028058,0.00362049,-0.000294133,-0.000123536,-0.00015173,-3.47715e-05,-0.000382897,-1.04147,0.00036675,-0.225048,1.66033,-2.8809,0.0745648,0.00716226,0.000496293,0.00215094,412,583,-0.00378916,-0.100402,121.569,136.379,121.51,136.432,5.22654e-05,5.42399e-05,0.000179985
-4.77868,5.20044,-295.881,0.000905577,0.0028187,0.00341186,-0.000300583,-0.000114686,-0.0001466,-3.40516e-05,-0.000381218,-1.06793,0.000365384,-0.240256,1.62749,-2.79702,0.060839,0.00342404,-0.00301741,0.00210485,419,583,-0.0059209,-0.103355,122.259,136.985,122.205,137.036,5.20284e-05,5.246e-05,0.000179059
-4.4997,5.18911,-295.879,0.000741229,0.00280378,0.00326186,-0.000306621,-0.00010311,-0.000142537,-2.97341e-05,-0.000379997,-1.09539,0.000366037,-0.239448,1.59854,-2.69773,0.0462257,-0.000433385,-0.00605806,0.00203637,426,583,-0.00886005,-0.103697,123.01,137.608,122.961,137.658,5.12982e-05,5.01363e-05,0.000176449
-4.21615,5.17787,-295.862,0.000639945,0.00279777,0.0030993,-0.000309743,-8.95024e-05,-0.000138708,-2.25168e-05,-0.000376729,-1.1209,0.00036599,-0.214582,1.58386,-2.64164,0.0325666,-0.0044187,-0.00870095,0.0019455,433,583,-0.0101344,-0.103508,124.014,138.245,123.97,138.294,4.98396e-05,4.82818e-05,0.000171484
-3.92839,5.16666,-295.83,0.000601487,0.0027436,0.00293918,-0.000308857,-7.48284e-05,-0.000134463,-1.35937e-05,-0.000370092,-1.14346,0.000363486,-0.166957,1.59219,-2.63495,0.0209899,-0.00876765,-0.011148,0.00187269,440,583,-0.00980133,-0.101871,125.254,138.899,125.212,138.948,4.86803e-05,4.69216e-05,0.000167529
-3.63732,5.15542,-295.785,0.000594562,0.00266168,0.00268545,-0.000306823,-5.99436e-05,-0.0001301,-4.04168e-06,-0.000362725,-1.16497,0.000360721,-0.124447,1.6008,-2.63478,0.0122985,-0.0128836,-0.0140328,0.00185433,447,583,-0.00797547,-0.100092,126.681,139.571,126.641,139.617,4.88987e-05,4.57021e-05,0.000168355
-3.34384,5.14448,-295.732,0.00054753,0.0026074,0.00249667,-0.000305196,-4.48507e-05,-0.000126247,6.31378e-06,-0.00035636,-1.18575,0.000359559,-0.110996,1.59729,-2.6761,0.0069059,-0.0166633,-0.0172034,0.00185338,454,583,-0.00767356,-0.099193,128.245,140.238,128.209,140.282,4.92116e-05,4.54705e-05,0.000169475
-3.04884,5.13362,-295.672,0.000485751,0.00256679,0.00223421,-0.000302155,-3.3281e-05,-0.000122176,1.3942e-05,-0.000349378,-1.20197,0.000356554,-0.129827,1.60727,-2.75959,0.00431685,-0.021475,-0.0201892,0.00187351,461,583,-0.00723246,-0.0987285,129.898,140.907,129.866,140.95,4.99432e-05,4.61573e-05,0.00017195
-2.75238,5.12294,-295.607,0.000438586,0.00254052,0.00204479,-0.000296677,-2.41196e-05,-0.000115812,1.84435e-05,-0.00033924,-1.2186,0.000348828,-0.138269,1.63083,-2.86401,0.00226422,-0.0257218,-0.0239878,0.00194537,468,583,-0.00698223,-0.0988602,131.64,141.575,131.61,141.616,5.1628e-05,4.76629e-05,0.000177662
-2.45556,5.11217,-295.539,0.000391081,0.002495,0.00194977,-0.000289244,-1.72966e-05,-0.000105316,1.87189e-05,-0.00032526,-1.24129,0.000335012,-0.12809,1.65699,-2.88172,-0.00234848,-0.0300849,-0.0284699,0.00204232,475,583,-0.00740921,-0.0984807,133.409,142.251,133.382,142.291,5.41913e-05,4.91695e-05,0.000186413
-2.15951,5.10143,-295.474,0.000374146,0.00244588,0.00179055,-0.000281209,-1.23603e-05,-9.03088e-05,1.51586e-05,-0.000308728,-1.27502,0.00031658,-0.12698,1.6308,-2.82803,-0.0106783,-0.0340888,-0.0336948,0.00212724,482,583,-0.00660232,-0.0979265,135.142,142.923,135.116,142.961,5.64567e-05,5.00907e-05,0.000194101
-1.86526,5.09042,-295.414,0.000340958,0.00242244,0.00153667,-0.000272361,-8.51937e-06,-7.18636e-05,9.78455e-06,-0.000290665,-1.3214,0.000295679,-0.13454,1.59982,-2.72916,-0.0210097,-0.0370992,-0.0393863,0.00215712,489,583,-0.00556189,-0.0982043,136.777,143.602,136.755,143.639,5.74076e-05,5.02059e-05,0.000197182
-1.57213,5.07938,-295.357,0.000309658,0.00243819,0.00128065,-0.000261262,-5.32668e-06,-5.17803e-05,4.7525e-06,-0.000271341,-1.37855,0.000273748,-0.144793,1.53526,-2.60799,-0.0313542,-0.0393614,-0.0447308,0.00212915,496,583,-0.00452114,-0.100246,138.355,144.278,138.335,144.314,5.67391e-05,5.01087e-05,0.000194725
-1.27908,5.0685,-295.299,0.000269294,0.00246708,0.000957426,-0.000247209,-2.36128e-06,-3.14892e-05,1.6236e-06,-0.000251194,-1.44492,0.000252009,-0.119023,1.52286,-2.53559,-0.0426189,-0.0403193,-0.0492938,0.002077,503,583,-0.00325301,-0.102575,139.934,144.947,139.918,144.983,5.50541e-05,5.11292e-05,0.000188765
-0.98396,5.05757,-295.233,0.000187836,0.00243376,0.000606642,-0.000229138,1.0463e-06,-1.05439e-05,1.52827e-06,-0.00022962,-1.52512,0.000230388,-0.104479,1.53221,-2.49352,-0.0569704,-0.039872,-0.0534726,0.00210251,510,583,-0.00275842,-0.102226,141.636,145.63,141.625,145.665,5.51864e-05,5.27575e-05,0.000188837
-0.687316,5.04677,-295.161,0.000123919,0.00237264,0.000409705,-0.000207079,5.39613e-06,1.14276e-05,6.00897e-06,-0.000207692,1.51722,0.000210761,-0.0747695,1.49179,-2.5508,-0.0734131,-0.037944,-0.0579662,0.00217215,517,583,-0.00289748,-0.101029,143.433,146.314,143.426,146.347,5.65976e-05,5.43549e-05,0.000193334
-0.390544,5.03603,-295.088,8.46166e-05,0.00229357,0.000364289,-0.000181381,1.19798e-05,3.36018e-05,1.76526e-05,-0.000187053,1.40355,0.000196475,-0.111406,1.4157,-2.58037,-0.0901811,-0.0348097,-0.062929,0.00223943,524,583,-0.00347087,-0.0987563,145.248,146.998,145.242,147.029,5.90803e-05,5.56942e-05,0.000201225
-0.0950849,5.02522,-295.018,0.000100421,0.00227933,0.000238147,-0.000153802,2.07348e-05,5.56425e-05,3.69645e-05,-0.000170032,1.28699,0.000191213,-0.184815,1.37163,-2.75002,-0.109276,-0.0306378,-0.066026,0.00229218,531,583,-0.00214443,-0.0975396,146.995,147.678,146.99,147.709,6.06724e-05,5.71512e-05,0.000206502
0.1988,5.01465,-294.953,0.000126529,0.00232242,0.000112302,-0.000124871,3.1481e-05,7.6812e-05,6.29024e-05,-0.000156292,1.1825,0.000195487,-0.277123,1.37498,-2.86329,-0.127512,-0.0247978,-0.0685855,0.00235729,538,583,-0.000622331,-0.0973982,148.66,148.338,148.655,148.372,6.29332e-05,5.83965e-05,0.000214099
0.491692,5.00388,-294.891,0.000122148,0.002388,-7.81223e-05,-9.48734e-05,4.34412e-05,9.71913e-05,9.35687e-05,-0.000145001,1.09462,0.000208202,-0.32795,1.42189,-2.91229,-0.14362,-0.0172514,-0.0716148,0.00244786,545,583,0.000567468,-0.0965077,150.273,149.003,150.27,149.042,6.53723e-05,5.9571e-05,0.000222914
0.784294,4.99286,-294.829,0.000100485,0.00242891,-0.000302125,-6.26903e-05,5.5947e-05,0.000117718,0.000128447,-0.000135191,1.01878,0.000228342,-0.323568,1.47556,-2.99833,-0.15636,-0.00815476,-0.0762362,0.00252149,552,583,0.00156438,-0.0959039,151.875,149.683,151.874,149.725,6.7203e-05,6.08452e-05,0.000228805
1.07738,4.98185,-294.764,4.80923e-05,0.00242886,-0.000207979,-2.80998e-05,6.79048e-05,0.000137778,0.000165803,-0.000125999,0.953023,0.00025349,-0.340193,1.47707,-3.05479,-0.163724,0.00211533,-0.0820573,0.00259755,559,583,-0.000423385,-0.0951652,153.514,150.369,153.514,150.411,6.98131e-05,6.25512e-05,0.000236918
1.37091,4.97076,-294.697,-1.13701e-05,0.00247147,0.000169574,8.68753e-06,7.80174e-05,0.000154172,0.000201374,-0.000114669,0.895982,0.000277113,-0.397715,1.44994,-3.3287,-0.16482,0.0123291,-0.088559,0.00270234,566,583,-0.00462292,-0.0958576,155.188,151.062,155.186,151.105,7.2697e-05,6.50979e-05,0.000246053
1.66467,4.95976,-294.628,-6.8747e-05,0.00255889,0.000599818,5.28343e-05,8.49909e-05,0.000164947,0.000234641,-9.68159e-05,0.833982,0.000295206,-0.444712,1.38656,-3.54393,-0.161503,0.0218808,-0.0987948,0.00276282,573,583,-0.00916891,-0.0970803,156.885,151.751,156.881,151.797,7.41659e-05,6.65555e-05,0.000250395
0,0,0,0,0,0,0,0,0,0,0,0,0,0,0,0,0,0,0,-1,580,583,0,0,0,0,0,0,0,0,0
0,0,0,0,0,0,0,0,0,0,0,0,0,0,0,0,0,0,0,-1,587,583,0,0,0,0,0,0,0,0,0
0,0,0,0,0,0,0,0,0,0,0,0,0,0,0,0,0,0,0,-1,594,583,0,0,0,0,0,0,0,0,0
0,0,0,0,0,0,0,0,0,0,0,0,0,0,0,0,0,0,0,-1,601,583,0,0,0,0,0,0,0,0,0
0,0,0,0,0,0,0,0,0,0,0,0,0,0,0,0,0,0,0,-1,62,590,0,0,0,0,0,0,0,0,0
0,0,0,0,0,0,0,0,0,0,0,0,0,0,0,0,0,0,0,-1,69,590,0,0,0,0,0,0,0,0,0
0,0,0,0,0,0,0,0,0,0,0,0,0,0,0,0,0,0,0,-1,76,590,0,0,0,0,0,0,0,0,0
-19.0723,5.4678,-298.176,0.000418216,0.00268595,-0.000500091,-0.000341506,2.45022e-05,7.94347e-05,4.09984e-05,-0.000358002,1.36604,0.000380163,-0.263749,1.40993,-3.65743,0.00933389,0.0272142,-0.0194106,0.00206761,83,590,0.0114026,-0.0724521,39.8725,105.681,39.8607,105.757,5.29053e-05,5.11951e-05,0.000188422
-18.7943,5.4557,-298.2,0.000326453,0.00273857,-0.000345791,-0.000270935,2.2901e-06,6.47787e-05,1.68704e-05,-0.000285515,1.34941,0.000294313,-0.262065,1.42411,-3.53545,-0.0200644,0.0205704,-0.0150075,0.00203407,90,590,0.00781619,-0.0743982,40.6065,106.312,40.5963,106.388,5.3146e-05,5.10987e-05,0.00018967
-18.5148,5.44449,-298.219,0.000246394,0.00280244,-0.000129804,-0.000195891,-1.16427e-05,5.55652e-05,3.81731e-06,-0.000211351,1.29943,0.000213286,-0.246542,1.4227,-3.43658,-0.0371536,0.0175501,-0.00803776,0.00204589,97,590,0.00401693,-0.0754467,41.4116,106.9,41.4022,106.979,5.31024e-05,5.23441e-05,0.000188922
-18.2297,5.43306,-298.22,0.000169192,0.00289003,0.000120829,-0.000124226,-1.91996e-05,4.94162e-05,3.9531e-07,-0.000143821,1.19329,0.000144019,-0.241041,1.39011,-3.37283,-0.0449391,0.0164835,8.51824e-05,0.00207679,104,590,-5.76817e-08,-0.0759209,42.4853,107.518,42.4761,107.601,5.13152e-05,5.32597e-05,0.000181988
-17.9436,5.42154,-298.219,0.000126248,0.00293128,0.000435078,-6.31633e-05,-2.23205e-05,4.4725e-05,6.42472e-06,-9.19085e-05,0.999563,9.52835e-05,-0.286823,1.36937,-3.39172,-0.0454008,0.0162195,0.00709055,0.00214641,111,590,-0.00365702,-0.0766659,43.6025,108.147,43.5924,108.231,5.05603e-05,5.50702e-05,0.000179168
-17.6551,5.40986,-298.21,0.000130682,0.00296079,0.000603044,-1.29312e-05,-2.24184e-05,4.10116e-05,2.36102e-05,-5.89599e-05,0.727821,7.36598e-05,-0.352194,1.36755,-3.50516,-0.0388212,0.0160835,0.0122858,0.00220708,118,590,-0.00494812,-0.0780037,44.8364,108.794,44.825,108.878,5.09875e-05,5.65914e-05,0.000180471
-17.3613,5.39867,-298.185,0.000152227,0.00297477,0.000736836,2.94061e-05,-2.04279e-05,3.78903e-05,4.98381e-05,-4.086e-05,0.494546,7.8675e-05,-0.39792,1.35003,-3.67422,-0.0249956,0.0159642,0.0157819,0.00224357,125,590,-0.00553178,-0.0800146,46.3233,109.436,46.3104,109.519,5.24522e-05,5.75152e-05,0.000185348
-17.0637,5.38754,-298.149,0.000207382,0.0030209,0.000967645,6.46099e-05,-1.67893e-05,3.50583e-05,7.76276e-05,-2.9807e-05,0.355535,9.60643e-05,-0.423708,1.36644,-3.80979,-0.00635933,0.0160319,0.0174134,0.00224031,132,590,-0.00610406,-0.0824853,47.9978,110.087,47.9818,110.169,5.28202e-05,5.70048e-05,0.000185806
-16.7641,5.3761,-298.105,0.000232515,0.00308182,0.00126551,9.28329e-05,-1.35866e-05,3.12593e-05,0.000101336,-2.20892e-05,0.265579,0.000113997,-0.37801,1.36018,-3.89597,0.0103138,0.0163116,0.0169782,0.00215395,139,590,-0.00795095,-0.0844489,49.7711,110.761,49.7523,110.844,5.12791e-05,5.44423e-05,0.000179922
-16.4649,5.36537,-298.062,0.000271496,0.00312058,0.00185172,0.000112438,-8.96368e-06,2.80062e-05,0.000118587,-1.5113e-05,0.216139,0.000126821,-0.33525,1.40749,-3.89995,0.0234275,0.0168851,0.0140333,0.00203876,146,590,-0.011746,-0.0854087,51.5269,111.398,51.5029,111.482,4.91182e-05,5.16171e-05,0.00017227
-16.1686,5.35469,-298.028,0.000312655,0.00315659,0.00236851,0.000126184,-4.06373e-06,2.63605e-05,0.000131316,-9.1965e-06,0.192308,0.000136148,-0.282615,1.45657,-3.90809,0.0323112,0.0176367,0.00927797,0.00198776,153,590,-0.0148947,-0.0856588,53.1369,112.022,53.1081,112.107,4.69074e-05,5.06883e-05,0.000164139
-15.8746,5.34372,-298,0.000298844,0.00318003,0.0026691,0.000134038,1.26875e-06,2.64078e-05,0.000139097,-3.79096e-06,0.189305,0.000141031,-0.260978,1.46578,-3.93388,0.0379711,0.0186541,0.00347264,0.00200088,160,590,-0.0176098,-0.0846468,54.6333,112.652,54.6027,112.739,4.62377e-05,5.12385e-05,0.000161936
-15.5808,5.33249,-297.972,0.000277934,0.00321694,0.00284888,0.00013651,6.54563e-06,2.7828e-05,0.000142218,8.37797e-07,0.202306,0.000141801,-0.278152,1.46233,-3.94805,0.0399945,0.0198429,-0.00300463,0.00205194,167,590,-0.0195393,-0.0844209,56.119,113.296,56.0875,113.385,4.79737e-05,5.26212e-05,0.000168222
-15.285,5.32104,-297.937,0.000265387,0.00323955,0.00310392,0.000134941,1.17083e-05,3.08711e-05,0.000142242,4.40727e-06,0.232232,0.00014009,-0.24433,1.4706,-3.91346,0.0368303,0.0209954,-0.00917937,0.00207326,174,590,-0.0218591,-0.0851113,57.6976,113.961,57.6646,114.05,5.15044e-05,5.33162e-05,0.000180072
-14.988,5.30936,-297.899,0.000288171,0.0032434,0.00341634,0.000131683,1.61103e-05,3.53095e-05,0.000141616,6.17637e-06,0.274248,0.000138631,-0.170262,1.51461,-3.7049,0.0271084,0.0219261,-0.0145542,0.00207317,181,590,-0.0237565,-0.0867868,59.3406,114.644,59.3047,114.732,5.36894e-05,5.31108e-05,0.000187886
-14.6904,5.29762,-297.857,0.000306958,0.00323164,0.003677,0.000130222,1.94607e-05,4.08104e-05,0.000143635,6.04823e-06,0.317533,0.000140708,-0.126605,1.55818,-3.47185,0.0101295,0.0224108,-0.0182272,0.00204297,188,590,-0.0253165,-0.0885313,61.014,115.335,60.9759,115.421,5.37896e-05,5.14338e-05,0.000188065
-14.3935,5.28573,-297.818,0.000305717,0.00318784,0.00393973,0.000132059,2.23104e-05,4.75408e-05,0.000149788,4.58086e-06,0.356958,0.000147551,-0.148087,1.53115,-3.3129,-0.0110279,0.0223163,-0.0194184,0.00194708,195,590,-0.027322,-0.0878715,62.6487,116.031,62.6087,116.114,5.10395e-05,4.94355e-05,0.00017894
-14.0979,5.27392,-297.782,0.000290024,0.00320334,0.00425106,0.000137527,2.51143e-05,5.49163e-05,0.000159901,2.73973e-06,0.386896,0.000158549,-0.234233,1.4643,-3.19444,-0.0315812,0.021391,-0.0179735,0.00191507,202,590,-0.0300974,-0.0865401,64.2192,116.715,64.1772,116.8,4.96912e-05,4.88845e-05,0.00017406
-13.8032,5.26227,-297.748,0.000281036,0.00329073,0.00462745,0.000149667,2.76388e-05,6.19902e-05,0.000175633,1.67295e-06,0.396668,0.000174802,-0.315148,1.4255,-3.17525,-0.0495438,0.0195352,-0.013771,0.00191814,209,590,-0.0332695,-0.0853945,65.7474,117.385,65.7027,117.475,4.96474e-05,4.8963e-05,0.000173289
-13.5075,5.2511,-297.711,0.000236029,0.00340031,0.00497168,0.000166562,2.97893e-05,6.75216e-05,0.000194279,2.07227e-06,0.389518,0.000193251,-0.369425,1.4191,-3.15978,-0.0629133,0.0170007,-0.00806378,0.00194697,216,590,-0.0370953,-0.0855459,67.3282,118.034,67.2819,118.129,5.08821e-05,4.98782e-05,0.000177313
-13.2088,5.24061,-297.664,0.00021052,0.00347575,0.00505459,0.000182632,3.0652e-05,7.10852e-05,0.000210698,2.5863e-06,0.376031,0.000209416,-0.383938,1.43388,-3.21282,-0.071807,0.0139812,-0.00259168,0.00201713,223,590,-0.0383497,-0.0860125,69.0571,118.662,69.0106,118.76,5.17213e-05,5.13454e-05,0.000179238
-12.9079,5.22992,-297.609,0.000236306,0.00353745,0.00510997,0.000195119,2.99878e-05,7.18428e-05,0.000222,3.10724e-06,0.358033,0.000220462,-0.402697,1.43992,-3.18308,-0.0771233,0.0102672,0.00245224,0.00201585,230,590,-0.0381347,-0.0885616,70.9009,119.311,70.8531,119.41,5.16252e-05,5.17073e-05,0.00017902
-12.6064,5.21911,-297.552,0.000327271,0.00360013,0.005168,0.000205954,2.71827e-05,6.85905e-05,0.000229238,3.89871e-06,0.327257,0.000227314,-0.415574,1.43491,-3.08908,-0.0781767,0.00612211,0.00716343,0.00199969,237,590,-0.0363375,-0.0917632,72.7811,119.97,72.7303,120.07,5.08504e-05,5.15974e-05,0.00017661
-12.3068,5.20833,-297.5,0.00045762,0.00365768,0.00521193,0.000218607,2.23061e-05,6.13164e-05,0.000236186,4.72748e-06,0.279198,0.000233858,-0.443161,1.43751,-3.05527,-0.073887,0.00207658,0.0111113,0.00199349,244,590,-0.0334357,-0.0939072,74.564,120.621,74.509,120.722,5.0286e-05,5.10101e-05,0.000175263
-12.0099,5.19643,-297.456,0.000553224,0.00369324,0.00526475,0.000230793,1.56701e-05,4.9787e-05,0.000241757,4.70641e-06,0.216753,0.000239438,-0.479047,1.46352,-3.09218,-0.0655575,-0.00154363,0.0142027,0.00201274,251,590,-0.0314237,-0.0947693,76.2099,121.321,76.1517,121.423,5.06963e-05,5.18132e-05,0.000176721
-11.7149,5.18452,-297.417,0.000626057,0.00369428,0.00522453,0.000237919,7.8462e-06,3.38437e-05,0.000242795,2.97112e-06,0.143063,0.000241323,-0.509425,1.48969,-3.14924,-0.0562056,-0.00456745,0.0156216,0.00205319,258,590,-0.0292012,-0.0941326,77.7622,122.016,77.702,122.118,5.13035e-05,5.31141e-05,0.000178119
-11.4198,5.17294,-297.377,0.000712577,0.00365141,0.00527185,0.000239898,-6.04109e-07,1.41246e-05,0.000240725,-1.4308e-06,0.0584616,0.000241444,-0.513943,1.50077,-3.17437,-0.0472291,-0.00696315,0.0154842,0.00204375,265,590,-0.0272859,-0.0936502,79.3175,122.697,79.2545,122.797,5.11479e-05,5.28189e-05,0.000177183
-11.1222,5.16124,-297.329,0.000808409,0.00361184,0.00538339,0.000237512,-9.04028e-06,-7.58645e-06,0.000237745,-9.2735e-06,-0.0307314,0.000242515,-0.513232,1.50924,-3.15285,-0.0377098,-0.00884417,0.0146365,0.00199216,272,590,-0.025635,-0.0930269,81.0027,123.394,80.9361,123.493,5.01449e-05,5.14776e-05,0.000173723
-10.8211,5.15008,-297.269,0.000895535,0.00362938,0.00541481,0.000229375,-1.76532e-05,-2.99773e-05,0.000232961,-2.12389e-05,-0.11905,0.000244274,-0.531893,1.48164,-3.15644,-0.0267217,-0.0105008,0.0135851,0.00194554,279,590,-0.0236294,-0.0931588,82.877,124.075,82.8075,124.175,5.05313e-05,4.94849e-05,0.000174719
-10.5181,5.1396,-297.202,0.000929015,0.00361028,0.00537189,0.000214966,-2.63169e-05,-5.27134e-05,0.00022598,-3.73305e-05,-0.205971,0.000246772,-0.541293,1.46243,-3.20915,-0.014537,-0.0120272,0.0126324,0.00197288,286,590,-0.0223412,-0.0927464,84.8489,124.731,84.7788,124.83,5.12438e-05,4.97357e-05,0.000176846
-10.2152,5.12904,-297.136,0.00095,0.00355607,0.00532329,0.000196071,-3.50247e-05,-7.57761e-05,0.000218702,-5.76554e-05,-0.290221,0.000252515,-0.544434,1.44022,-3.14154,-0.00214731,-0.0133918,0.0118703,0.00196826,293,590,-0.0212985,-0.0929219,86.8151,125.393,86.7447,125.489,5.206e-05,5.01404e-05,0.00017911
-9.91316,5.1182,-297.07,0.00101672,0.0034882,0.0054655,0.000174111,-4.34591e-05,-9.849e-05,0.000212072,-8.14203e-05,-0.367886,0.000262432,-0.54696,1.41369,-3.13447,0.00917498,-0.0139869,0.011176,0.00199422,300,590,-0.0205841,-0.0938965,88.7485,126.07,88.6753,126.162,5.30755e-05,4.96342e-05,0.000181871
-9.61198,5.10723,-297.007,0.00107152,0.00342454,0.0054885,0.000148279,-5.07848e-05,-0.000119327,0.000204135,-0.000106641,-0.437801,0.000273519,-0.56732,1.42784,-3.2649,0.0200749,-0.0138175,0.0114402,0.00200083,307,590,-0.0192426,-0.0943355,90.6377,126.751,90.5629,126.838,5.30562e-05,4.89998e-05,0.000181605
-9.31077,5.09614,-296.943,0.00111097,0.00339684,0.00537959,0.000117799,-5.73285e-05,-0.000137838,0.000193535,-0.000133064,-0.502424,0.000284454,-0.577429,1.48069,-3.29915,0.0320137,-0.0131448,0.0128703,0.00202328,314,590,-0.0172993,-0.0945723,92.5309,127.436,92.4557,127.522,5.36065e-05,4.93516e-05,0.00018349
-9.00967,5.08503,-296.879,0.00116329,0.00337528,0.00535983,8.53963e-05,-6.38928e-05,-0.000154744,0.000182559,-0.000161055,-0.560675,0.000297772,-0.566312,1.55732,-3.30048,0.0447706,-0.0121776,0.0151239,0.00202462,321,590,-0.0157066,-0.0934017,94.4232,128.122,94.3466,128.208,5.36982e-05,5.04972e-05,0.000184602
-8.70912,5.07414,-296.815,0.00122081,0.00337622,0.00546035,5.24053e-05,-7.07512e-05,-0.000170715,0.000172308,-0.000190654,-0.612307,0.000314469,-0.522854,1.61056,-3.1732,0.0575866,-0.0106693,0.0173965,0.00200698,328,590,-0.0149293,-0.0934024,96.2926,128.796,96.2134,128.882,5.35288e-05,5.0214e-05,0.000184765
-8.41063,5.06315,-296.758,0.00126455,0.00337784,0.00553335,1.81513e-05,-7.80048e-05,-0.000185066,0.000161282,-0.000221136,-0.658313,0.000332533,-0.496405,1.6239,-2.98379,0.0708227,-0.00788326,0.0183683,0.00200476,335,590,-0.0142847,-0.0937147,98.0562,129.467,97.9751,129.553,5.34559e-05,4.86176e-05,0.000184997
-8.11313,5.05202,-296.703,0.00125649,0.00328994,0.00542501,-1.73476e-05,-8.60671e-05,-0.000196461,0.000147736,-0.00025115,-0.698827,0.000349294,-0.460531,1.60051,-2.92399,0.0845852,-0.00423553,0.0187461,0.00201557,342,590,-0.0134802,-0.0938592,99.768,130.147,99.6881,130.229,5.3705e-05,4.72679e-05,0.00018575
-7.81375,5.04086,-296.641,0.00123647,0.00317095,0.00512215,-5.48334e-05,-9.64291e-05,-0.000204637,0.00013006,-0.000281323,-0.734756,0.000364207,-0.414673,1.54882,-2.9991,0.0973326,-0.000534426,0.0198239,0.00203143,349,590,-0.0114902,-0.0944685,101.581,130.84,101.504,130.915,5.41233e-05,4.72651e-05,0.000186385
-7.51295,5.02965,-296.574,0.00117929,0.0030567,0.00464972,-9.42818e-05,-0.000107101,-0.000209482,0.000108889,-0.000310272,-0.770104,0.00037671,-0.382718,1.52585,-3.20691,0.107643,0.00432324,0.0212068,0.00202027,356,590,-0.0091637,-0.094948,103.472,131.541,103.401,131.61,5.38336e-05,4.89598e-05,0.000185076
-7.20741,5.01913,-296.49,0.00114388,0.00306566,0.00437261,-0.000132635,-0.000118063,-0.00021025,8.50272e-05,-0.000335725,-0.802719,0.00038534,-0.371061,1.52021,-3.29617,0.113253,0.00870167,0.0220275,0.00197292,363,590,-0.00788206,-0.0956607,105.626,132.222,105.557,132.291,5.16228e-05,5.0556e-05,0.000177471
-6.89779,5.00906,-296.392,0.00115822,0.00308437,0.00433121,-0.000169916,-0.000128616,-0.000208106,5.98626e-05,-0.000358394,-0.83485,0.000391771,-0.349861,1.5476,-3.209,0.115286,0.012928,0.0210612,0.00200897,370,590,-0.00714437,-0.0964474,108.008,132.895,107.94,132.965,5.05402e-05,5.17315e-05,0.000173958
-6.58066,4.99861,-296.268,0.00120111,0.00309702,0.00452622,-0.000204207,-0.000138078,-0.000203317,3.4845e-05,-0.00037713,-0.866005,0.000395705,-0.340875,1.59823,-3.04817,0.114486,0.0165611,0.018752,0.00206687,377,590,-0.00744447,-0.0960995,110.806,133.622,110.734,133.692,5.14859e-05,5.32474e-05,0.000177443
-6.26162,4.98797,-296.136,0.00120406,0.00299358,0.00449969,-0.000232335,-0.0001455,-0.00019641,1.22341e-05,-0.00039007,-0.894176,0.000396328,-0.310384,1.59251,-2.91949,0.111075,0.0190023,0.0162537,0.00209696,384,590,-0.00697339,-0.0944594,113.715,134.374,113.643,134.44,5.25315e-05,5.29748e-05,0.000181199
-5.94597,4.9771,-296.014,0.00118169,0.00286103,0.00433484,-0.000255227,-0.000149834,-0.000188257,-7.03745e-06,-0.000398023,-0.921864,0.000394552,-0.247248,1.57302,-2.88427,0.104989,0.0200309,0.0142109,0.00207224,391,590,-0.0060825,-0.0927932,116.448,135.126,116.379,135.187,5.18305e-05,5.24659e-05,0.000178998
-5.63831,4.96563,-295.918,0.00121008,0.00281444,0.0040227,-0.000274953,-0.000149977,-0.000179702,-2.2208e-05,-0.000402722,-0.952724,0.00039209,-0.201927,1.60135,-2.85244,0.0971847,0.0195586,0.0121691,0.00210688,398,590,-0.00293366,-0.0939559,118.759,135.876,118.691,135.934,5.21836e-05,5.37528e-05,0.000180162
-5.34781,4.95467,-295.879,0.00116354,0.00282079,0.00385636,-0.000291095,-0.000146448,-0.000171671,-3.24875e-05,-0.000405056,-0.98476,0.000389829,-0.191655,1.64117,-2.86404,0.0880321,0.0175537,0.00984526,0.00213239,405,590,-0.00281173,-0.096451,120.142,136.527,120.077,136.583,5.37096e-05,5.39265e-05,0.000185181
-5.06637,4.94357,-295.871,0.00105585,0.00286755,0.00381598,-0.00030177,-0.00013918,-0.00016544,-3.61399e-05,-0.00040481,-1.01376,0.000388004,-0.217284,1.67287,-2.7575,0.0764716,0.0145263,0.00695024,0.00216986,412,590,-0.00520616,-0.0999936,121.031,137.146,120.97,137.202,5.44978e-05,5.38392e-05,0.00018757
-4.78812,4.93251,-295.872,0.000895156,0.00290136,0.00366759,-0.000308971,-0.000128566,-0.00016092,-3.42916e-05,-0.000403245,-1.04085,0.00038724,-0.232113,1.66134,-2.65002,0.0627727,0.0108043,0.00410413,0.0021581,419,590,-0.00812077,-0.102957,121.744,137.75,121.688,137.805,5.47316e-05,5.23108e-05,0.000188219
-4.50911,4.92124,-295.871,0.000714894,0.00286377,0.00354787,-0.000315589,-0.000114855,-0.000157263,-2.86605e-05,-0.000401784,-1.06942,0.000388247,-0.243858,1.61806,-2.59526,0.0484953,0.0065591,0.00140928,0.00211777,426,590,-0.0116538,-0.10288,122.497,138.37,122.447,138.424,5.39685e-05,5.0478e-05,0.000185508
-4.22556,4.91025,-295.853,0.000616607,0.00281833,0.00335285,-0.000319213,-9.89825e-05,-0.000153657,-2.00585e-05,-0.000398137,-1.0963,0.000388496,-0.221331,1.59806,-2.60901,0.0355091,0.00182529,-0.00116586,0.00204482,433,590,-0.0125758,-0.102533,123.502,138.996,123.457,139.047,5.23016e-05,4.88995e-05,0.000179735
-3.93761,4.89923,-295.82,0.000594026,0.00273044,0.00315094,-0.00031899,-8.20699e-05,-0.000149172,-1.00436e-05,-0.000391016,-1.12097,0.000386092,-0.186124,1.58421,-2.67812,0.0247693,-0.00335606,-0.00392673,0.00197635,440,590,-0.0115063,-0.100909,124.754,139.644,124.711,139.693,5.11646e-05,4.75597e-05,0.000175849
-3.64668,4.8883,-295.776,0.000598463,0.0026479,0.00287122,-0.000317618,-6.51683e-05,-0.000143902,2.42726e-08,-0.00038281,-1.14542,0.000382823,-0.156827,1.58844,-2.74353,0.0168494,-0.0082793,-0.00725874,0.00193733,447,590,-0.00920691,-0.0996727,126.174,140.301,126.133,140.347,5.08219e-05,4.68877e-05,0.000174742
-3.354,4.87774,-295.726,0.00056468,0.00259007,0.00263017,-0.000317132,-4.84329e-05,-0.000138572,1.02255e-05,-0.000375791,-1.17036,0.000381006,-0.131039,1.58431,-2.73658,0.0121261,-0.0128669,-0.0107516,0.00190194,454,590,-0.00818907,-0.0991635,127.695,140.947,127.657,140.99,5.04295e-05,4.65291e-05,0.000173483
-3.05986,4.86715,-295.669,0.000511109,0.00255932,0.00231583,-0.000316255,-3.57895e-05,-0.000132648,1.70079e-05,-0.000369052,-1.19199,0.000377843,-0.138264,1.58496,-2.74321,0.0102055,-0.018041,-0.0139507,0.0018905,461,590,-0.00716997,-0.0987171,129.301,141.601,129.267,141.643,5.06058e-05,4.65494e-05,0.000174128
-2.76436,4.8565,-295.607,0.000494611,0.0025417,0.00207529,-0.000313371,-2.63445e-05,-0.00012452,2.01458e-05,-0.000359862,-1.21347,0.000370346,-0.136636,1.6024,-2.69092,0.00892993,-0.0226842,-0.0178366,0.00195812,468,590,-0.00578044,-0.0987133,130.99,142.264,130.958,142.306,5.18035e-05,4.74433e-05,0.000178289
-2.4688,4.84568,-295.544,0.00046055,0.00250683,0.00188571,-0.00030862,-1.99058e-05,-0.000112475,1.87389e-05,-0.000347265,-1.23985,0.000357003,-0.140889,1.62813,-2.65407,0.00538072,-0.0274435,-0.0224289,0.00204353,475,590,-0.00518853,-0.0979901,132.688,142.938,132.659,142.979,5.37118e-05,4.86681e-05,0.000184858
-2.17344,4.83479,-295.481,0.000435211,0.00245071,0.00167793,-0.000302781,-1.56789e-05,-9.63269e-05,1.36451e-05,-0.000332105,-1.27529,0.000339133,-0.155025,1.62377,-2.61218,-0.0018086,-0.0317852,-0.0278961,0.00208197,482,590,-0.0042419,-0.0978174,134.381,143.618,134.354,143.657,5.47462e-05,4.92899e-05,0.000188275
-1.87957,4.82378,-295.422,0.000380117,0.00243883,0.00140928,-0.000295271,-1.27002e-05,-7.73469e-05,7.08616e-06,-0.000315057,-1.32035,0.00031866,-0.161458,1.59735,-2.54401,-0.0114445,-0.0349514,-0.0340343,0.00208236,489,590,-0.00366348,-0.0985355,135.994,144.298,135.971,144.336,5.50955e-05,4.96939e-05,0.00018922
-1.58688,4.81287,-295.367,0.000315597,0.00247278,0.0011644,-0.000284693,-1.03662e-05,-5.72815e-05,1.11417e-06,-0.000296174,-1.373,0.000296732,-0.170797,1.54429,-2.44739,-0.0220631,-0.0371353,-0.0400574,0.00202464,496,590,-0.00356855,-0.101542,137.546,144.968,137.527,145.004,5.4087e-05,4.98892e-05,0.00018543
-1.29321,4.80225,-295.307,0.000257717,0.00249096,0.000938133,-0.000270694,-8.2547e-06,-3.75643e-05,-2.98377e-06,-0.000275965,-1.43139,0.000274485,-0.155682,1.5343,-2.42065,-0.0347299,-0.0377571,-0.045667,0.00204523,503,590,-0.00342325,-0.103341,139.161,145.628,139.145,145.664,5.37431e-05,5.15237e-05,0.000183972
-0.998378,4.79137,-295.242,0.000163568,0.00241351,0.000767998,-0.000252392,-5.61421e-06,-1.75208e-05,-4.37647e-06,-0.00025363,-1.50027,0.00025147,-0.14022,1.56161,-2.38782,-0.0512371,-0.0370333,-0.0512939,0.00213953,510,590,-0.00448718,-0.101655,140.847,146.31,140.835,146.344,5.51423e-05,5.39081e-05,0.000188397
-0.702526,4.78073,-295.173,7.86542e-05,0.00232531,0.000579053,-0.000229789,-1.77569e-06,3.3954e-06,-1.72515e-06,-0.000229839,1.55591,0.000228982,-0.099016,1.5152,-2.43371,-0.0698205,-0.0350352,-0.0573617,0.00221703,517,590,-0.00517794,-0.0994405,142.598,146.986,142.591,147.017,5.69636e-05,5.5734e-05,0.00019419
-0.406753,4.77013,-295.103,1.42367e-05,0.00224968,0.000495103,-0.000203223,4.69064e-06,2.44231e-05,7.52103e-06,-0.000206053,1.45542,0.000209915,-0.11129,1.426,-2.47549,-0.0886824,-0.031892,-0.0640058,0.00227471,524,590,-0.00611155,-0.0969137,144.354,147.66,144.349,147.69,5.94473e-05,5.69157e-05,0.000202164
-0.112168,4.75924,-295.037,1.9788e-05,0.00225563,0.000256315,-0.000174173,1.30223e-05,4.52753e-05,2.33975e-05,-0.000184548,1.34553,0.000197291,-0.154927,1.38903,-2.64329,-0.110394,-0.0274384,-0.0690179,0.00230999,531,590,-0.00426781,-0.0961031,146.05,148.342,146.046,148.374,6.06419e-05,5.74477e-05,0.000206106
0.181051,4.74861,-294.974,6.80895e-05,0.0022898,0.000109341,-0.000143609,2.36531e-05,6.61096e-05,4.66271e-05,-0.000166583,1.23634,0.000194142,-0.238398,1.41347,-2.78071,-0.131372,-0.0212251,-0.0737488,0.00234208,538,590,-0.0020252,-0.0957238,147.676,149.005,147.672,149.039,6.2646e-05,5.83181e-05,0.000212795
0.473535,4.7378,-294.914,8.50427e-05,0.00234152,-1.5712e-05,-0.000112268,3.59578e-05,8.71765e-05,7.62673e-05,-0.000152577,1.13769,0.000201824,-0.312021,1.47709,-2.88734,-0.150235,-0.0132591,-0.0791449,0.00242873,545,590,-0.000740896,-0.0944571,149.265,149.673,149.262,149.711,6.5307e-05,5.95987e-05,0.000222206
0.765828,4.72696,-294.853,6.19624e-05,0.00232372,-0.000195713,-7.92479e-05,4.95996e-05,0.0001095,0.000112222,-0.00014187,1.0513,0.000220548,-0.325503,1.50917,-3.03829,-0.1655,-0.00363676,-0.0862884,0.00252003,552,590,-2.6094e-05,-0.0925757,150.848,150.347,150.848,150.386,6.78747e-05,6.16624e-05,0.000230688
1.05859,4.71605,-294.789,3.95001e-07,0.00231148,-0.00012288,-4.44139e-05,6.39502e-05,0.00013256,0.000152974,-0.000133437,0.979406,0.000248231,-0.373346,1.45605,-3.15123,-0.174879,0.00724561,-0.0945242,0.00262408,559,590,-0.00208762,-0.0919635,152.467,151.029,152.467,151.068,7.10973e-05,6.50168e-05,0.000241089
1.35176,4.7053,-294.724,-5.00831e-05,0.00239789,7.45137e-05,-9.05151e-06,7.81539e-05,0.000153161,0.000193797,-0.000124695,0.924073,0.000277978,-0.404557,1.3833,-3.35805,-0.176823,0.0182157,-0.103011,0.0027288,566,590,-0.00484003,-0.0931277,154.118,151.703,154.118,151.745,7.32082e-05,6.76798e-05,0.000247912
1.64538,4.69446,-294.655,-8.21153e-05,0.00249347,0.000353796,3.01793e-05,9.10332e-05,0.000169045,0.000232368,-0.000111156,0.874441,0.000303611,-0.427702,1.29809,-3.46839,-0.171646,0.0284157,-0.114743,0.00276589,573,590,-0.00770031,-0.0946035,155.806,152.385,155.804,152.43,7.41359e-05,6.83813e-05,0.000250521
0,0,0,0,0,0,0,0,0,0,0,0,0,0,0,0,0,0,0,-1,580,590,0,0,0,0,0,0,0,0,0
0,0,0,0,0,0,0,0,0,0,0,0,0,0,0,0,0,0,0,-1,587,590,0,0,0,0,0,0,0,0,0
0,0,0,0,0,0,0,0,0,0,0,0,0,0,0,0,0,0,0,-1,594,590,0,0,0,0,0,0,0,0,0
0,0,0,0,0,0,0,0,0,0,0,0,0,0,0,0,0,0,0,-1,601,590,0,0,0,0,0,0,0,0,0
0,0,0,0,0,0,0,0,0,0,0,0,0,0,0,0,0,0,0,-1,62,597,0,0,0,0,0,0,0,0,0
0,0,0,0,0,0,0,0,0,0,0,0,0,0,0,0,0,0,0,-1,69,597,0,0,0,0,0,0,0,0,0
0,0,0,0,0,0,0,0,0,0,0,0,0,0,0,0,0,0,0,-1,76,597,0,0,0,0,0,0,0,0,0
-19.0733,5.19596,-298.143,0.000365332,0.00268427,-0.000373792,-0.000368359,1.13154e-05,7.64797e-05,2.61421e-05,-0.000383186,1.37931,0.000396903,-0.300206,1.40427,-3.68701,0.0144093,0.0283558,-0.0152371,0.0021239,83,597,0.00907197,-0.072663,39.7199,106.627,39.7088,106.702,5.38313e-05,5.16507e-05,0.000191299
-18.7972,5.18366,-298.172,0.000276141,0.00275353,-0.000288798,-0.000291941,-9.69676e-06,5.85463e-05,1.96567e-06,-0.000303603,1.37417,0.000304591,-0.288679,1.40193,-3.54959,-0.0173621,0.0189747,-0.0104797,0.0020769,90,597,0.00610623,-0.0747448,40.3668,107.259,40.3576,107.336,5.40665e-05,5.01253e-05,0.00019203
-18.5164,5.17281,-298.187,0.000211923,0.00281939,-7.44165e-05,-0.000211881,-2.29434e-05,4.62474e-05,-1.22306e-05,-0.000222594,1.34317,0.000216738,-0.261114,1.38313,-3.52008,-0.0355721,0.0140161,-0.00349561,0.00202104,97,597,0.00270245,-0.0761361,41.2352,107.832,41.2264,107.911,5.31005e-05,5.04398e-05,0.000188013
-18.2272,5.16164,-298.177,0.000164039,0.00291078,0.000231104,-0.000136069,-3.04185e-05,3.77032e-05,-1.83435e-05,-0.000148144,1.26085,0.000139877,-0.267209,1.35693,-3.56136,-0.0435193,0.0117968,0.00457819,0.00203163,104,597,-0.00105152,-0.076758,42.5117,108.45,42.5019,108.532,5.06806e-05,5.20613e-05,0.000179405
-17.9396,5.15007,-298.171,0.000138551,0.00296323,0.00053264,-7.20953e-05,-3.39294e-05,3.13161e-05,-1.63401e-05,-8.96846e-05,1.05904,8.27338e-05,-0.308448,1.35046,-3.62757,-0.0438336,0.0110559,0.0114255,0.00211707,111,597,-0.00419092,-0.078039,43.7039,109.085,43.6927,109.169,5.03698e-05,5.43516e-05,0.000177943
-17.6499,5.13822,-298.159,0.000144857,0.00299682,0.000726391,-2.04228e-05,-3.46865e-05,2.63374e-05,-2.68694e-07,-5.48406e-05,0.653175,5.47068e-05,-0.353016,1.34368,-3.6973,-0.0370739,0.0109207,0.0162045,0.00216662,118,597,-0.0056515,-0.0797011,44.9968,109.745,44.9841,109.829,5.10405e-05,5.55628e-05,0.000179053
-17.3557,5.12704,-298.132,0.000141739,0.00299513,0.000923609,2.22486e-05,-3.34965e-05,2.21979e-05,3.00078e-05,-4.12558e-05,0.336273,6.19718e-05,-0.388473,1.31966,-3.80692,-0.0228551,0.0112279,0.0189686,0.00217694,125,597,-0.00733266,-0.0810666,46.5059,110.388,46.4921,110.47,5.11104e-05,5.58356e-05,0.000179545
-17.0585,5.11569,-298.096,0.000196803,0.0030101,0.00121568,5.74792e-05,-3.07231e-05,1.86149e-05,6.12469e-05,-3.44907e-05,0.199704,8.39836e-05,-0.41141,1.34317,-3.87018,-0.00353049,0.0121134,0.0195823,0.0021467,132,597,-0.00836819,-0.0828465,48.1637,111.051,48.1464,111.132,5.08557e-05,5.45497e-05,0.000178391
-16.7585,5.10441,-298.052,0.000203669,0.00305143,0.00152503,8.57148e-05,-2.8177e-05,1.42025e-05,8.74591e-05,-2.99214e-05,0.122209,0.000105647,-0.375145,1.36064,-3.93647,0.0138374,0.0133706,0.0182068,0.00205535,139,597,-0.0107319,-0.0844233,49.9561,111.719,49.9365,111.801,4.92083e-05,5.16829e-05,0.000172542
-16.4595,5.09392,-298.009,0.000211771,0.00310719,0.00202157,0.000104617,-2.42432e-05,1.07123e-05,0.000105502,-2.51277e-05,0.0823776,0.000120054,-0.346995,1.42586,-3.9545,0.0271954,0.0152425,0.0143816,0.00198335,146,597,-0.0145707,-0.085457,51.7037,112.343,51.6803,112.426,4.81179e-05,4.99071e-05,0.000168494
-16.1636,5.08336,-297.976,0.000225383,0.00315095,0.0024185,0.000118013,-2.00501e-05,9.08171e-06,0.000118608,-2.06449e-05,0.0654039,0.000130164,-0.322278,1.46302,-3.9542,0.0357167,0.0173636,0.00866174,0.00196931,153,597,-0.0174323,-0.08555,53.2999,112.959,53.2732,113.044,4.71154e-05,4.99528e-05,0.000164609
-15.8702,5.07242,-297.95,0.000211335,0.00318645,0.00269111,0.000125929,-1.49369e-05,9.26531e-06,0.000126536,-1.55437e-05,0.0653983,0.000134981,-0.320117,1.45537,-3.97511,0.0405674,0.0198209,0.00177442,0.00198473,160,597,-0.0199387,-0.0845455,54.7664,113.586,54.738,113.673,4.68334e-05,5.05974e-05,0.00016364
-15.5772,5.06108,-297.924,0.000185906,0.00320847,0.00283101,0.000129187,-9.13422e-06,1.10029e-05,0.000130057,-1.0004e-05,0.0788854,0.000135336,-0.317263,1.43962,-3.94635,0.0414579,0.0223593,-0.00566831,0.00203465,167,597,-0.0216407,-0.0836223,56.2124,114.233,56.1836,114.322,4.80792e-05,5.19371e-05,0.000167948
-15.2823,5.04976,-297.892,0.000174752,0.00320829,0.00305774,0.000128594,-2.54693e-06,1.48185e-05,0.000130248,-4.20052e-06,0.11113,0.000132398,-0.248626,1.45331,-3.88152,0.0369765,0.0247978,-0.0125601,0.00204344,174,597,-0.0236779,-0.0838336,57.7543,114.889,57.7242,114.978,5.05743e-05,5.20328e-05,0.000176375
-14.9854,5.03856,-297.854,0.000214325,0.00318937,0.00327136,0.000125827,4.06293e-06,2.05538e-05,0.000129203,6.8704e-07,0.162793,0.000128861,-0.160153,1.48686,-3.67194,0.0259869,0.0270059,-0.0184609,0.00204513,181,597,-0.0243519,-0.0850378,59.3915,115.549,59.3588,115.635,5.19459e-05,5.21445e-05,0.00018136
-14.6879,5.02738,-297.813,0.000275732,0.00318864,0.00352091,0.000124691,1.02301e-05,2.76376e-05,0.000131015,3.90608e-06,0.224945,0.000129106,-0.101473,1.52844,-3.42715,0.0077888,0.028692,-0.0223701,0.00198527,188,597,-0.0247914,-0.0871728,61.0641,116.211,61.028,116.295,5.13926e-05,5.07836e-05,0.000179646
-14.3911,5.01556,-297.773,0.000311778,0.00319048,0.0037786,0.000127518,1.63094e-05,3.61579e-05,0.000138241,5.58709e-06,0.288282,0.000135534,-0.135044,1.52802,-3.29174,-0.0144778,0.0295889,-0.0235376,0.00194124,195,597,-0.025888,-0.0873036,62.6999,116.902,62.6608,116.986,4.91257e-05,4.97454e-05,0.000172641
-14.096,5.00365,-297.739,0.000318928,0.00322917,0.00409438,0.000134543,2.26922e-05,4.55183e-05,0.000150725,6.5096e-06,0.341583,0.000147578,-0.235178,1.49051,-3.12875,-0.0358071,0.029246,-0.0217417,0.00194936,202,597,-0.0281609,-0.0861859,64.2468,117.589,64.205,117.676,4.8572e-05,4.98052e-05,0.000171158
-13.8024,4.9919,-297.709,0.000303699,0.00330122,0.00446111,0.000148305,2.88091e-05,5.46702e-05,0.000169542,7.57158e-06,0.370524,0.000165886,-0.324015,1.46675,-3.06217,-0.0539544,0.0276127,-0.0170049,0.00196461,209,597,-0.031402,-0.0850351,65.7208,118.261,65.6766,118.352,4.91637e-05,5.00825e-05,0.000172866
-13.5082,4.98082,-297.676,0.000254613,0.00338302,0.0047973,0.00016632,3.42074e-05,6.27499e-05,0.000191374,9.15401e-06,0.379866,0.000186965,-0.373839,1.44453,-3.00167,-0.0669095,0.0250634,-0.0107067,0.00197991,216,597,-0.0352494,-0.0854595,67.2281,118.903,67.1825,118.997,5.05059e-05,5.05627e-05,0.00017742
-13.2115,4.97052,-297.635,0.000230309,0.00344306,0.00501713,0.00018286,3.77663e-05,6.91859e-05,0.000210561,1.00648e-05,0.380845,0.000205714,-0.383926,1.44296,-3.04743,-0.0751919,0.0218273,-0.00447559,0.00199187,223,597,-0.0375531,-0.0868473,68.8575,119.515,68.8109,119.611,5.12123e-05,5.1229e-05,0.000178716
-12.9121,4.96019,-297.585,0.000241157,0.00349628,0.00513033,0.000195858,3.92578e-05,7.27832e-05,0.000224461,1.06547e-05,0.37445,0.000219328,-0.396575,1.46431,-3.00322,-0.0798113,0.017491,0.00148176,0.00198939,230,597,-0.0381603,-0.0899942,70.6313,120.143,70.5834,120.239,5.0722e-05,5.12864e-05,0.000176494
-12.6115,4.94941,-297.53,0.000324256,0.00356927,0.00525833,0.000208169,3.78113e-05,7.20394e-05,0.000234548,1.14325e-05,0.351009,0.000229046,-0.414443,1.48148,-2.96758,-0.080198,0.0123772,0.0069784,0.00196174,237,597,-0.0371199,-0.0938473,72.4652,120.799,72.414,120.895,4.96364e-05,5.0584e-05,0.000172633
-12.3118,4.93854,-297.478,0.000444369,0.00363131,0.00530112,0.000223904,3.34842e-05,6.67413e-05,0.000244967,1.24215e-05,0.305696,0.000238998,-0.448887,1.48652,-2.98626,-0.0751922,0.00702064,0.0113708,0.00195458,244,597,-0.0344542,-0.0951616,74.2551,121.455,74.2,121.553,4.98281e-05,5.00397e-05,0.000173597
-12.0142,4.92686,-297.432,0.000521658,0.00369047,0.00534003,0.000240372,2.66032e-05,5.67737e-05,0.000254515,1.24606e-05,0.244135,0.000248519,-0.485598,1.50048,-3.06611,-0.0658317,0.00176223,0.0147654,0.00198992,251,597,-0.0327946,-0.0952013,75.9364,122.146,75.8785,122.247,5.15626e-05,5.13166e-05,0.000179486
-11.7182,4.91494,-297.39,0.00058423,0.00371056,0.00530444,0.000251921,1.7889e-05,4.19319e-05,0.000259207,1.06028e-05,0.172044,0.000254072,-0.504647,1.51146,-3.10656,-0.0555343,-0.00298767,0.0164376,0.00204726,258,597,-0.0308694,-0.093935,77.5384,122.844,77.4787,122.947,5.28526e-05,5.25669e-05,0.00018328
-11.4222,4.90329,-297.347,0.000686305,0.00369179,0.0054366,0.000257526,8.00672e-06,2.26694e-05,0.000259569,5.96388e-06,0.0898718,0.000256639,-0.510886,1.50367,-3.174,-0.0460506,-0.00704816,0.016493,0.00205121,265,597,-0.0292415,-0.09302,79.1447,123.532,79.081,123.634,5.2827e-05,5.20441e-05,0.000182981
-11.1245,4.89166,-297.298,0.000753828,0.00366005,0.00545045,0.000258079,-2.31592e-06,9.48317e-07,0.000258082,-2.31936e-06,0.00364178,0.00025925,-0.505014,1.50029,-3.15914,-0.0366037,-0.0103858,0.0156415,0.00198045,272,597,-0.0275401,-0.0925358,80.8363,124.227,80.7706,124.328,5.16348e-05,5.0754e-05,0.000178957
-10.8239,4.88057,-297.24,0.000804682,0.00364924,0.00533089,0.000252876,-1.28733e-05,-2.1714e-05,0.000254639,-1.46358e-05,-0.0809926,0.000262263,-0.502149,1.46901,-3.14535,-0.0263858,-0.0132222,0.0144487,0.00194105,279,597,-0.0252451,-0.0928542,82.6838,124.906,82.6174,125.007,5.14852e-05,4.90904e-05,0.000178174
-10.522,4.87012,-297.177,0.000826979,0.00359527,0.00517056,0.000241206,-2.31609e-05,-4.47217e-05,0.000248567,-3.05214e-05,-0.163121,0.000265148,-0.505391,1.4549,-3.16509,-0.0154734,-0.0156458,0.0132922,0.00198354,286,597,-0.0233081,-0.0928364,84.5998,125.559,84.534,125.658,5.19342e-05,4.99298e-05,0.000179272
-10.2201,4.85959,-297.113,0.000913012,0.00352591,0.00526129,0.000223694,-3.29901e-05,-6.80416e-05,0.000240615,-4.9911e-05,-0.243741,0.000269065,-0.514468,1.43842,-3.14403,-0.00435521,-0.0175751,0.0121074,0.00197121,293,597,-0.0217191,-0.0932959,86.5204,126.22,86.4516,126.314,5.22384e-05,5.03823e-05,0.000179703
-9.91842,4.8489,-297.049,0.0010446,0.00348835,0.0055925,0.000201331,-4.21026e-05,-9.13212e-05,0.00023178,-7.25521e-05,-0.321839,0.000275322,-0.526928,1.44212,-3.14042,0.00590594,-0.0183221,0.0107075,0.00197697,300,597,-0.0208731,-0.0945251,88.4377,126.889,88.3628,126.979,5.22955e-05,5.00298e-05,0.000179341
-9.61709,4.83799,-296.985,0.00114407,0.00347271,0.00572934,0.000173967,-4.97526e-05,-0.000113204,0.000221254,-9.70396e-05,-0.395685,0.00028256,-0.5562,1.47588,-3.2117,0.0161022,-0.0178851,0.0101769,0.0019902,307,597,-0.0193357,-0.0954901,90.3379,127.567,90.2592,127.655,5.23341e-05,5.00408e-05,0.000179318
-9.31538,4.82693,-296.919,0.00120521,0.00346994,0.00570327,0.000141373,-5.62485e-05,-0.000133018,0.000208264,-0.00012314,-0.465947,0.000290144,-0.568186,1.53068,-3.23329,0.02786,-0.0167205,0.0108034,0.00201539,314,597,-0.0174987,-0.0955405,92.2599,128.254,92.1795,128.342,5.30963e-05,5.07128e-05,0.000182008
-9.01395,4.81601,-296.854,0.00125292,0.00344416,0.00564919,0.000106523,-6.26053e-05,-0.000151448,0.000195416,-0.000151499,-0.530774,0.000301239,-0.550268,1.59446,-3.21554,0.0405354,-0.0152317,0.0122503,0.0020328,321,597,-0.0157534,-0.0947856,94.1715,128.934,94.09,129.022,5.35309e-05,5.14987e-05,0.000184183
-8.71352,4.80516,-296.791,0.00128918,0.00343187,0.00565968,7.07145e-05,-6.94752e-05,-0.000168915,0.000183501,-0.000182262,-0.588726,0.000316761,-0.515488,1.63341,-3.1326,0.0531655,-0.0132249,0.0135849,0.0020255,328,597,-0.0148011,-0.0945935,96.0345,129.607,95.9519,129.694,5.40544e-05,5.07649e-05,0.000186327
-8.41498,4.79436,-296.733,0.00129447,0.00342325,0.00560402,3.31729e-05,-7.73963e-05,-0.000184677,0.000170663,-0.000214886,-0.639964,0.000334627,-0.485574,1.63032,-2.97697,0.0661989,-0.00999721,0.0137453,0.00203012,335,597,-0.0141224,-0.0946826,97.8007,130.271,97.7182,130.358,5.40691e-05,4.88597e-05,0.000186702
-8.11684,4.78342,-296.676,0.0012667,0.00334751,0.00545385,-6.51225e-06,-8.6815e-05,-0.000197502,0.000154878,-0.000248205,-0.685117,0.000352186,-0.452025,1.607,-2.92776,0.0800979,-0.00603902,0.013637,0.00206824,342,597,-0.0134995,-0.0947907,99.5472,130.945,99.4667,131.028,5.48853e-05,4.82416e-05,0.000189034
-7.81752,4.77263,-296.614,0.0012143,0.00321747,0.00511784,-4.85312e-05,-9.9158e-05,-0.000207159,0.000134856,-0.000282545,-0.724603,0.000368945,-0.426468,1.54065,-3.04956,0.0934824,-0.00185964,0.0145973,0.00206522,349,597,-0.0120557,-0.0954454,101.358,131.621,101.282,131.697,5.43715e-05,4.81523e-05,0.000186671
-7.51714,4.76145,-296.548,0.00117672,0.00309664,0.00477874,-9.14852e-05,-0.00011246,-0.000213455,0.00011174,-0.000315684,-0.760852,0.000383949,-0.396631,1.51027,-3.27849,0.104438,0.00342254,0.0161431,0.00202848,356,597,-0.0102345,-0.0955941,103.23,132.322,103.158,132.392,5.26182e-05,4.81842e-05,0.000180498
-7.21281,4.75066,-296.469,0.00118619,0.00310939,0.00469378,-0.000132462,-0.00012633,-0.000215735,8.63607e-05,-0.000345152,-0.792504,0.000395469,-0.369254,1.51194,-3.36045,0.111124,0.00864935,0.0175337,0.00198023,363,597,-0.00927334,-0.0959677,105.323,133.013,105.251,133.084,5.04626e-05,4.96056e-05,0.000173212
-6.90438,4.74045,-296.374,0.00121924,0.00312833,0.00468596,-0.000171523,-0.00013967,-0.000214922,5.99149e-05,-0.000371108,-0.822382,0.000404408,-0.343585,1.54067,-3.29661,0.114184,0.0139215,0.0176591,0.00197592,370,597,-0.00830992,-0.0964003,107.643,133.693,107.57,133.765,4.95024e-05,5.08816e-05,0.000170372
-6.59124,4.73034,-296.263,0.001255,0.00310775,0.00480832,-0.000207398,-0.000151475,-0.000211492,3.38958e-05,-0.000392769,-0.851122,0.000410767,-0.332828,1.58149,-3.16111,0.114145,0.0187461,0.0168597,0.00201975,377,597,-0.00820891,-0.0959082,110.227,134.392,110.152,134.462,5.08667e-05,5.19784e-05,0.000175347
-6.27534,4.71999,-296.142,0.00122962,0.00299161,0.00461635,-0.000237227,-0.000160538,-0.000206057,1.07122e-05,-0.000408477,-0.877389,0.000413937,-0.299627,1.55414,-3.06696,0.111398,0.0223703,0.0160525,0.00205339,384,597,-0.00720001,-0.094685,112.964,135.12,112.891,135.186,5.22718e-05,5.17678e-05,0.000180284
-5.96231,4.70938,-296.029,0.00120608,0.0028684,0.00445787,-0.000261571,-0.000165725,-0.000199556,-8.41857e-06,-0.000418877,-0.903241,0.000414732,-0.249016,1.53018,-3.06274,0.105719,0.0246048,0.0156338,0.00202445,391,597,-0.00639459,-0.0934059,115.557,135.852,115.486,135.913,5.21319e-05,5.11025e-05,0.000179999
-5.65775,4.69802,-295.944,0.00121126,0.0028437,0.00410953,-0.000282276,-0.000165826,-0.000192689,-2.27578e-05,-0.000425344,-0.932121,0.000414434,-0.183886,1.54138,-2.96954,0.0980315,0.0251872,0.0151166,0.00205658,398,597,-0.00357315,-0.0945617,117.697,136.585,117.629,136.644,5.32859e-05,5.24042e-05,0.000183929
-5.36501,4.68659,-295.897,0.00117673,0.00288233,0.0040184,-0.000299169,-0.000161445,-0.000186167,-3.18121e-05,-0.000428802,-0.962542,0.000413814,-0.16469,1.61148,-2.84456,0.0887565,0.0240502,0.0142487,0.00216013,405,597,-0.00373141,-0.0970274,119.201,137.269,119.135,137.328,5.62046e-05,5.37588e-05,0.000193767
-5.08021,4.67572,-295.877,0.001059,0.0029386,0.00396256,-0.000310618,-0.000152493,-0.000181186,-3.38706e-05,-0.000429241,-0.991124,0.000413347,-0.176741,1.66443,-2.6643,0.0770181,0.0216677,0.0124798,0.0022509,412,597,-0.00626174,-0.100076,120.274,137.891,120.212,137.95,5.83042e-05,5.42658e-05,0.000200661
-4.79977,4.66472,-295.871,0.000914079,0.00296299,0.0037996,-0.000318624,-0.000139705,-0.0001775,-3.03955e-05,-0.000427933,-1.01882,0.000413574,-0.185884,1.66346,-2.5202,0.0635114,0.0182039,0.0105196,0.00225066,419,597,-0.00865704,-0.102584,121.108,138.501,121.05,138.559,5.83127e-05,5.31232e-05,0.000200552
-4.51982,4.65342,-295.867,0.000746928,0.00291133,0.00370595,-0.000325823,-0.000123595,-0.000174384,-2.31309e-05,-0.000426288,-1.04813,0.000415206,-0.202241,1.61267,-2.47892,0.0499975,0.0137478,0.00835175,0.00217421,426,597,-0.0120382,-0.102523,121.913,139.127,121.861,139.183,5.64419e-05,5.07908e-05,0.000194073
-4.23612,4.64258,-295.849,0.000672818,0.00284472,0.00352808,-0.000330065,-0.000105425,-0.000171011,-1.31469e-05,-0.000422343,-1.07597,0.000415925,-0.18754,1.56993,-2.58027,0.0382477,0.00840488,0.00589526,0.00208195,433,597,-0.0124596,-0.10235,122.928,139.747,122.88,139.8,5.38481e-05,4.90041e-05,0.000185056
-3.94882,4.63185,-295.818,0.000654394,0.00275113,0.0033051,-0.000330823,-8.64273e-05,-0.000166155,-2.37332e-06,-0.000414877,-1.10246,0.000413696,-0.169321,1.5451,-2.69858,0.0288379,0.00249477,0.00273655,0.00201809,440,597,-0.0111279,-0.101206,124.145,140.379,124.099,140.428,5.25057e-05,4.81158e-05,0.000180448
-3.65882,4.62116,-295.777,0.000646803,0.00266474,0.00299031,-0.000330317,-6.78116e-05,-0.000159726,7.67132e-06,-0.0004058,-1.12933,0.000409689,-0.162829,1.54788,-2.84684,0.0219326,-0.00317542,-0.00111866,0.00200223,447,597,-0.0088728,-0.100435,125.513,141.021,125.47,141.067,5.25174e-05,4.83496e-05,0.00018054
-3.36727,4.61083,-295.731,0.000608077,0.00258848,0.00269564,-0.000330899,-4.98988e-05,-0.000152494,1.69528e-05,-0.00039775,-1.15764,0.000406492,-0.156748,1.55099,-2.85643,0.0178257,-0.00844671,-0.00502651,0.00197272,454,597,-0.00756668,-0.0995847,126.972,141.652,126.932,141.695,5.22923e-05,4.87694e-05,0.000179857
-3.07415,4.60035,-295.678,0.000561928,0.00253139,0.0023411,-0.000332047,-3.65621e-05,-0.000144273,2.2196e-05,-0.000390805,-1.18404,0.000402362,-0.143739,1.55246,-2.74197,0.016361,-0.0136762,-0.00851741,0.0019366,461,597,-0.0060362,-0.0983363,128.521,142.297,128.486,142.339,5.19323e-05,4.86191e-05,0.000178643
-2.77914,4.58986,-295.617,0.000571488,0.00249527,0.00207833,-0.000331732,-2.71252e-05,-0.000133982,2.34199e-05,-0.000382277,-1.21005,0.000394509,-0.149824,1.56886,-2.56496,0.0157275,-0.0183988,-0.0124468,0.00198147,468,597,-0.00380156,-0.0973374,130.183,142.953,130.15,142.993,5.22893e-05,4.85754e-05,0.000179951
-2.48329,4.57929,-295.553,0.00055378,0.0024497,0.00182777,-0.000329646,-2.11696e-05,-0.000120151,2.01063e-05,-0.000370921,-1.23989,0.000381372,-0.175573,1.5875,-2.40895,0.0132283,-0.0232588,-0.016976,0.00203616,475,597,-0.00234192,-0.0961896,131.897,143.618,131.866,143.657,5.31663e-05,4.87182e-05,0.000183021
-2.18746,4.56848,-295.489,0.000499587,0.00240821,0.00152207,-0.000325785,-1.75922e-05,-0.00010284,1.35728e-05,-0.00035695,-1.27655,0.000363926,-0.20835,1.59965,-2.3314,0.0072814,-0.0276239,-0.0224235,0.00204674,482,597,-0.00143358,-0.0964701,133.615,144.298,133.588,144.335,5.3404e-05,4.88436e-05,0.000183715
-1.89309,4.55743,-295.428,0.000425574,0.00241291,0.00126105,-0.00031911,-1.54044e-05,-8.34781e-05,6.02831e-06,-0.000340542,-1.31948,0.000343596,-0.225275,1.57224,-2.30424,-0.00142271,-0.0306129,-0.0287092,0.00202299,489,597,-0.0014113,-0.097978,135.256,144.984,135.233,145.021,5.33063e-05,4.9568e-05,0.00018301
-1.59993,4.54644,-295.371,0.000351932,0.00248501,0.00109839,-0.000308402,-1.39062e-05,-6.36945e-05,-7.20509e-07,-0.000321588,-1.36667,0.000321228,-0.243837,1.53554,-2.31326,-0.0119515,-0.0324435,-0.0350973,0.00202602,496,597,-0.00217456,-0.101456,136.835,145.661,136.816,145.698,5.32737e-05,5.11669e-05,0.000182415
-1.30605,4.5358,-295.31,0.00028983,0.00250184,0.00094124,-0.000293996,-1.27738e-05,-4.48069e-05,-5.80735e-06,-0.000300963,-1.41655,0.000298102,-0.22283,1.54213,-2.34071,-0.0256314,-0.0326164,-0.0414373,0.00213334,503,597,-0.00262386,-0.102753,138.462,146.325,138.445,146.362,5.43159e-05,5.36542e-05,0.000185596
-1.01171,4.52516,-295.248,0.000192989,0.00242553,0.000877841,-0.000275417,-1.11706e-05,-2.5963e-05,-8.64378e-06,-0.000277944,-1.47378,0.000273724,-0.192668,1.58868,-2.33915,-0.043975,-0.0318035,-0.0482788,0.00225641,510,597,-0.00451195,-0.100545,140.121,146.994,140.108,147.03,5.60793e-05,5.65192e-05,0.000191248
-0.717025,4.5146,-295.183,7.99903e-05,0.00232805,0.000675483,-0.000252498,-8.25639e-06,-6.44915e-06,-8.08621e-06,-0.000252668,-1.54442,0.000248723,-0.159013,1.57039,-2.42814,-0.0643793,-0.0301664,-0.0557657,0.00231652,517,597,-0.00580692,-0.0982736,141.805,147.663,141.797,147.696,5.77147e-05,5.78645e-05,0.000196377
-0.422192,4.50411,-295.116,-1.86648e-05,0.00224673,0.000517223,-0.000225415,-2.53626e-06,1.29677e-05,-1.7843e-06,-0.000226167,1.51287,0.00022528,-0.146377,1.48528,-2.44689,-0.0850911,-0.027568,-0.0640352,0.00234417,524,597,-0.00707682,-0.0960477,143.505,148.33,143.501,148.361,5.93396e-05,5.80755e-05,0.000201467
-0.128622,4.49333,-295.053,-3.262e-05,0.00225346,0.000212772,-0.000195345,4.49173e-06,3.21977e-05,9.55132e-06,-0.000200405,1.41493,0.000205347,-0.154257,1.44345,-2.58623,-0.108975,-0.0234719,-0.0710047,0.00233584,531,597,-0.00527349,-0.0961492,145.141,149.005,145.139,149.036,5.97298e-05,5.73877e-05,0.000202464
0.163924,4.48288,-294.993,7.41201e-06,0.0022849,3.0145e-05,-0.000163917,1.39574e-05,5.2267e-05,2.81786e-05,-0.000178138,1.30514,0.00019377,-0.198731,1.45112,-2.66031,-0.132194,-0.017647,-0.0779805,0.00231777,538,597,-0.00299522,-0.0963718,146.727,149.658,146.726,149.691,6.10612e-05,5.73014e-05,0.000206742
0.456099,4.47235,-294.934,4.20868e-05,0.00231365,-3.19007e-05,-0.000132232,2.54919e-05,7.36214e-05,5.45156e-05,-0.000161255,1.19527,0.000194335,-0.282729,1.51618,-2.77289,-0.153413,-0.010083,-0.0858838,0.00238584,545,597,-0.00168646,-0.0948469,148.299,150.314,148.298,150.35,6.38464e-05,5.87271e-05,0.000216555
0.747835,4.46176,-294.875,4.07233e-05,0.00228764,-0.000118801,-9.94861e-05,3.91739e-05,9.73389e-05,8.93491e-05,-0.000149661,1.09485,0.000209174,-0.329834,1.54145,-2.99021,-0.171079,-0.000787697,-0.0957478,0.00250365,552,597,-0.0010572,-0.0918661,149.851,150.973,149.85,151.011,6.71063e-05,6.17143e-05,0.000227722
1.03972,4.45087,-294.815,-4.66719e-05,0.0022872,-8.25821e-05,-6.55615e-05,5.49319e-05,0.000122975,0.000131625,-0.000142254,1.01317,0.000237246,-0.404926,1.45947,-3.18327,-0.182832,0.00986693,-0.106622,0.00266947,559,597,-0.0035203,-0.0906207,151.417,151.651,151.418,151.69,7.06678e-05,6.68079e-05,0.000239594
1.33201,4.44012,-294.752,-9.77347e-05,0.00236407,2.31414e-05,-3.28002e-05,7.24332e-05,0.00014737,0.000176298,-0.000136665,0.956863,0.000271758,-0.439947,1.34988,-3.38639,-0.186678,0.0208699,-0.11731,0.00275764,566,597,-0.0056428,-0.0921498,153.015,152.324,153.017,152.365,7.20375e-05,6.98587e-05,0.000244009
1.62471,4.42934,-294.688,-0.000132253,0.00242389,9.43687e-05,1.40074e-07,9.0671e-05,0.000167998,0.000219395,-0.000128584,0.916993,0.00030476,-0.434164,1.24446,-3.42531,-0.181554,0.0312231,-0.130509,0.00275822,573,597,-0.0070871,-0.0936392,154.644,153.002,154.646,153.045,7.25447e-05,6.98747e-05,0.000245301
0,0,0,0,0,0,0,0,0,0,0,0,0,0,0,0,0,0,0,-1,580,597,0,0,0,0,0,0,0,0,0
0,0,0,0,0,0,0,0,0,0,0,0,0,0,0,0,0,0,0,-1,587,597,0,0,0,0,0,0,0,0,0
0,0,0,0,0,0,0,0,0,0,0,0,0,0,0,0,0,0,0,-1,594,597,0,0,0,0,0,0,0,0,0
0,0,0,0,0,0,0,0,0,0,0,0,0,0,0,0,0,0,0,-1,601,597,0,0,0,0,0,0,0,0,0
0,0,0,0,0,0,0,0,0,0,0,0,0,0,0,0,0,0,0,-1,62,604,0,0,0,0,0,0,0,0,0
0,0,0,0,0,0,0,0,0,0,0,0,0,0,0,0,0,0,0,-1,69,604,0,0,0,0,0,0,0,0,0
0,0,0,0,0,0,0,0,0,0,0,0,0,0,0,0,0,0,0,-1,76,604,0,0,0,0,0,0,0,0,0
-19.0743,4.92424,-298.111,0.000368593,0.00268498,-0.000181826,-0.000392779,-2.5522e-06,7.09979e-05,9.96375e-06,-0.000405295,1.3963,0.000410367,-0.328932,1.39959,-3.75097,0.0227255,0.0314806,-0.0128427,0.00217303,83,604,0.00756685,-0.0731516,39.5692,107.57,39.5568,107.645,5.48247e-05,5.29591e-05,0.000194161
-18.7954,4.91212,-298.131,0.000282475,0.00277213,-0.000184297,-0.000311494,-2.22006e-05,5.09103e-05,-1.35028e-05,-0.000320192,1.40158,0.000313658,-0.317514,1.37842,-3.64189,-0.012181,0.0195664,-0.00752987,0.00211488,90,604,0.00538829,-0.075043,40.3509,108.2,40.3408,108.278,5.46124e-05,5.07553e-05,0.000193601
-18.5066,4.90109,-298.122,0.000212006,0.00284685,-3.96313e-05,-0.000227164,-3.47345e-05,3.66378e-05,-2.79948e-05,-0.000233904,1.38888,0.000221239,-0.272411,1.34808,-3.65605,-0.032101,0.0125981,-0.000422879,0.00204551,97,604,0.00239902,-0.076424,41.6119,108.81,41.6027,108.89,5.32744e-05,5.02098e-05,0.000188621
-18.2172,4.89,-298.111,0.000154223,0.00291178,0.000257588,-0.000147826,-4.22683e-05,2.6581e-05,-3.59527e-05,-0.000154141,1.33752,0.000139679,-0.269062,1.32463,-3.72396,-0.0405387,0.00895283,0.00771138,0.00205275,104,604,-0.0015096,-0.0771001,42.8992,109.425,42.8895,109.508,5.22586e-05,5.22075e-05,0.000184725
-17.9292,4.87864,-298.104,0.000133878,0.00294233,0.000576768,-8.1307e-05,-4.63565e-05,1.91099e-05,-3.79363e-05,-8.97271e-05,1.15577,7.80141e-05,-0.287587,1.32049,-3.78916,-0.0407339,0.00733809,0.0145805,0.00214649,111,604,-0.00464723,-0.0781124,44.1131,110.052,44.1019,110.135,5.26994e-05,5.5075e-05,0.000185259
-17.6388,4.86685,-298.089,0.00013975,0.00296907,0.000813697,-2.83592e-05,-4.80502e-05,1.32459e-05,-2.17005e-05,-5.47089e-05,0.465803,4.77155e-05,-0.330252,1.31319,-3.81082,-0.033752,0.0067416,0.0191288,0.00216042,118,604,-0.00646423,-0.0797523,45.4446,110.711,45.4316,110.793,5.26674e-05,5.53586e-05,0.000183603
-17.3458,4.85555,-298.066,0.000143206,0.00297284,0.00108091,1.45748e-05,-4.79917e-05,8.31062e-06,1.56598e-05,-4.90768e-05,0.12983,5.85004e-05,-0.361946,1.2939,-3.89209,-0.0192187,0.00700808,0.0213409,0.00215431,125,604,-0.00854998,-0.0805473,46.8966,111.355,46.8817,111.437,5.17441e-05,5.5151e-05,0.000180853
-17.0494,4.84412,-298.033,0.000219282,0.00298541,0.00142836,4.97833e-05,-4.64706e-05,4.02073e-06,4.9951e-05,-4.66382e-05,0.0416753,8.36651e-05,-0.397408,1.32607,-3.89082,0.000558164,0.00823797,0.0211413,0.00209523,132,604,-0.0095073,-0.0816595,48.5232,112.02,48.5038,112.101,5.05815e-05,5.26725e-05,0.000176929
-16.7497,4.83312,-297.988,0.000217489,0.00302046,0.00173762,7.78622e-05,-4.48718e-05,-1.02873e-06,7.78709e-05,-4.48804e-05,-0.00838103,0.000107578,-0.38055,1.36849,-3.92115,0.0184213,0.0100266,0.0190864,0.00198531,139,604,-0.0120681,-0.0827324,50.3055,112.674,50.284,112.755,4.90002e-05,4.8969e-05,0.000171481
-16.4517,4.82275,-297.949,0.000201144,0.00306936,0.00211729,9.602e-05,-4.19103e-05,-4.8875e-06,9.61929e-05,-4.20833e-05,-0.0353754,0.000122769,-0.363234,1.43421,-3.90486,0.0320533,0.0128522,0.0146847,0.00194573,146,604,-0.0155513,-0.0835275,52.0053,113.288,51.9815,113.371,4.91631e-05,4.76586e-05,0.000171739
-16.1572,4.81213,-297.92,0.00017439,0.0031129,0.00240438,0.000109204,-3.87263e-05,-6.76079e-06,0.000109512,-3.90346e-05,-0.0455759,0.000133385,-0.352733,1.4546,-3.86307,0.0402987,0.0159885,0.00832008,0.00195254,153,604,-0.0185175,-0.0836474,53.5314,113.903,53.5062,113.987,4.93301e-05,4.81877e-05,0.000172245
-15.8648,4.80106,-297.896,0.000138183,0.00314971,0.00262847,0.000117305,-3.40446e-05,-6.85407e-06,0.000117615,-3.43543e-05,-0.0451632,0.000138036,-0.351327,1.44757,-3.83642,0.0443137,0.0195338,0.000637209,0.0019659,160,604,-0.0211895,-0.0834121,54.9513,114.533,54.9254,114.619,4.92581e-05,4.90289e-05,0.000172257
-15.5724,4.78953,-297.872,9.97939e-05,0.00316543,0.00275725,0.000121569,-2.78847e-05,-5.35677e-06,0.000121761,-2.80765e-05,-0.0357811,0.000137959,-0.33343,1.43062,-3.78271,0.0439543,0.0230715,-0.00751263,0.00200778,167,604,-0.0231276,-0.0833185,56.3669,115.189,56.3412,115.276,4.94743e-05,5.02983e-05,0.00017307
-15.2771,4.7785,-297.839,9.8641e-05,0.00317366,0.00300518,0.000122131,-1.98942e-05,-1.23447e-06,0.000122142,-1.99049e-05,-0.00869103,0.000133215,-0.252695,1.44819,-3.74556,0.0380081,0.0265687,-0.014933,0.00202806,174,604,-0.0251115,-0.0847181,57.9286,115.833,57.9012,115.919,5.04189e-05,5.06194e-05,0.000176013
-14.9797,4.76757,-297.799,0.00015079,0.0031709,0.00319114,0.000119862,-1.09826e-05,5.46576e-06,0.00012009,-1.12106e-05,0.0416762,0.000126069,-0.174119,1.47639,-3.60567,0.0255817,0.0299937,-0.0212533,0.00202163,181,604,-0.0252734,-0.0862262,59.598,116.481,59.5678,116.565,5.04623e-05,5.06612e-05,0.000176046
-14.6813,4.75655,-297.755,0.000242085,0.00319203,0.00345189,0.000118847,-1.78204e-06,1.39503e-05,0.000120439,-3.37434e-06,0.113649,0.000122161,-0.12081,1.49659,-3.43065,0.00595277,0.0329717,-0.0253295,0.00196682,188,604,-0.0250858,-0.0883346,61.3192,117.138,61.2846,117.221,4.87256e-05,4.98867e-05,0.000170415
-14.3836,4.74511,-297.713,0.000289132,0.00322169,0.00368387,0.0001224,7.83188e-06,2.4243e-05,0.000127319,2.91316e-06,0.200176,0.000125887,-0.16095,1.51942,-3.33357,-0.0176821,0.0350554,-0.0263728,0.00194557,195,604,-0.0257279,-0.08812,63.0028,117.812,62.965,117.897,4.62703e-05,4.98436e-05,0.00016286
-14.0893,4.73321,-297.681,0.000297355,0.00324124,0.0039235,0.000130769,1.82254e-05,3.57506e-05,0.000141165,7.82922e-06,0.282994,0.000137417,-0.262311,1.50733,-3.09689,-0.0400622,0.0355473,-0.0240895,0.00197067,202,604,-0.0273511,-0.0863717,64.5132,118.497,64.4733,118.584,4.67251e-05,5.04773e-05,0.000164902
-13.7971,4.72141,-297.655,0.000289908,0.0032918,0.00427965,0.000145809,2.83843e-05,4.72808e-05,0.000162479,1.17135e-05,0.338981,0.000156951,-0.345556,1.48636,-2.96523,-0.0587403,0.0344786,-0.0187109,0.00198414,209,604,-0.0303038,-0.0851741,65.9173,119.168,65.8747,119.258,4.83051e-05,5.0681e-05,0.000170456
-13.5045,4.71043,-297.627,0.000270684,0.00335301,0.00463067,0.000164504,3.74153e-05,5.82443e-05,0.000187158,1.47606e-05,0.370954,0.000180232,-0.396426,1.44905,-2.88452,-0.0717565,0.03233,-0.0117365,0.00199145,216,604,-0.0335227,-0.0858708,67.3443,119.799,67.2996,119.891,5.03134e-05,5.06702e-05,0.000177376
-13.2096,4.70019,-297.591,0.000279677,0.00341447,0.00498077,0.000181209,4.40246e-05,6.76914e-05,0.000208986,1.62477e-05,0.389394,0.000201355,-0.422924,1.43862,-2.93418,-0.079818,0.0293231,-0.00462263,0.00199946,223,604,-0.0360478,-0.0884387,68.8931,120.404,68.8455,120.497,5.15624e-05,5.08392e-05,0.000180282
-12.9128,4.69033,-297.549,0.000283014,0.00348467,0.00511502,0.000194677,4.79284e-05,7.40012e-05,0.000225514,1.70916e-05,0.394825,0.000217473,-0.43476,1.46848,-2.89797,-0.0838753,0.0248011,0.00240157,0.00198,230,604,-0.0370268,-0.092387,70.5329,120.998,70.4842,121.091,5.11602e-05,5.06733e-05,0.000178108
-12.6138,4.67967,-297.5,0.000330075,0.00355274,0.0052689,0.000208656,4.80265e-05,7.54462e-05,0.000238535,1.81478e-05,0.377076,0.000229998,-0.457643,1.49866,-2.87043,-0.0835249,0.0191822,0.00882222,0.00194275,237,604,-0.0370707,-0.0959939,72.2874,121.643,72.2361,121.736,4.9843e-05,5.00272e-05,0.000173269
-12.3152,4.66865,-297.451,0.000408853,0.00359312,0.00533033,0.000227734,4.43136e-05,7.17241e-05,0.00025245,1.95974e-05,0.331858,0.000243244,-0.48804,1.5033,-2.88025,-0.0777626,0.0129236,0.0137449,0.00194699,244,604,-0.0355386,-0.0959487,74.025,122.304,73.9708,122.399,5.04556e-05,5.00071e-05,0.000175396
-12.0175,4.65716,-297.404,0.00047497,0.00364982,0.00541032,0.000248823,3.71327e-05,6.29544e-05,0.00026613,1.98257e-05,0.268286,0.000256792,-0.500548,1.52007,-2.93446,-0.0673427,0.00626244,0.0174797,0.00200716,251,604,-0.0344628,-0.0949868,75.7122,122.986,75.6552,123.084,5.29494e-05,5.13488e-05,0.000183651
-11.7209,4.64538,-297.36,0.000550757,0.00366718,0.00546837,0.000265341,2.74524e-05,4.89829e-05,0.000275032,1.77613e-05,0.195325,0.000266595,-0.509223,1.53639,-2.96899,-0.055876,-1.43564e-05,0.0193981,0.00206544,258,604,-0.0329307,-0.0931311,77.3474,123.68,77.2875,123.781,5.42787e-05,5.20471e-05,0.000187945
-11.4242,4.6337,-297.315,0.000660863,0.00366907,0.00561387,0.000275157,1.5989e-05,3.01262e-05,0.000278612,1.25331e-05,0.114213,0.000272562,-0.509785,1.53481,-3.05778,-0.0454453,-0.00551695,0.0195918,0.0020705,265,604,-0.0312217,-0.0921758,78.9934,124.372,78.9292,124.474,5.43239e-05,5.11094e-05,0.00018814
-11.1259,4.62235,-297.265,0.000718757,0.00366106,0.00552091,0.000279028,3.60468e-06,8.41275e-06,0.000279284,3.34796e-06,0.0305069,0.000277625,-0.500921,1.52142,-3.06356,-0.0356409,-0.0100362,0.0186095,0.00201468,272,604,-0.0289521,-0.0920799,80.7175,125.055,80.6523,125.157,5.32063e-05,4.96341e-05,0.00018407
-10.8257,4.61148,-297.208,0.000748466,0.00364741,0.00527974,0.000276921,-9.07576e-06,-1.45527e-05,0.000277659,-9.81436e-06,-0.0507095,0.000282694,-0.494471,1.49223,-3.09209,-0.0259797,-0.0138175,0.017105,0.00196312,279,604,-0.0262393,-0.092545,82.5406,125.723,82.4762,125.824,5.26817e-05,4.84988e-05,0.000181765
-10.5248,4.60099,-297.147,0.000794506,0.00359102,0.00513367,0.000268154,-2.10671e-05,-3.77679e-05,0.000273005,-2.59177e-05,-0.127731,0.000286843,-0.495011,1.48623,-3.11615,-0.0162375,-0.0170076,0.0155201,0.00195715,286,604,-0.0238274,-0.0929569,84.4099,126.377,84.3453,126.475,5.25042e-05,4.93374e-05,0.00018082
-10.2239,4.59037,-297.086,0.000938794,0.00353945,0.00536835,0.000252369,-3.19498e-05,-6.1067e-05,0.000264931,-4.4511e-05,-0.202866,0.000289762,-0.515209,1.4855,-3.18567,-0.00631313,-0.0193799,0.0136088,0.00193792,293,604,-0.0219173,-0.0935781,86.2845,127.04,86.2142,127.134,5.20562e-05,4.97521e-05,0.000178948
-9.92309,4.57966,-297.025,0.00108074,0.00352998,0.00575461,0.000230113,-4.15768e-05,-8.45365e-05,0.000254269,-6.57327e-05,-0.278328,0.000292724,-0.530312,1.50197,-3.17017,0.00291492,-0.0201912,0.0110958,0.00195517,300,604,-0.0212602,-0.0951344,88.1578,127.707,88.0807,127.799,5.15677e-05,4.97967e-05,0.000177118
-9.62217,4.56872,-296.963,0.00120816,0.00354172,0.00598885,0.000201819,-4.94051e-05,-0.000107079,0.000241266,-8.88516e-05,-0.35296,0.000295873,-0.552228,1.53707,-3.12516,0.0124041,-0.0194898,0.00937066,0.00198198,307,604,-0.019794,-0.0962066,90.0397,128.386,89.9571,128.477,5.15484e-05,5.06111e-05,0.000177148
-9.32058,4.55771,-296.897,0.00128901,0.00353709,0.00604903,0.000167566,-5.56122e-05,-0.000127834,0.000225664,-0.00011371,-0.426573,0.00029919,-0.565162,1.57608,-3.10077,0.0239957,-0.0179745,0.00889525,0.00201696,314,604,-0.0181155,-0.0959453,91.9581,129.072,91.8726,129.163,5.22833e-05,5.18066e-05,0.000179965
-9.01909,4.54692,-296.831,0.00133141,0.00350337,0.00593083,0.000130334,-6.1495e-05,-0.000147401,0.000210279,-0.00014144,-0.496962,0.000306536,-0.544192,1.6148,-3.04818,0.0365926,-0.0162695,0.00931452,0.00206225,321,604,-0.0160021,-0.0954077,93.8734,129.749,93.7876,129.838,5.34847e-05,5.25133e-05,0.000184339
-8.71817,4.53617,-296.767,0.00134966,0.00346064,0.00584615,9.15651e-05,-6.82372e-05,-0.000165905,0.000195807,-0.000172479,-0.560986,0.000319159,-0.51087,1.64175,-3.01258,0.0488634,-0.0142521,0.00949661,0.00204807,328,604,-0.0147441,-0.0952988,95.7621,130.422,95.6763,130.51,5.41578e-05,5.1741e-05,0.000186674
-8.41822,4.52561,-296.704,0.00133624,0.00344086,0.00570942,5.06543e-05,-7.68549e-05,-0.000182645,0.000180352,-0.000206553,-0.617478,0.000335326,-0.48058,1.63037,-2.9591,0.0614293,-0.0112691,0.00861261,0.00203913,335,604,-0.0139051,-0.0955759,97.6037,131.082,97.5192,131.169,5.40122e-05,4.95312e-05,0.000186197
-8.11942,4.5148,-296.645,0.00131734,0.00340262,0.00560691,6.67579e-06,-8.78017e-05,-0.000196568,0.000161602,-0.000242727,-0.667476,0.000352501,-0.450383,1.60476,-2.94544,0.0753205,-0.00781282,0.00766302,0.00207274,342,604,-0.0134579,-0.0964391,99.388,131.754,99.3049,131.838,5.44829e-05,4.88615e-05,0.000187208
-7.81979,4.50408,-296.583,0.00129191,0.00332541,0.00539648,-4.01939e-05,-0.000102231,-0.000207653,0.000138744,-0.000281169,-0.711258,0.000370562,-0.44522,1.53796,-3.13723,0.0893794,-0.00398598,0.00808891,0.00207132,349,604,-0.0123297,-0.0972104,101.219,132.426,101.139,132.506,5.36669e-05,4.92398e-05,0.000183913
-7.51997,4.49313,-296.518,0.00131185,0.00325501,0.00529431,-8.72165e-05,-0.000118121,-0.000215557,0.000113441,-0.000318778,-0.749617,0.000388138,-0.423001,1.49603,-3.35574,0.100981,0.000967964,0.00935764,0.00205537,356,604,-0.0108894,-0.0970799,103.067,133.112,102.986,133.189,5.19378e-05,4.87026e-05,0.000177853
-7.21801,4.48226,-296.446,0.00133974,0.00322141,0.00529744,-0.000131539,-0.000134745,-0.00021971,8.65741e-05,-0.000352859,-0.781751,0.000403178,-0.386702,1.49785,-3.38962,0.108604,0.00641005,0.010997,0.00199112,363,604,-0.0100727,-0.0967341,105.035,133.803,104.954,133.878,5.0226e-05,4.94557e-05,0.000172383
-6.91245,4.47194,-296.362,0.00136598,0.00318884,0.00528239,-0.000172851,-0.000150494,-0.000220671,5.92811e-05,-0.000382627,-0.810705,0.000415451,-0.349841,1.52969,-3.3004,0.112503,0.0122338,0.0120534,0.00193903,370,604,-0.0091597,-0.0962601,107.203,134.481,107.121,134.555,4.99128e-05,4.94725e-05,0.000171804
-6.60386,4.46206,-296.266,0.00132557,0.00312355,0.00511855,-0.000210528,-0.00016404,-0.000218963,3.29093e-05,-0.000407477,-0.838277,0.000424889,-0.332541,1.56321,-3.19848,0.113205,0.0179341,0.0127593,0.00195794,377,604,-0.00877215,-0.0958008,109.538,135.154,109.459,135.224,5.11584e-05,4.97991e-05,0.00017646
-6.29397,4.45205,-296.165,0.00128207,0.00303009,0.00476001,-0.000242322,-0.000173893,-0.000215296,9.89001e-06,-0.000426105,-0.864199,0.000431135,-0.301103,1.53011,-3.15938,0.111274,0.0226074,0.0137648,0.00201812,384,604,-0.00699662,-0.0956657,111.95,135.842,111.875,135.908,5.27379e-05,5.01498e-05,0.00018194
-5.98692,4.44125,-296.072,0.00125966,0.00295712,0.00449429,-0.000268546,-0.000178914,-0.000210741,-8.27582e-06,-0.000439184,-0.890167,0.000435105,-0.254778,1.50621,-3.17844,0.106066,0.026154,0.0151658,0.00201523,391,604,-0.00541639,-0.0957035,114.216,136.559,114.144,136.622,5.30834e-05,4.98331e-05,0.000183308
-5.68472,4.43053,-295.995,0.00123741,0.0029539,0.00409807,-0.000290653,-0.000177843,-0.000205986,-2.06788e-05,-0.000447817,-0.919036,0.000437844,-0.196425,1.52034,-3.09597,0.0983839,0.0279664,0.0163963,0.00205852,398,604,-0.00294805,-0.0973801,116.227,137.25,116.158,137.312,5.4721e-05,5.11688e-05,0.000188875
-5.38994,4.41911,-295.941,0.0011995,0.0029874,0.00404771,-0.000308492,-0.000171458,-0.000201396,-2.72424e-05,-0.000452707,-0.949361,0.000439719,-0.173337,1.58141,-2.94031,0.0887624,0.0279444,0.0172528,0.0021798,405,604,-0.00348233,-0.0993136,117.84,137.945,117.773,138.007,5.77934e-05,5.31966e-05,0.000199244
-5.10155,4.40818,-295.909,0.00109161,0.00300361,0.00404611,-0.000320751,-0.000159771,-0.000198007,-2.65192e-05,-0.000454002,-0.978447,0.000441341,-0.16173,1.64208,-2.71448,0.0765898,0.0264566,0.0167962,0.00227733,412,604,-0.00611929,-0.101177,119.108,138.586,119.043,138.647,5.99063e-05,5.40769e-05,0.000206237
-4.81681,4.39722,-295.889,0.000964743,0.00299609,0.00399171,-0.000329546,-0.000144025,-0.000195359,-2.05227e-05,-0.000453049,-1.00705,0.000443144,-0.144253,1.6508,-2.50172,0.0632692,0.0234686,0.0158896,0.00228016,419,604,-0.00881764,-0.102275,120.177,139.215,120.117,139.274,5.97064e-05,5.33212e-05,0.000205402
-4.53398,4.38625,-295.875,0.000820573,0.00293207,0.00395649,-0.000337303,-0.000125165,-0.000192845,-1.11431e-05,-0.000451325,-1.03683,0.000445857,-0.140224,1.60029,-2.4367,0.0508481,0.018962,0.0143604,0.00220553,426,604,-0.012041,-0.102608,121.143,139.837,121.086,139.893,5.77463e-05,5.08741e-05,0.000198607
-4.24903,4.37555,-295.852,0.000755948,0.00286569,0.00375928,-0.000342344,-0.000104825,-0.000189626,1.60595e-07,-0.00044733,-1.06516,0.000447411,-0.115927,1.55612,-2.54229,0.0408615,0.0131747,0.0120373,0.00210049,433,604,-0.012082,-0.102939,122.227,140.456,122.174,140.509,5.48484e-05,4.88651e-05,0.000188556
-3.9624,4.36487,-295.824,0.000739639,0.0027866,0.0034935,-0.000344482,-8.43013e-05,-0.000184239,1.1147e-05,-0.00043993,-1.0928,0.000445608,-0.138297,1.52878,-2.73397,0.0331825,0.00671633,0.00842,0.00204635,440,604,-0.0103956,-0.102297,123.407,141.083,123.357,141.132,5.36792e-05,4.81801e-05,0.000184545
-3.6739,4.35427,-295.788,0.000713119,0.00268854,0.00310399,-0.000345168,-6.48278e-05,-0.000176445,2.03477e-05,-0.000430343,-1.12106,0.00044087,-0.158275,1.54418,-2.94525,0.0273862,0.00051425,0.00401857,0.00204482,447,604,-0.00805383,-0.101301,124.691,141.715,124.645,141.761,5.37178e-05,4.90084e-05,0.000184684
-3.3839,4.34396,-295.747,0.000660008,0.00257894,0.00276138,-0.000346835,-4.68534e-05,-0.000166964,2.75979e-05,-0.000421286,-1.15135,0.000435741,-0.170304,1.55718,-2.963,0.0237067,-0.00508762,-0.000403656,0.00203182,454,604,-0.00672032,-0.0996195,126.062,142.34,126.02,142.382,5.36671e-05,5.01677e-05,0.000184552
-3.09177,4.33343,-295.698,0.000601089,0.00249338,0.0023902,-0.000349795,-3.39115e-05,-0.000156073,3.01924e-05,-0.000413899,-1.18107,0.000429791,-0.162046,1.55656,-2.83048,0.022424,-0.00989118,-0.00427394,0.00200515,461,604,-0.00535124,-0.0971363,127.555,142.986,127.518,143.026,5.34363e-05,5.01072e-05,0.000183717
-2.79677,4.32295,-295.638,0.000604894,0.00244041,0.00215199,-0.000351907,-2.53555e-05,-0.000143311,2.86175e-05,-0.00040588,-1.21061,0.000420919,-0.172862,1.5513,-2.5762,0.0222746,-0.0141953,-0.00824807,0.0020024,468,604,-0.0034154,-0.0953391,129.216,143.643,129.181,143.682,5.35186e-05,4.97381e-05,0.000184038
-2.5001,4.31261,-295.571,0.000571885,0.00239368,0.00176174,-0.000352347,-2.05098e-05,-0.000127589,2.28752e-05,-0.000395732,-1.24303,0.000407651,-0.208961,1.55043,-2.34331,0.020727,-0.0186149,-0.0125883,0.00201665,475,604,-0.00132944,-0.0941875,130.974,144.301,130.943,144.34,5.30914e-05,4.91006e-05,0.000182663
-2.20319,4.30205,-295.502,0.000510297,0.00236833,0.0013774,-0.00035013,-1.79417e-05,-0.000109228,1.47555e-05,-0.000382827,-1.27994,0.000390414,-0.24644,1.56358,-2.18292,0.0160224,-0.0223614,-0.017793,0.00201427,482,604,-6.10788e-05,-0.0950442,132.752,144.975,132.725,145.012,5.2531e-05,4.88276e-05,0.000180682
-1.90812,4.29104,-295.439,0.000436068,0.00238383,0.00110234,-0.000343642,-1.67866e-05,-8.97166e-05,6.21984e-06,-0.000366648,-1.31977,0.000369797,-0.269629,1.54378,-2.15904,0.00842806,-0.0244738,-0.0239508,0.00199839,489,604,3.76311e-05,-0.0973139,134.431,145.665,134.41,145.701,5.21056e-05,4.98085e-05,0.000178842
-1.61467,4.28003,-295.381,0.000354465,0.00245552,0.00100171,-0.000332058,-1.63419e-05,-7.04633e-05,-1.32939e-06,-0.000347071,-1.36088,0.000346408,-0.271345,1.52203,-2.22038,-0.00163171,-0.0253572,-0.0303604,0.00206636,496,604,-0.00136971,-0.100462,136.027,146.346,136.008,146.383,5.33108e-05,5.22972e-05,0.000182431
-1.32008,4.26956,-295.318,0.000300634,0.00248084,0.000888204,-0.000316732,-1.64613e-05,-5.25683e-05,-7.52413e-06,-0.000325669,-1.4024,0.000321973,-0.242652,1.5437,-2.31053,-0.0158099,-0.0247066,-0.036997,0.0022036,503,604,-0.00192792,-0.101495,137.695,147.007,137.678,147.044,5.53832e-05,5.5212e-05,0.000189235
-1.02539,4.25896,-295.254,0.000219189,0.00242893,0.000828465,-0.000297764,-1.62273e-05,-3.51695e-05,-1.19004e-05,-0.000302091,-1.44838,0.00029632,-0.21747,1.59971,-2.4274,-0.0354886,-0.0237807,-0.0447072,0.00229156,510,604,-0.0034801,-0.0998415,139.374,147.677,139.361,147.713,5.67391e-05,5.72571e-05,0.000193541
-0.730741,4.24871,-295.189,0.000122657,0.00235038,0.000673325,-0.00027473,-1.4673e-05,-1.74058e-05,-1.35132e-05,-0.00027589,-1.50426,0.000269388,-0.175555,1.61708,-2.56366,-0.0572294,-0.0227054,-0.0533908,0.00233073,517,604,-0.00471512,-0.0979792,141.057,148.332,141.048,148.366,5.77866e-05,5.81902e-05,0.000196616
-0.436057,4.23831,-295.123,2.40488e-05,0.00227184,0.000491126,-0.000247454,-1.03065e-05,-1.8493e-07,-1.03063e-05,-0.000247454,-1.57002,0.000242465,-0.144457,1.56976,-2.65982,-0.0794982,-0.0209747,-0.0632106,0.0023166,524,604,-0.00582296,-0.0964569,142.749,148.996,142.744,149.028,5.77461e-05,5.74714e-05,0.000195992
-0.143259,4.22771,-295.063,-3.67919e-05,0.00226906,0.000186251,-0.000216844,-5.36229e-06,1.68755e-05,-4.02415e-06,-0.000218182,1.49167,0.000216198,-0.120584,1.5198,-2.74659,-0.105084,-0.0176714,-0.07216,0.0022897,531,604,-0.00520691,-0.0975629,144.339,149.662,144.338,149.693,5.76774e-05,5.60387e-05,0.000195377
0.148738,4.21742,-295.006,-4.15717e-05,0.00230141,-3.10948e-05,-0.000185373,1.97375e-06,3.55672e-05,8.49882e-06,-0.000191898,1.38936,0.000196286,-0.143957,1.49985,-2.73426,-0.13004,-0.0128104,-0.081428,0.00227027,538,604,-0.0038259,-0.0982316,145.892,150.306,145.893,150.338,5.85036e-05,5.56656e-05,0.000197883
0.440322,4.20699,-294.948,-4.48462e-06,0.00232747,-6.98696e-05,-0.00015441,1.1661e-05,5.65358e-05,2.90805e-05,-0.000171829,1.27191,0.000188063,-0.211776,1.52289,-2.7044,-0.153184,-0.0062872,-0.0919104,0.00231941,545,604,-0.0026172,-0.0964052,147.43,150.956,147.43,150.991,6.10096e-05,5.75237e-05,0.000206335
0.731333,4.19647,-294.892,1.7019e-05,0.00231901,-0.000142904,-0.00012304,2.42584e-05,8.08561e-05,5.99797e-05,-0.000158762,1.15479,0.000195768,-0.301543,1.53443,-2.90319,-0.173106,0.00201439,-0.104587,0.0024342,552,604,-0.00151885,-0.0931158,148.94,151.609,148.94,151.647,6.45546e-05,6.09837e-05,0.000218546
1.02192,4.18588,-294.837,-6.37002e-05,0.00230674,-0.000132153,-9.10778e-05,4.03566e-05,0.000108157,0.000101197,-0.000151918,1.0584,0.000220666,-0.39879,1.46887,-3.10798,-0.187623,0.0118067,-0.118195,0.00261256,559,604,-0.0036189,-0.0913047,150.43,152.267,150.432,152.306,6.85503e-05,6.55166e-05,0.000232189
1.31303,4.17536,-294.779,-0.000101984,0.00237131,-0.000109784,-6.1827e-05,6.02503e-05,0.000135423,0.000147755,-0.000149332,0.997127,0.000257286,-0.437832,1.36004,-3.27047,-0.194574,0.0223461,-0.13122,0.00268322,566,604,-0.00482854,-0.0932218,151.958,152.925,151.961,152.966,6.96223e-05,6.80379e-05,0.000235537
1.60419,4.16484,-294.719,-0.000143157,0.0024459,-0.000152551,-3.6065e-05,8.32763e-05,0.000159894,0.000194271,-0.000147059,0.963989,0.000296542,-0.383401,1.26284,-3.18001,-0.1918,0.0325504,-0.145959,0.00270971,573,604,-0.00566836,-0.095302,153.495,153.584,153.499,153.627,7.05304e-05,6.86546e-05,0.000238161
0,0,0,0,0,0,0,0,0,0,0,0,0,0,0,0,0,0,0,-1,580,604,0,0,0,0,0,0,0,0,0
0,0,0,0,0,0,0,0,0,0,0,0,0,0,0,0,0,0,0,-1,587,604,0,0,0,0,0,0,0,0,0
0,0,0,0,0,0,0,0,0,0,0,0,0,0,0,0,0,0,0,-1,594,604,0,0,0,0,0,0,0,0,0
0,0,0,0,0,0,0,0,0,0,0,0,0,0,0,0,0,0,0,-1,601,604,0,0,0,0,0,0,0,0,0
0,0,0,0,0,0,0,0,0,0,0,0,0,0,0,0,0,0,0,-1,62,611,0,0,0,0,0,0,0,0,0
0,0,0,0,0,0,0,0,0,0,0,0,0,0,0,0,0,0,0,-1,69,611,0,0,0,0,0,0,0,0,0
0,0,0,0,0,0,0,0,0,0,0,0,0,0,0,0,0,0,0,-1,76,611,0,0,0,0,0,0,0,0,0
-19.0642,4.65237,-298.045,0.000384267,0.00274255,-0.000112385,-0.000417428,-1.62455e-05,6.07851e-05,-7.23788e-06,-0.000426436,1.42368,0.000422864,-0.322297,1.36854,-3.69252,0.0350592,0.0351656,-0.0119703,0.00216884,83,611,0.00732758,-0.0740514,39.9552,108.565,39.9418,108.642,5.5462e-05,5.3778e-05,0.000195162
-18.7843,4.64094,-298.063,0.000322608,0.00281647,-0.00011825,-0.000331621,-3.47582e-05,4.06347e-05,-2.92966e-05,-0.000337082,1.43719,0.000323431,-0.28943,1.35214,-3.66874,-0.00386316,0.0207592,-0.00586642,0.00211164,90,611,0.00579177,-0.0755042,40.7882,109.161,40.7765,109.24,5.47478e-05,5.25947e-05,0.000193517
-18.494,4.6294,-298.049,0.000252124,0.00286917,1.40694e-05,-0.000243028,-4.6824e-05,2.62095e-05,-4.33832e-05,-0.000246469,1.44026,0.000227896,-0.244475,1.33253,-3.758,-0.0262313,0.0119452,0.0014787,0.00207901,97,611,0.00292719,-0.0764053,42.1217,109.803,42.111,109.884,5.43062e-05,5.21539e-05,0.000192247
-18.2023,4.61846,-298.031,0.000170587,0.00289872,0.000243524,-0.000160105,-5.4719e-05,1.59677e-05,-5.23528e-05,-0.000162471,1.42368,0.000143638,-0.248289,1.31595,-3.81446,-0.0358062,0.00705213,0.00969466,0.00211129,104,611,-0.000976174,-0.076799,43.5221,110.421,43.5121,110.503,5.46844e-05,5.32654e-05,0.000192901
-17.9139,4.60746,-298.022,0.000132306,0.00293007,0.000544743,-9.0939e-05,-5.97446e-05,8.27282e-06,-5.76865e-05,-9.29972e-05,1.32696,8.13113e-05,-0.261475,1.3004,-3.86486,-0.0361972,0.00463704,0.0166551,0.0021819,111,611,-0.00440666,-0.0777067,44.7609,111.029,44.7499,111.112,5.50674e-05,5.57193e-05,0.000192581
-17.6245,4.59589,-298.01,0.000141344,0.00297906,0.000831213,-3.66427e-05,-6.28974e-05,2.03307e-06,-3.64862e-05,-6.30539e-05,0.0768259,5.4831e-05,-0.308312,1.28556,-3.87586,-0.0291465,0.00353603,0.0210731,0.00217353,118,611,-0.00656773,-0.0792539,46.048,111.672,46.0348,111.756,5.42033e-05,5.54062e-05,0.000188196
-17.3325,4.58454,-297.99,0.000160201,0.00300185,0.00119363,6.58776e-06,-6.45675e-05,-3.43767e-06,6.75345e-06,-6.47332e-05,-0.0481627,6.83606e-05,-0.335199,1.27306,-3.92512,-0.0145482,0.00361562,0.022857,0.00216664,125,611,-0.009064,-0.0798702,47.4583,112.315,47.442,112.398,5.29834e-05,5.50832e-05,0.000184059
-17.0372,4.57312,-297.96,0.000252972,0.00300753,0.00159553,4.17473e-05,-6.49148e-05,-8.41018e-06,4.24064e-05,-6.55738e-05,-0.0782048,9.42283e-05,-0.381339,1.3047,-3.87697,0.00529647,0.0049278,0.0219842,0.00210841,132,611,-0.0100455,-0.0809189,49.0306,112.975,49.009,113.057,5.15124e-05,5.22939e-05,0.000179471
-16.7396,4.56214,-297.922,0.000273552,0.00304208,0.00195526,6.94515e-05,-6.47615e-05,-1.41378e-05,7.09246e-05,-6.62345e-05,-0.10382,0.000118806,-0.363281,1.35328,-3.82527,0.0233959,0.00693474,0.0194202,0.00201338,139,611,-0.0124712,-0.0827454,50.7163,113.622,50.6917,113.704,5.12167e-05,4.79922e-05,0.000178262
-16.4442,4.55163,-297.89,0.000243411,0.00309244,0.00218735,8.67995e-05,-6.32153e-05,-1.85692e-05,8.90638e-05,-6.54797e-05,-0.121343,0.000134357,-0.356799,1.42742,-3.77298,0.0373095,0.0104249,0.0146524,0.00200871,146,611,-0.0151061,-0.0843368,52.2898,114.235,52.2643,114.318,5.20993e-05,4.70378e-05,0.000181292
-16.1512,4.54085,-297.865,0.000182125,0.00312348,0.0024234,9.99122e-05,-6.1395e-05,-2.1053e-05,0.000102615,-6.40975e-05,-0.127666,0.000145656,-0.354969,1.46295,-3.72785,0.0454086,0.0141862,0.00793316,0.00200866,153,611,-0.018502,-0.08486,53.7398,114.853,53.7143,114.937,5.19421e-05,4.76623e-05,0.000181342
-15.8598,4.52971,-297.844,0.000115027,0.00314719,0.00260635,0.000108345,-5.73624e-05,-2.1963e-05,0.000111206,-6.02239e-05,-0.129561,0.000150635,-0.35724,1.46121,-3.68722,0.0486327,0.0183637,-0.000239076,0.0019967,160,611,-0.0215975,-0.0851541,55.1151,115.485,55.0902,115.569,5.13225e-05,4.8514e-05,0.000179755
-15.5678,4.51824,-297.822,5.8007e-05,0.00314659,0.0028086,0.000113907,-5.11081e-05,-2.13741e-05,0.00011663,-5.38317e-05,-0.126742,0.000150927,-0.333208,1.44416,-3.61659,0.0470184,0.0223503,-0.008781,0.00200902,167,611,-0.0245725,-0.0852061,56.5134,116.137,56.4886,116.221,5.04863e-05,4.95829e-05,0.000177001
-15.272,4.50745,-297.787,5.6613e-05,0.00316064,0.00307655,0.000115848,-4.19482e-05,-1.74468e-05,0.000117754,-4.38542e-05,-0.108815,0.000144752,-0.248972,1.44502,-3.56182,0.0396114,0.0264505,-0.0164557,0.00201169,174,611,-0.0267258,-0.0865082,58.1019,116.77,58.0753,116.854,5.06971e-05,4.97273e-05,0.000177314
-14.974,4.49669,-297.745,0.000134097,0.00315041,0.00327806,0.000114112,-3.09209e-05,-1.00671e-05,0.000114807,-3.16163e-05,-0.0689715,0.000133455,-0.171242,1.44115,-3.45673,0.0256842,0.0307635,-0.0229617,0.00198559,181,611,-0.0263733,-0.0872461,59.8073,117.413,59.7771,117.495,5.01248e-05,4.955e-05,0.000174992
-14.6749,4.48592,-297.699,0.000250966,0.00316778,0.00352518,0.000112964,-1.87257e-05,-2.98063e-07,0.000112964,-1.87263e-05,-0.00226336,0.000123398,-0.127667,1.43387,-3.35811,0.00446092,0.0348471,-0.0269827,0.00193792,188,611,-0.0254359,-0.0886975,61.5651,118.06,61.5297,118.142,4.84873e-05,4.91298e-05,0.000169583
-14.3767,4.47465,-297.655,0.000288563,0.00319004,0.00368728,0.000116868,-5.47794e-06,1.17911e-05,0.000117994,-6.60395e-06,0.0952077,0.000121431,-0.162635,1.46057,-3.30891,-0.0207667,0.0380175,-0.0276928,0.00194669,195,611,-0.0257428,-0.0879864,63.2748,118.728,63.237,118.811,4.65985e-05,4.99316e-05,0.000163744
-14.0825,4.46271,-297.623,0.000273568,0.00319878,0.00384005,0.000126372,9.23893e-06,2.56567e-05,0.000131745,3.86561e-06,0.206448,0.000129855,-0.262496,1.47053,-3.07166,-0.0444237,0.0393736,-0.0247313,0.00198359,202,611,-0.0272375,-0.0858709,64.7823,119.416,64.7437,119.501,4.68532e-05,5.08792e-05,0.000165367
-13.7911,4.45089,-297.599,0.000277128,0.00323718,0.00419492,0.00014251,2.38417e-05,3.99699e-05,0.000154717,1.16347e-05,0.296408,0.00014924,-0.350245,1.46209,-2.91805,-0.0639785,0.0391008,-0.0185587,0.00199616,209,611,-0.0299016,-0.0846527,66.1529,120.086,66.1114,120.174,4.86329e-05,5.11169e-05,0.000172068
-13.4997,4.43988,-297.574,0.00029068,0.00327471,0.00457397,0.000161651,3.69106e-05,5.43033e-05,0.000181978,1.65832e-05,0.358184,0.000174279,-0.407128,1.42644,-2.82578,-0.0775751,0.037756,-0.0108527,0.00200039,216,611,-0.0325183,-0.0854933,67.5205,120.716,67.4758,120.804,5.10539e-05,5.09668e-05,0.000180204
-13.2073,4.42958,-297.546,0.000333083,0.00334013,0.004952,0.000178401,4.70495e-05,6.70364e-05,0.000206572,1.88786e-05,0.397826,0.000197809,-0.452322,1.41936,-2.83986,-0.0858245,0.0354695,-0.00285146,0.00200792,223,611,-0.0344486,-0.0886293,68.948,121.315,68.8993,121.404,5.24432e-05,5.06774e-05,0.000183515
-12.9132,4.41964,-297.513,0.000332109,0.0034109,0.0050689,0.000192464,5.38736e-05,7.59708e-05,0.000225996,2.03419e-05,0.41566,0.000216543,-0.474051,1.43827,-2.80826,-0.0894061,0.031294,0.00521749,0.00198648,230,611,-0.0353944,-0.0923757,70.4545,121.902,70.4048,121.991,5.20769e-05,5.05505e-05,0.000181368
-12.6167,4.40911,-297.471,0.000345656,0.00347774,0.00523333,0.000208368,5.59848e-05,7.92747e-05,0.000242129,2.22234e-05,0.402614,0.000231818,-0.513362,1.47379,-2.79459,-0.0881653,0.0257875,0.0125236,0.00194448,237,611,-0.0363356,-0.0950051,72.0827,122.531,72.0313,122.621,5.04006e-05,5.01432e-05,0.000175094
-12.3189,4.39812,-297.425,0.000370014,0.00351202,0.00528862,0.000230956,5.32502e-05,7.67431e-05,0.00025951,2.46964e-05,0.356199,0.000248086,-0.555645,1.50326,-2.83065,-0.081576,0.0192647,0.0179482,0.00197925,244,611,-0.0360873,-0.0942041,73.7757,123.188,73.723,123.28,5.10875e-05,5.08296e-05,0.000177055
-12.0209,4.38702,-297.377,0.000417511,0.00355859,0.00535693,0.000256773,4.59372e-05,6.88628e-05,0.000277272,2.54384e-05,0.289324,0.000265468,-0.546793,1.53935,-2.85454,-0.0700714,0.011717,0.0219279,0.00205097,251,611,-0.0353771,-0.0934911,75.4833,123.853,75.4284,123.948,5.33953e-05,5.19561e-05,0.000184566
-11.7234,4.37568,-297.33,0.000516204,0.00358141,0.00552265,0.000278501,3.54168e-05,5.56405e-05,0.000290631,2.32864e-05,0.214656,0.000279716,-0.538497,1.57546,-2.87964,-0.0572013,0.00443825,0.0239344,0.00207887,258,611,-0.0341301,-0.0922507,77.1677,124.529,77.1087,124.627,5.44861e-05,5.18729e-05,0.000188225
-11.4255,4.3643,-297.281,0.000647913,0.00360994,0.00569825,0.000292837,2.24369e-05,3.72947e-05,0.000297887,1.73873e-05,0.134577,0.000289585,-0.534886,1.57366,-3.01107,-0.0453623,-0.00193774,0.0241048,0.00206136,265,611,-0.0321503,-0.0920568,78.8748,125.211,78.8105,125.31,5.46084e-05,5.03288e-05,0.000188753
-11.1267,4.35312,-297.229,0.000721204,0.00362654,0.00558945,0.000300192,8.07505e-06,1.57544e-05,0.000301039,7.22785e-06,0.0537242,0.000297491,-0.52296,1.54568,-3.01662,-0.0347574,-0.00700231,0.0228551,0.00200122,272,611,-0.0294055,-0.0929036,80.6291,125.889,80.5634,125.988,5.31959e-05,4.83493e-05,0.000183702
-10.8271,4.34229,-297.173,0.000761837,0.00361967,0.0054015,0.000301114,-6.74197e-06,-7.41571e-06,0.000301293,-6.92048e-06,-0.0240696,0.000304812,-0.506419,1.51604,-3.01434,-0.0254109,-0.0111744,0.0209192,0.00194814,279,611,-0.0268379,-0.0934564,82.4292,126.554,82.3637,126.652,5.20565e-05,4.73024e-05,0.000179353
-10.5268,4.3318,-297.115,0.000822985,0.0035796,0.00531165,0.000295188,-2.05639e-05,-3.0672e-05,0.00029814,-2.35157e-05,-0.0959442,0.000310566,-0.502487,1.53488,-3.03847,-0.0166942,-0.014745,0.0186939,0.00191899,286,611,-0.0244913,-0.093509,84.2651,127.206,84.1985,127.303,5.11606e-05,4.81221e-05,0.000176147
-10.2269,4.3212,-297.057,0.000971387,0.00354983,0.00552542,0.000281398,-3.26384e-05,-5.35626e-05,0.000290282,-4.15228e-05,-0.164373,0.000313115,-0.520794,1.55201,-3.148,-0.00787788,-0.0172872,0.0157425,0.001901,293,611,-0.0223298,-0.0939398,86.0903,127.865,86.0179,127.959,5.01271e-05,4.87759e-05,0.000172727
-9.92732,4.31046,-297,0.00110913,0.00355948,0.00589973,0.00025988,-4.28789e-05,-7.67323e-05,0.000278216,-6.12157e-05,-0.234571,0.000313342,-0.546754,1.55728,-3.18369,0.000321379,-0.0180524,0.0117253,0.00192476,300,611,-0.0216941,-0.0952299,87.9004,128.529,87.8213,128.622,5.00617e-05,4.94861e-05,0.000172591
-9.62729,4.2995,-296.94,0.00124459,0.00359244,0.00614489,0.000231405,-5.09607e-05,-9.94586e-05,0.000262921,-8.24758e-05,-0.306859,0.000312433,-0.554367,1.58218,-3.09421,0.00907667,-0.0172307,0.00842447,0.00196743,307,611,-0.0201231,-0.0960345,89.7374,129.205,89.6525,129.299,5.04076e-05,5.08164e-05,0.000174092
-9.32661,4.28846,-296.878,0.00133197,0.0035816,0.00629332,0.000196061,-5.6766e-05,-0.000120683,0.000244418,-0.000105123,-0.381104,0.00031062,-0.562917,1.59993,-3.03191,0.0205184,-0.0158268,0.00654883,0.00203096,314,611,-0.0189428,-0.0952852,91.6104,129.891,91.5218,129.985,5.13404e-05,5.22883e-05,0.000177586
-9.0254,4.27773,-296.813,0.00137491,0.00352196,0.00620376,0.000156685,-6.19597e-05,-0.000140855,0.000225664,-0.00013094,-0.45539,0.000312439,-0.547559,1.62172,-2.97723,0.0330857,-0.0146014,0.00572139,0.00204777,321,611,-0.0170125,-0.0952227,93.5123,130.567,93.4231,130.657,5.27172e-05,5.25759e-05,0.000182211
-8.72401,4.26723,-296.747,0.00139061,0.00348055,0.00607969,0.000115066,-6.84174e-05,-0.000159766,0.000207557,-0.000160908,-0.524772,0.000319951,-0.517138,1.64095,-2.98048,0.0449102,-0.013437,0.00454207,0.00203773,328,611,-0.0155227,-0.0959415,95.4272,131.233,95.3385,131.321,5.36909e-05,5.20203e-05,0.000185241
-8.42251,4.25688,-296.679,0.0013774,0.00346066,0.00588554,7.09437e-05,-7.76779e-05,-0.000176814,0.000188428,-0.000195162,-0.586467,0.000332215,-0.4883,1.61203,-3.03237,0.0568905,-0.0117424,0.00236483,0.00202854,335,611,-0.0142456,-0.0969412,97.3516,131.892,97.2647,131.978,5.34437e-05,4.99092e-05,0.000184197
-8.12234,4.24639,-296.616,0.00138782,0.00347403,0.00581363,2.28077e-05,-9.01568e-05,-0.000191248,0.00016574,-0.000233089,-0.641812,0.000347033,-0.477736,1.58312,-3.11986,0.0708184,-0.0100048,0.00018999,0.00204313,342,611,-0.0133475,-0.0986744,99.2119,132.552,99.1252,132.637,5.304e-05,4.92409e-05,0.000182371
-7.82251,4.23564,-296.552,0.00141776,0.00343925,0.00577288,-2.89838e-05,-0.000106534,-0.000203523,0.000139425,-0.000274943,-0.691266,0.000365195,-0.483584,1.51987,-3.31474,0.0857638,-0.00779322,-0.000364511,0.00207006,349,611,-0.0121458,-0.0990647,101.058,133.227,100.971,133.311,5.25236e-05,5.01409e-05,0.000180047
-7.52278,4.22493,-296.488,0.00147145,0.00337906,0.00577949,-8.05272e-05,-0.000124659,-0.000213074,0.000111621,-0.000316807,-0.733802,0.000384952,-0.464464,1.47109,-3.44959,0.0981267,-0.00429399,0.000215907,0.00208827,356,611,-0.0106801,-0.0987348,102.905,133.902,102.816,133.983,5.17965e-05,5.03578e-05,0.000177279
-7.22386,4.2143,-296.426,0.00150282,0.00330267,0.00577151,-0.000128969,-0.000143576,-0.000219424,8.32724e-05,-0.000355818,-0.768762,0.000403944,-0.419673,1.46722,-3.36489,0.106505,0.00043372,0.00186471,0.00202952,363,611,-0.00963874,-0.0977004,104.713,134.571,104.623,134.648,5.06566e-05,5.05255e-05,0.000173879
-6.92373,4.2038,-296.359,0.0014967,0.00324032,0.00566682,-0.000173206,-0.000161087,-0.000222595,5.55317e-05,-0.000389824,-0.799006,0.00042035,-0.368661,1.49291,-3.20485,0.110991,0.0061598,0.00378916,0.00194619,370,611,-0.00881857,-0.0965527,106.588,135.238,106.5,135.313,5.00435e-05,4.98402e-05,0.000172457
-6.62212,4.19367,-296.287,0.00142648,0.00316533,0.00539964,-0.000213133,-0.000175522,-0.000222992,2.94563e-05,-0.000418111,-0.827465,0.00043359,-0.346417,1.53829,-3.12633,0.112355,0.0123325,0.00611665,0.001943,377,611,-0.00838863,-0.0964111,108.546,135.896,108.462,135.968,5.10766e-05,4.90043e-05,0.000176542
-6.31748,4.18338,-296.203,0.0013697,0.00310267,0.00496782,-0.000247236,-0.00018503,-0.000221408,7.44905e-06,-0.000439715,-0.855181,0.000443487,-0.313098,1.54138,-3.11034,0.111337,0.0179305,0.00922161,0.0020151,384,611,-0.0064286,-0.097439,110.672,136.577,110.593,136.645,5.31059e-05,4.8849e-05,0.000183447
-6.01482,4.17244,-296.126,0.00133791,0.00308833,0.00466147,-0.000275706,-0.000188579,-0.000219119,-8.73445e-06,-0.00045555,-0.883525,0.000451246,-0.272502,1.51788,-3.15555,0.106667,0.0229907,0.012881,0.00204091,391,611,-0.00484452,-0.0994138,112.699,137.284,112.623,137.35,5.40444e-05,4.88811e-05,0.000186772
-5.71437,4.16197,-296.054,0.00129734,0.00309022,0.00427294,-0.00029955,-0.000184993,-0.000216962,-1.78766e-05,-0.000466667,-0.914455,0.00045799,-0.219487,1.52943,-3.09168,0.0989227,0.0263838,0.016329,0.00208123,398,611,-0.00289454,-0.101344,114.612,137.956,114.539,138.021,5.55216e-05,5.01864e-05,0.000191754
-5.41831,4.15122,-295.997,0.0012371,0.00309346,0.00416392,-0.000318494,-0.000175426,-0.000214799,-2.05625e-05,-0.000473357,-0.946136,0.000463418,-0.185865,1.57077,-2.93641,0.0887287,0.0279593,0.0193959,0.00216511,405,611,-0.00351719,-0.102634,116.292,138.623,116.223,138.687,5.78733e-05,5.19731e-05,0.000199699
-5.12688,4.14086,-295.955,0.00113853,0.00307093,0.00414135,-0.000331535,-0.000160147,-0.000213402,-1.58763e-05,-0.000475806,-0.976324,0.00046807,-0.157593,1.61785,-2.73522,0.0757741,0.0278594,0.0205345,0.0022356,412,611,-0.00571576,-0.103177,117.725,139.251,117.659,139.314,5.94927e-05,5.31669e-05,0.000205064
-4.83824,4.12991,-295.921,0.00103852,0.00301193,0.00410676,-0.000341024,-0.000141006,-0.000212018,-6.59375e-06,-0.000475437,-1.00577,0.000472174,-0.119489,1.62646,-2.56211,0.0625195,0.0257916,0.0208492,0.00223757,419,611,-0.00782616,-0.102914,119.007,139.899,118.944,139.958,5.92929e-05,5.24705e-05,0.000204223
-4.5518,4.11906,-295.895,0.000931305,0.00294145,0.0041128,-0.000349271,-0.000119557,-0.000210154,5.07887e-06,-0.000473907,-1.03549,0.000476466,-0.0878929,1.57732,-2.48339,0.0514178,0.0214532,0.0200162,0.00216589,426,611,-0.0104145,-0.103068,120.171,140.532,120.111,140.588,5.71853e-05,5.05433e-05,0.000196846
-4.26535,4.10836,-295.868,0.000887126,0.00291262,0.0039782,-0.000355311,-9.77962e-05,-0.000207011,1.72331e-05,-0.000470341,-1.06361,0.00047919,-0.0624307,1.53775,-2.61585,0.0436241,0.0153246,0.0177683,0.00208647,433,611,-0.0104377,-0.104332,121.339,141.158,121.281,141.211,5.49501e-05,4.86914e-05,0.000189031
-3.97884,4.09763,-295.84,0.000856337,0.00287383,0.00363522,-0.000359324,-7.69292e-05,-0.000201024,2.75301e-05,-0.000463783,-1.09156,0.000478143,-0.100816,1.53017,-2.79262,0.0379494,0.00837684,0.0135367,0.00208767,440,611,-0.00858749,-0.104583,122.51,141.785,122.456,141.837,5.51399e-05,4.86737e-05,0.00018966
-3.6913,4.08696,-295.807,0.000804224,0.00276232,0.00322747,-0.000361712,-5.79674e-05,-0.000191856,3.48519e-05,-0.000454531,-1.1202,0.000472921,-0.163846,1.5546,-3.0326,0.0332335,0.00179128,0.00839872,0.00211381,447,611,-0.00673536,-0.103143,123.74,142.418,123.69,142.466,5.58617e-05,4.97119e-05,0.000192123
-3.40221,4.07657,-295.769,0.000727767,0.00260705,0.00287279,-0.000364711,-4.14617e-05,-0.000180035,3.88542e-05,-0.000445027,-1.15118,0.000465671,-0.202123,1.56359,-3.03504,0.0296907,-0.00383688,0.0031353,0.0021385,454,611,-0.00584632,-0.100271,125.059,143.045,125.015,143.088,5.67048e-05,5.15795e-05,0.000194987
-3.10988,4.06614,-295.719,0.000671003,0.00247642,0.0025695,-0.000369435,-3.03049e-05,-0.00016644,3.77315e-05,-0.000437472,-1.18275,0.000457506,-0.199777,1.56136,-2.89526,0.0282477,-0.00784782,-0.00143786,0.00211762,461,611,-0.0048622,-0.0965673,126.563,143.69,126.523,143.73,5.63809e-05,5.18672e-05,0.000193785
-2.81416,4.05582,-295.657,0.000640561,0.00241129,0.00228651,-0.000373826,-2.37638e-05,-0.000151255,3.25357e-05,-0.000430126,-1.21447,0.000447282,-0.197266,1.54725,-2.63953,0.0283738,-0.0113261,-0.00568051,0.00206464,468,611,-0.00344065,-0.0938542,128.262,144.344,128.225,144.383,5.53373e-05,5.0668e-05,0.000190159
-2.5169,4.04567,-295.588,0.000585697,0.00237403,0.00181463,-0.000376551,-2.07567e-05,-0.000133908,2.40092e-05,-0.000421317,-1.24817,0.00043382,-0.210899,1.53314,-2.38135,0.0275798,-0.0147441,-0.00994129,0.0020011,475,611,-0.00131803,-0.0924184,130.052,144.997,130.02,145.036,5.34919e-05,4.88795e-05,0.000183873
-2.21969,4.03534,-295.518,0.000511939,0.00236818,0.00139014,-0.000375615,-1.95282e-05,-0.000114949,1.43546e-05,-0.000409498,-1.28415,0.00041686,-0.240848,1.5499,-2.21766,0.0239762,-0.0170186,-0.0149087,0.0019828,482,611,-8.78562e-05,-0.0938292,131.845,145.662,131.819,145.7,5.21725e-05,4.8678e-05,0.000179296
-1.9248,4.0246,-295.456,0.000417857,0.00238738,0.00102167,-0.000368747,-1.95178e-05,-9.58025e-05,5.03681e-06,-0.000393301,-1.31989,0.000395844,-0.250794,1.54188,-2.19939,0.0175099,-0.0171925,-0.0208341,0.00198112,489,611,0.000175458,-0.0964418,133.514,146.339,133.493,146.376,5.13285e-05,4.98055e-05,0.000176118
-1.63165,4.01395,-295.399,0.00034762,0.00243848,0.000985599,-0.000355646,-2.01462e-05,-7.74717e-05,-3.12082e-06,-0.000372671,-1.35447,0.000371121,-0.231541,1.53637,-2.26456,0.00819957,-0.0161184,-0.0269813,0.00207644,496,611,-0.00138121,-0.0985953,135.093,147.002,135.074,147.04,5.32723e-05,5.25316e-05,0.000182386
-1.33631,4.00374,-295.334,0.000320222,0.00246307,0.000869673,-0.000338882,-2.15939e-05,-6.0739e-05,-1.0364e-05,-0.000350112,-1.38797,0.000345047,-0.199323,1.57764,-2.38594,-0.00587461,-0.0138559,-0.033423,0.0022191,503,611,-0.00125099,-0.0993496,136.804,147.655,136.787,147.693,5.55263e-05,5.57972e-05,0.000189895
-1.04097,3.99301,-295.267,0.000251574,0.00244624,0.00075528,-0.000319273,-2.28262e-05,-4.49668e-05,-1.61554e-05,-0.000325943,-1.42352,0.000318174,-0.165163,1.63173,-2.51442,-0.026165,-0.0123756,-0.0415386,0.00230886,510,611,-0.00212796,-0.098504,138.52,148.336,138.506,148.375,5.66335e-05,5.80669e-05,0.000193398
-0.744975,3.98274,-295.198,0.00016794,0.00238688,0.000527203,-0.000296114,-2.28538e-05,-2.92423e-05,-1.97595e-05,-0.000299208,-1.46537,0.000289834,-0.126797,1.67213,-2.6768,-0.0485511,-0.0116525,-0.0510383,0.00232402,517,611,-0.00254301,-0.0974549,140.279,149.001,140.269,149.038,5.70158e-05,5.85995e-05,0.000194251
-0.448996,3.97243,-295.127,9.65709e-05,0.00232214,0.000289839,-0.000268677,-2.02858e-05,-1.48413e-05,-1.94021e-05,-0.00026956,-1.51133,0.000260402,-0.0996874,1.65233,-2.83325,-0.0719797,-0.010758,-0.0622019,0.00228326,524,611,-0.00259728,-0.0973283,142.045,149.67,142.039,149.704,5.69806e-05,5.75433e-05,0.000193776
-0.155824,3.96183,-295.066,1.77725e-05,0.00227599,3.68075e-05,-0.000237823,-1.80375e-05,-4.77261e-07,-1.80364e-05,-0.000237824,-1.56862,0.000229339,-0.0765718,1.59408,-2.93065,-0.0987064,-0.00835828,-0.0729945,0.0022639,531,611,-0.00276924,-0.0985438,143.656,150.343,143.655,150.373,5.76785e-05,5.6143e-05,0.000195801
0.136117,3.95159,-295.008,-2.67736e-05,0.00228876,-0.000129216,-0.000206972,-1.36851e-05,1.618e-05,-1.234e-05,-0.000208317,1.48786,0.00020243,-0.102466,1.51933,-2.83804,-0.124853,-0.00487934,-0.0844236,0.00225978,538,611,-0.0027431,-0.0991253,145.205,150.987,145.207,151.018,5.83433e-05,5.5883e-05,0.000197771
0.427279,3.94125,-294.953,-2.386e-05,0.0023039,-0.000192552,-0.000177576,-6.90454e-06,3.5931e-05,3.51443e-07,-0.000184832,1.37153,0.000185008,-0.163066,1.47978,-2.67779,-0.149451,-5.20413e-05,-0.0973378,0.00232578,545,611,-0.00222187,-0.0973483,146.718,151.633,146.72,151.667,6.01396e-05,5.81404e-05,0.000203468
0.717857,3.93095,-294.898,1.374e-05,0.00231342,-0.000219217,-0.000148454,3.39833e-06,5.97703e-05,2.41017e-05,-0.000169157,1.23735,0.000182406,-0.256806,1.46489,-2.71913,-0.171443,0.00639064,-0.112643,0.00241993,552,611,-0.00106669,-0.0947364,148.204,152.274,148.205,152.311,6.2673e-05,6.13229e-05,0.00021193
1.00722,3.92047,-294.847,-3.11099e-05,0.00231576,-0.00026083,-0.000119299,1.8644e-05,8.73653e-05,6.09818e-05,-0.000161637,1.11954,0.000199254,-0.346302,1.46345,-2.89305,-0.189067,0.0143039,-0.128785,0.00253601,559,611,-0.00191086,-0.0937003,149.623,152.922,149.626,152.96,6.66379e-05,6.42996e-05,0.000225418
1.29587,3.91008,-294.798,-9.07846e-05,0.0023891,-0.000381957,-9.42536e-05,3.99523e-05,0.000115908,0.00010678,-0.000161081,1.04779,0.000233558,-0.390049,1.43743,-3.16107,-0.200266,0.023325,-0.144012,0.00257457,566,611,-0.00267114,-0.0957031,151.005,153.562,151.01,153.602,6.90306e-05,6.42164e-05,0.000233007
1.58425,3.89986,-294.749,-0.000149466,0.0024451,-0.000447414,-7.60217e-05,6.72041e-05,0.000142569,0.000155135,-0.000163953,1.01814,0.000276374,-0.369121,1.38538,-3.2552,-0.202242,0.0322937,-0.160249,0.00266055,573,611,-0.00378616,-0.0977443,152.379,154.194,152.386,154.235,7.12458e-05,6.41753e-05,0.000240133
0,0,0,0,0,0,0,0,0,0,0,0,0,0,0,0,0,0,0,-1,580,611,0,0,0,0,0,0,0,0,0
0,0,0,0,0,0,0,0,0,0,0,0,0,0,0,0,0,0,0,-1,587,611,0,0,0,0,0,0,0,0,0
0,0,0,0,0,0,0,0,0,0,0,0,0,0,0,0,0,0,0,-1,594,611,0,0,0,0,0,0,0,0,0
0,0,0,0,0,0,0,0,0,0,0,0,0,0,0,0,0,0,0,-1,601,611,0,0,0,0,0,0,0,0,0
0,0,0,0,0,0,0,0,0,0,0,0,0,0,0,0,0,0,0,-1,62,618,0,0,0,0,0,0,0,0,0
0,0,0,0,0,0,0,0,0,0,0,0,0,0,0,0,0,0,0,-1,69,618,0,0,0,0,0,0,0,0,0
0,0,0,0,0,0,0,0,0,0,0,0,0,0,0,0,0,0,0,-1,76,618,0,0,0,0,0,0,0,0,0
0,0,0,0,0,0,0,0,0,0,0,0,0,0,0,0,0,0,0,-1,83,618,0,0,0,0,0,0,0,0,0
0,0,0,0,0,0,0,0,0,0,0,0,0,0,0,0,0,0,0,-1,90,618,0,0,0,0,0,0,0,0,0
-18.4644,4.35858,-297.925,0.00028218,0.00288895,3.40583e-05,-0.000260609,-5.99199e-05,1.54467e-05,-5.87379e-05,-0.000261791,1.49443,0.000237923,-0.22226,1.37316,-3.69846,-0.0197062,0.0114762,0.00362178,0.00213149,97,618,0.00347334,-0.0778182,43.4586,110.827,43.4469,110.909,5.5712e-05,5.31082e-05,0.000198791
-18.1814,4.34752,-297.933,0.000179208,0.00289315,0.000189451,-0.000173585,-6.83688e-05,6.50829e-06,-6.79678e-05,-0.000173986,1.50925,0.000151873,-0.244031,1.34924,-3.70798,-0.030478,0.0051543,0.0119457,0.00215308,104,618,-0.000327374,-0.0781066,44.4385,111.418,44.4287,111.499,5.63448e-05,5.35899e-05,0.000199851
-17.8967,4.33628,-297.935,0.000113836,0.00293874,0.000460615,-0.000101311,-7.4505e-05,-4.10882e-07,-7.44987e-05,-0.000101317,-1.55547,9.09241e-05,-0.269585,1.32447,-3.7845,-0.0310344,0.00179669,0.0189815,0.00219001,111,618,-0.00418704,-0.0788168,45.5023,112.024,45.4924,112.106,5.58006e-05,5.5175e-05,0.000196223
-17.6099,4.32477,-297.931,0.000111222,0.0030017,0.000767088,-4.52904e-05,-7.95147e-05,-6.46207e-06,-4.41109e-05,-8.06942e-05,-0.180537,6.99845e-05,-0.309208,1.305,-3.83028,-0.0239408,6.49306e-05,0.0232739,0.00216621,118,618,-0.00680729,-0.0800776,46.6608,112.651,46.6488,112.735,5.44573e-05,5.45446e-05,0.000190147
-17.3193,4.31352,-297.914,0.000134107,0.00305264,0.00119099,-1.53661e-06,-8.33798e-05,-1.22545e-05,2.58897e-07,-8.51753e-05,-0.145482,8.53051e-05,-0.320953,1.3014,-3.88617,-0.00949041,-0.000177926,0.024696,0.00214574,125,618,-0.00973495,-0.0811519,48.0071,113.282,47.9915,113.367,5.31741e-05,5.37768e-05,0.000185098
-17.0258,4.30228,-297.889,0.000223069,0.00307472,0.00160689,3.3601e-05,-8.61272e-05,-1.8041e-05,3.62604e-05,-8.87865e-05,-0.146354,0.000111433,-0.346874,1.31718,-3.81028,0.0100739,0.000973509,0.0232404,0.00208602,132,618,-0.0109429,-0.0827351,49.4991,113.926,49.4781,114.01,5.25364e-05,5.11241e-05,0.000183032
-16.7318,4.29131,-297.862,0.000285955,0.00310453,0.00202392,6.06228e-05,-8.79379e-05,-2.46705e-05,6.46126e-05,-9.19276e-05,-0.160332,0.000136254,-0.341801,1.35082,-3.76962,0.028267,0.00286534,0.0202654,0.00206151,139,618,-0.0127955,-0.0849911,51.0119,114.559,50.9864,114.643,5.38549e-05,4.85275e-05,0.000186986
-16.439,4.28053,-297.838,0.000283448,0.00315807,0.00222039,7.70064e-05,-8.8257e-05,-3.01727e-05,8.23428e-05,-9.35934e-05,-0.175052,0.000152469,-0.325361,1.41907,-3.6609,0.0425198,0.00670377,0.0152493,0.00206612,146,618,-0.0144724,-0.087232,52.4573,115.176,52.4304,115.26,5.43353e-05,4.79163e-05,0.000189108
-16.1469,4.26957,-297.816,0.000220081,0.00317904,0.00243765,9.01165e-05,-8.81005e-05,-3.39355e-05,9.63596e-05,-9.43437e-05,-0.181938,0.000165157,-0.322959,1.45678,-3.59186,0.0505915,0.0106484,0.00843486,0.00204471,153,618,-0.0177631,-0.0881075,53.8664,115.801,53.8397,115.885,5.34645e-05,4.81111e-05,0.000187176
-15.8558,4.25849,-297.796,0.000139246,0.00319312,0.00259819,9.8981e-05,-8.48792e-05,-3.64105e-05,0.000105929,-9.18272e-05,-0.188556,0.000171407,-0.323615,1.47544,-3.52826,0.0530119,0.0150075,0.000127837,0.00199796,160,618,-0.0210062,-0.0882443,55.2252,116.429,55.1997,116.513,5.20896e-05,4.82739e-05,0.000183123
-15.5637,4.24721,-297.772,7.43896e-05,0.00318989,0.0029063,0.0001061,-7.88626e-05,-3.74858e-05,0.000113408,-8.61709e-05,-0.192548,0.000173376,-0.301883,1.46876,-3.45877,0.0501179,0.0189105,-0.00841421,0.00197622,167,618,-0.0250211,-0.0882403,56.6376,117.073,56.6117,117.156,5.05818e-05,4.87298e-05,0.000177953
-15.2679,4.23651,-297.737,8.6088e-05,0.00321648,0.00324493,0.000109553,-6.90282e-05,-3.41924e-05,0.000115876,-7.5351e-05,-0.182854,0.000166843,-0.235632,1.46418,-3.39502,0.041312,0.023206,-0.0159676,0.00196046,174,618,-0.0274254,-0.0894036,58.2296,117.702,58.201,117.785,5.04051e-05,4.8936e-05,0.000176685
-14.97,4.22601,-297.695,0.000175712,0.00320009,0.0034644,0.000108296,-5.64206e-05,-2.63004e-05,0.000112393,-6.05181e-05,-0.154553,0.000151976,-0.165845,1.43704,-3.30698,0.0258968,0.0281663,-0.0223071,0.00193143,181,618,-0.0269042,-0.0896938,59.9323,118.331,59.8995,118.413,4.97747e-05,4.88469e-05,0.000173962
-14.6715,4.21556,-297.651,0.000280651,0.00319575,0.00366229,0.000106676,-4.17035e-05,-1.52127e-05,0.00010822,-4.32471e-05,-0.101124,0.000135137,-0.131705,1.39966,-3.232,0.00304617,0.0332965,-0.0259763,0.00189893,188,618,-0.0258396,-0.0905439,61.6589,118.96,61.6218,119.041,4.86885e-05,4.8519e-05,0.000170192
-14.3741,4.20433,-297.61,0.000281772,0.0031683,0.00379641,0.000110516,-2.52868e-05,-1.21638e-06,0.000110527,-2.52977e-05,-0.00895598,0.000125109,-0.149946,1.39947,-3.16589,-0.0238466,0.0375946,-0.0261691,0.00192814,195,618,-0.0267708,-0.0890396,63.3336,119.627,63.2954,119.708,4.75551e-05,4.95168e-05,0.000166636
-14.0794,4.19228,-297.576,0.000236866,0.00315468,0.00399724,0.000121002,-6.6071e-06,1.52837e-05,0.000122807,-8.41208e-06,0.117554,0.000127222,-0.225863,1.39702,-3.02716,-0.048928,0.0399897,-0.0224718,0.00197633,202,618,-0.029363,-0.0867873,64.8675,120.323,64.829,120.405,4.80043e-05,5.07583e-05,0.000169012
-13.7878,4.18051,-297.551,0.00022497,0.00318364,0.0043646,0.000138212,1.21653e-05,3.29429e-05,0.000146303,4.07481e-06,0.240825,0.000144308,-0.309896,1.40203,-2.95961,-0.069622,0.0409096,-0.0155229,0.00199867,209,618,-0.0324964,-0.0854293,66.2513,120.992,66.2103,121.076,5.0188e-05,5.13371e-05,0.000177173
-13.4973,4.16953,-297.53,0.000253705,0.00323122,0.00474936,0.000157839,2.91202e-05,5.13497e-05,0.000175814,1.11453e-05,0.336717,0.000170514,-0.372282,1.38926,-2.91892,-0.0841835,0.0409328,-0.00728865,0.00200859,216,618,-0.0347872,-0.0860403,67.576,121.617,67.5312,121.702,5.32572e-05,5.13892e-05,0.000187107
-13.2065,4.15914,-297.506,0.000322073,0.00332434,0.00505761,0.000174881,4.29323e-05,6.77508e-05,0.000203473,1.43404e-05,0.39934,0.000196696,-0.417948,1.40585,-2.88491,-0.0928562,0.0399946,0.00124531,0.00202669,223,618,-0.0355438,-0.0889198,68.9233,122.212,68.8742,122.299,5.39791e-05,5.09513e-05,0.000188722
-12.9146,4.14887,-297.48,0.000342607,0.00340839,0.00514517,0.00019003,5.29762e-05,7.92332e-05,0.000226259,1.6747e-05,0.428865,0.000218368,-0.447495,1.42762,-2.8362,-0.0958854,0.0367777,0.00989936,0.00200464,230,618,-0.0357303,-0.0921053,70.3199,122.807,70.2694,122.896,5.33278e-05,5.08982e-05,0.000185751
-12.62,4.13844,-297.444,0.000331595,0.00345242,0.00519996,0.000208331,5.74329e-05,8.40459e-05,0.000245826,1.99383e-05,0.419623,0.000236488,-0.498032,1.45214,-2.77637,-0.0935429,0.032087,0.0176597,0.00198564,237,618,-0.0363857,-0.0936055,71.8507,123.424,71.7999,123.513,5.09971e-05,5.11612e-05,0.000177218
-12.3227,4.12763,-297.399,0.000326428,0.00345565,0.00523852,0.000234579,5.60009e-05,8.23273e-05,0.000266741,2.3839e-05,0.372428,0.000255656,-0.558041,1.49985,-2.77175,-0.0860742,0.026087,0.0232665,0.00201198,244,618,-0.0367136,-0.0929929,73.5196,124.072,73.4686,124.162,5.14445e-05,5.1581e-05,0.0001779
-12.0244,4.11683,-297.35,0.000389469,0.00350332,0.00535343,0.000264977,4.88552e-05,7.50375e-05,0.000288475,2.5357e-05,0.303479,0.000276669,-0.568517,1.56249,-2.82981,-0.073513,0.0183808,0.0271234,0.00203519,251,618,-0.035995,-0.0931691,75.2452,124.724,75.1913,124.816,5.30652e-05,5.15642e-05,0.000182961
-11.726,4.10576,-297.3,0.000488463,0.00351795,0.00551192,0.000291755,3.79889e-05,6.24409e-05,0.000306287,2.34571e-05,0.228659,0.000295258,-0.575346,1.61333,-2.87759,-0.059119,0.0108945,0.0287998,0.0020406,258,618,-0.0346857,-0.0925916,76.9826,125.394,76.9245,125.487,5.39065e-05,5.07903e-05,0.000185824
-11.427,4.09473,-297.248,0.000639942,0.00355848,0.00571194,0.000310545,2.4114e-05,4.47203e-05,0.000317365,1.72943e-05,0.151333,0.000309081,-0.562244,1.60988,-2.99327,-0.0455605,0.00448023,0.0285936,0.00201877,265,618,-0.0324226,-0.0929234,78.7494,126.063,78.6854,126.158,5.39017e-05,4.92725e-05,0.0001861
-11.1274,4.08375,-297.193,0.000736623,0.00359944,0.00562283,0.00032125,8.53884e-06,2.35822e-05,0.000323018,6.77044e-06,0.0748482,0.000319686,-0.545713,1.58046,-3.01568,-0.0337998,-0.000241969,0.0268755,0.00197161,272,618,-0.0292744,-0.0940883,80.547,126.735,80.4808,126.831,5.2806e-05,4.74261e-05,0.000182252
-10.8276,4.07293,-297.137,0.000809957,0.00361167,0.00551768,0.000324884,-7.78684e-06,4.04897e-07,0.000324885,-7.78734e-06,0.00121711,0.000328848,-0.522808,1.56287,-3.00062,-0.0245095,-0.00399886,0.0244331,0.00191548,279,618,-0.0265503,-0.0945655,82.3587,127.401,82.2911,127.498,5.11876e-05,4.63288e-05,0.000176547
-10.5282,4.06229,-297.081,0.000886139,0.00360952,0.00549896,0.000321568,-2.3073e-05,-2.26884e-05,0.000323056,-2.45602e-05,-0.0654553,0.00033601,-0.515748,1.58852,-3.00286,-0.0166157,-0.00733465,0.0214395,0.00188642,286,618,-0.0244104,-0.0949137,84.1506,128.058,84.0808,128.154,4.99599e-05,4.72511e-05,0.000172341
-10.2294,4.05165,-297.027,0.00101817,0.00361132,0.00568479,0.00031003,-3.60447e-05,-4.47856e-05,0.000315732,-4.17464e-05,-0.126631,0.000338541,-0.539073,1.59821,-3.12653,-0.00877713,-0.00964307,0.0172457,0.00189506,293,618,-0.022463,-0.0955139,85.9198,128.713,85.8448,128.808,4.89085e-05,4.86113e-05,0.000168834
-9.93106,4.04096,-296.974,0.00114259,0.00361559,0.00598272,0.000289982,-4.66112e-05,-6.71521e-05,0.000302885,-5.95138e-05,-0.189826,0.000336611,-0.566176,1.60069,-3.22613,-0.00156299,-0.0102477,0.0114226,0.00192741,300,618,-0.0215604,-0.0965224,87.667,129.371,87.5862,129.465,4.90418e-05,4.96411e-05,0.000169404
-9.63251,4.03005,-296.919,0.00126019,0.0036271,0.00619673,0.000262181,-5.4758e-05,-8.95331e-05,0.000285725,-7.83016e-05,-0.257138,0.000331877,-0.572709,1.61319,-3.18682,0.00649381,-0.00959565,0.0062365,0.00198711,307,618,-0.0201663,-0.0965316,89.4276,130.041,89.3418,130.135,4.96282e-05,5.11954e-05,0.000171815
-9.3333,4.01924,-296.861,0.00133891,0.00357305,0.00637275,0.000226429,-5.9938e-05,-0.000110707,0.000264236,-9.77447e-05,-0.329086,0.000324349,-0.578531,1.60877,-3.10742,0.0178562,-0.00901782,0.00270076,0.00206198,314,618,-0.0193664,-0.0949969,91.2252,130.711,91.1357,130.804,5.08676e-05,5.29696e-05,0.00017626
-9.03282,4.00884,-296.798,0.00137507,0.00349025,0.00632477,0.000185294,-6.42347e-05,-0.000130866,0.000241339,-0.00012028,-0.404632,0.000318967,-0.564701,1.60566,-3.06463,0.030481,-0.00926277,0.000417669,0.0020764,321,618,-0.017896,-0.0945244,93.0905,131.37,93.0004,131.459,5.22276e-05,5.34021e-05,0.000180618
-8.73103,3.99863,-296.731,0.00140196,0.00345436,0.00624982,0.000141139,-7.03488e-05,-0.000149384,0.000218418,-0.000147628,-0.477406,0.000318975,-0.531579,1.61535,-3.06486,0.0418276,-0.0101285,-0.00231824,0.00204384,328,618,-0.0165033,-0.0952599,95.0287,132.024,94.9384,132.111,5.25478e-05,5.26687e-05,0.000181304
-8.42857,3.9884,-296.66,0.00141444,0.00344216,0.00607405,9.41519e-05,-8.02452e-05,-0.00016584,0.000194321,-0.000180414,-0.543362,0.000324604,-0.501586,1.59434,-3.17414,0.0532112,-0.0110729,-0.0060333,0.00201135,335,618,-0.0147286,-0.0962232,97.006,132.683,96.9166,132.769,5.19337e-05,5.05619e-05,0.000178863
-8.1269,3.97805,-296.591,0.00147744,0.00350113,0.00611354,4.22328e-05,-9.41549e-05,-0.000179948,0.000166475,-0.000218397,-0.604277,0.000334318,-0.489948,1.57507,-3.26252,0.0673087,-0.0125896,-0.00978443,0.00200996,342,618,-0.0134007,-0.0982663,98.9498,133.344,98.8582,133.43,5.11021e-05,4.98182e-05,0.000175737
-7.82745,3.96714,-296.529,0.00154277,0.0034878,0.00617276,-1.42683e-05,-0.000112166,-0.000192964,0.000135859,-0.000262293,-0.661184,0.000350556,-0.485452,1.52227,-3.37894,0.0833472,-0.0135959,-0.0116866,0.00202656,349,618,-0.0120786,-0.0982616,100.779,134.026,100.685,134.112,5.02233e-05,4.98208e-05,0.000172482
-7.52917,3.95645,-296.47,0.0016178,0.00343052,0.00627585,-7.07539e-05,-0.000132114,-0.000204077,0.000104936,-0.000307804,-0.710789,0.000371557,-0.455533,1.46723,-3.36542,0.0966079,-0.0129038,-0.0120788,0.00204061,356,618,-0.0108027,-0.0981643,102.551,134.696,102.454,134.778,5.01048e-05,4.99244e-05,0.000171972
-7.23307,3.94596,-296.417,0.00161952,0.00334836,0.00617016,-0.000124109,-0.000152813,-0.000212809,7.48312e-05,-0.000351754,-0.751729,0.000394528,-0.417667,1.46457,-3.22141,0.105492,-0.0100039,-0.0105095,0.0020032,363,618,-0.00975504,-0.0975787,104.208,135.347,104.112,135.426,5.03045e-05,4.97925e-05,0.000173092
-6.93702,3.93543,-296.364,0.00159128,0.00327896,0.00595152,-0.000172049,-0.000171376,-0.000218608,4.68953e-05,-0.00039032,-0.786169,0.000415756,-0.358996,1.49713,-3.04341,0.110217,-0.00502518,-0.00758526,0.00191793,370,618,-0.00862593,-0.097227,105.864,135.999,105.77,136.076,5.02067e-05,4.90495e-05,0.00017348
-6.63984,3.92531,-296.306,0.00150869,0.00324489,0.0055857,-0.000214806,-0.000185798,-0.000221547,2.1719e-05,-0.000422323,-0.818085,0.00043359,-0.323694,1.52639,-2.96712,0.111997,0.00136686,-0.00328888,0.00196991,377,618,-0.00780967,-0.0985673,107.583,136.637,107.494,136.711,5.16028e-05,4.83108e-05,0.000178749
-6.34156,3.91518,-296.244,0.00146848,0.00322785,0.00517353,-0.000251662,-0.000193804,-0.000222436,1.57571e-06,-0.000447042,-0.850064,0.000447832,-0.299947,1.54095,-3.03033,0.111813,0.00795559,0.00244266,0.00202761,384,618,-0.00562492,-0.100599,109.366,137.282,109.282,137.353,5.34859e-05,4.75463e-05,0.000185076
-6.0427,3.90447,-296.179,0.00142582,0.00324868,0.00490536,-0.000282737,-0.000194596,-0.000222739,-1.16099e-05,-0.000465723,-0.883066,0.000460028,-0.26756,1.53728,-3.07614,0.107729,0.0149086,0.0090705,0.00206015,391,618,-0.00463425,-0.103914,111.185,137.96,111.104,138.03,5.4708e-05,4.77051e-05,0.000189088
-5.74385,3.89381,-296.114,0.00136908,0.00323619,0.00455487,-0.00030856,-0.000187338,-0.000223683,-1.61996e-05,-0.000479699,-0.917705,0.000471807,-0.223466,1.53483,-3.0354,0.0999905,0.0204246,0.0154756,0.00207594,398,618,-0.00335105,-0.105618,113.008,138.637,112.931,138.705,5.5259e-05,4.91155e-05,0.000190792
-5.44684,3.88317,-296.053,0.00127332,0.00318462,0.00431387,-0.000328647,-0.000173775,-0.000224446,-1.37823e-05,-0.00048864,-0.951509,0.000481897,-0.192337,1.55378,-2.92619,0.0891887,0.024309,0.0215633,0.00211243,405,618,-0.0038195,-0.105546,114.736,139.306,114.664,139.372,5.63238e-05,5.08014e-05,0.000194381
-5.15303,3.87286,-296.003,0.00116269,0.00310716,0.00425356,-0.000342292,-0.000154647,-0.000225432,-4.29232e-06,-0.000492646,-0.98259,0.000490514,-0.177598,1.57543,-2.73972,0.0752289,0.0263109,0.0248259,0.00212581,412,618,-0.00597201,-0.104198,116.296,139.945,116.228,140.008,5.68253e-05,5.18471e-05,0.000196048
-4.86149,3.8622,-295.96,0.00106663,0.00301273,0.00422763,-0.000352235,-0.000132404,-0.000225432,8.48153e-06,-0.00049312,-1.01223,0.000497415,-0.145462,1.59252,-2.65505,0.0619185,0.0257144,0.0267047,0.00211218,419,618,-0.00800014,-0.102555,117.735,140.593,117.67,140.652,5.62583e-05,5.17682e-05,0.000194008
-4.57184,3.85151,-295.923,0.00100329,0.00294156,0.00429141,-0.000360859,-0.000109312,-0.000224084,2.18826e-05,-0.000492054,-1.04113,0.000503352,-0.10768,1.56949,-2.63024,0.0522802,0.0217121,0.0267228,0.00209759,426,618,-0.00990734,-0.102641,119.076,141.234,119.012,141.29,5.53276e-05,5.10128e-05,0.000190561
-4.28437,3.84085,-295.892,0.000949173,0.00291623,0.00414596,-0.000368116,-8.75064e-05,-0.000220697,3.37087e-05,-0.000489331,-1.06854,0.000507027,-0.0826351,1.55244,-2.75598,0.0469823,0.0152131,0.0244792,0.00208811,433,618,-0.0101028,-0.104315,120.299,141.863,120.238,141.917,5.48318e-05,5.01283e-05,0.000188656
-3.99795,3.83015,-295.864,0.000913374,0.00288479,0.00378319,-0.000374481,-6.78897e-05,-0.000213933,4.20004e-05,-0.000484371,-1.09628,0.000506678,-0.0967861,1.56343,-2.79769,0.0434725,0.00761449,0.0194081,0.00214198,440,618,-0.0082375,-0.104749,121.465,142.489,121.407,142.541,5.64177e-05,5.04505e-05,0.000194042
-3.71099,3.81954,-295.834,0.000841533,0.00277047,0.00339031,-0.000379111,-5.10555e-05,-0.000203436,4.62427e-05,-0.000476409,-1.12468,0.000501133,-0.164072,1.58316,-2.95664,0.0397819,0.000534528,0.0131487,0.00218997,447,618,-0.0069742,-0.102388,122.661,143.116,122.609,143.164,5.79593e-05,5.0686e-05,0.000199343
-3.4219,3.80905,-295.796,0.00075401,0.00261023,0.00304844,-0.00038377,-3.76496e-05,-0.000189339,4.58037e-05,-0.000467223,-1.15565,0.000491728,-0.222339,1.59663,-2.95211,0.0360689,-0.00507282,0.00646754,0.00223472,454,618,-0.00644382,-0.099035,123.979,143.75,123.932,143.793,5.93541e-05,5.19273e-05,0.000204075
-3.12774,3.79884,-295.74,0.000714405,0.00245152,0.00284125,-0.000390222,-2.96232e-05,-0.000173226,4.01079e-05,-0.000459953,-1.1881,0.000481262,-0.238895,1.60002,-2.88775,0.0340653,-0.00827703,0.000621687,0.00220437,461,618,-0.00569217,-0.0947401,125.585,144.394,125.541,144.434,5.87349e-05,5.17908e-05,0.000201829
-2.82958,3.78902,-295.669,0.00065543,0.00239698,0.0025214,-0.000396715,-2.62774e-05,-0.00015603,3.06841e-05,-0.000453677,-1.22076,0.000469771,-0.225756,1.58835,-2.67849,0.0341943,-0.0107476,-0.00437463,0.00214207,468,618,-0.00472936,-0.0923273,127.42,145.036,127.38,145.075,5.72643e-05,5.04561e-05,0.000196715
-2.53135,3.77897,-295.597,0.00059043,0.00237985,0.00201972,-0.000401461,-2.57383e-05,-0.00013772,1.93356e-05,-0.000446535,-1.2545,0.00045651,-0.214287,1.57323,-2.45389,0.0339201,-0.0127192,-0.00898397,0.00202655,475,618,-0.00266919,-0.0918205,129.264,145.691,129.23,145.731,5.43328e-05,4.8614e-05,0.000186691
-2.2345,3.76883,-295.529,0.000494622,0.00239212,0.00153395,-0.000401413,-2.6014e-05,-0.000119017,8.53898e-06,-0.000435966,-1.28824,0.000440298,-0.211615,1.56743,-2.27888,0.031218,-0.0126259,-0.0140658,0.00197899,482,618,-0.0015669,-0.093435,131.036,146.346,131.008,146.386,5.2226e-05,4.88331e-05,0.000179426
-1.94189,3.75827,-295.475,0.000416277,0.00238938,0.00113649,-0.000393661,-2.70128e-05,-0.000101103,-9.82065e-07,-0.000419692,-1.3188,0.000419202,-0.18824,1.55098,-2.23936,0.0257968,-0.00958242,-0.019946,0.00198733,489,618,-0.000668811,-0.0953028,132.575,147.005,132.553,147.043,5.10071e-05,5.0032e-05,0.000175164
-1.6504,3.74793,-295.424,0.000356196,0.00240348,0.00109306,-0.000378649,-2.84832e-05,-8.43351e-05,-9.23022e-06,-0.000397902,-1.34635,0.000393368,-0.168601,1.52665,-2.3065,0.0173908,-0.0052552,-0.0257387,0.00205672,496,618,-0.00187173,-0.096423,134.061,147.646,134.041,147.684,5.28365e-05,5.22083e-05,0.000181213
-1.35497,3.73784,-295.358,0.000337361,0.00242221,0.000897458,-0.0003602,-3.10408e-05,-6.90428e-05,-1.71453e-05,-0.000374095,-1.37219,0.000365824,-0.138822,1.573,-2.44995,0.00399267,-0.000218795,-0.0315835,0.0021514,503,618,-0.000946453,-0.0970049,135.775,148.295,135.758,148.334,5.46953e-05,5.46629e-05,0.000187305
-1.05787,3.72733,-295.285,0.000280268,0.00243813,0.000685596,-0.000339766,-3.34821e-05,-5.51059e-05,-2.38692e-05,-0.000349379,-1.39809,0.000338077,-0.108347,1.61336,-2.64622,-0.016117,0.00269519,-0.0396593,0.00222375,510,618,-0.00087078,-0.0968921,137.59,148.976,137.576,149.016,5.58077e-05,5.65324e-05,0.000190845
-0.760029,3.71711,-295.209,0.000210317,0.00240379,0.000350854,-0.000316324,-3.49425e-05,-4.16598e-05,-2.89042e-05,-0.000322362,-1.42685,0.000308926,-0.0771373,1.65384,-2.8444,-0.038315,0.00376528,-0.0495575,0.00226237,517,618,-0.000210288,-0.0966082,139.454,149.649,139.445,149.688,5.68666e-05,5.74978e-05,0.000194121
-0.462763,3.70696,-295.134,0.000144463,0.00235671,0.00010238,-0.000288463,-3.42718e-05,-3.06301e-05,-3.0633e-05,-0.000292102,-1.45255,0.000278054,-0.0479222,1.66981,-2.95853,-0.0623947,0.00436217,-0.0617896,0.00227839,524,618,-7.11232e-05,-0.0972854,141.294,150.319,141.289,150.355,5.90292e-05,5.76867e-05,0.000201365
-0.169093,3.69646,-295.071,5.66009e-05,0.00231447,-4.91721e-05,-0.000257447,-3.49658e-05,-1.93145e-05,-3.33014e-05,-0.000259111,-1.48484,0.00024417,-0.0473753,1.62659,-2.98942,-0.0896764,0.00617068,-0.0741736,0.00233976,531,618,-0.00119186,-0.0980351,142.935,150.991,142.933,151.024,6.16381e-05,5.81945e-05,0.000210222
0.122769,3.68605,-295.014,1.91541e-06,0.00230795,-0.000123877,-0.00022756,-3.41191e-05,-5.14965e-06,-3.39821e-05,-0.000227697,-1.5442,0.000212751,-0.0861826,1.5279,-2.83454,-0.116464,0.00812865,-0.0874678,0.00239847,538,618,-0.00204947,-0.0983707,144.479,151.647,144.48,151.68,6.34605e-05,5.90131e-05,0.000216432
0.413732,3.67567,-294.959,1.00478e-05,0.00232331,-0.000139241,-0.000200137,-3.10167e-05,1.27723e-05,-3.00576e-05,-0.000201096,1.49584,0.000187879,-0.139272,1.44294,-2.61019,-0.141957,0.0107652,-0.102495,0.00245132,545,618,-0.00173862,-0.0970384,145.981,152.297,145.981,152.332,6.50023e-05,6.15443e-05,0.000220883
0.70385,3.6653,-294.906,4.30517e-05,0.002325,-0.000198999,-0.000173535,-2.39004e-05,3.51781e-05,-1.60428e-05,-0.000181393,1.35104,0.000173927,-0.218785,1.39637,-2.57392,-0.165559,0.0144767,-0.120034,0.00257089,552,618,-0.00047312,-0.0957324,147.44,152.943,147.44,152.979,6.7582e-05,6.51923e-05,0.000229218
0.991742,3.65521,-294.861,-5.95861e-06,0.00232164,-0.000418613,-0.000147263,-1.02886e-05,6.16673e-05,1.33836e-05,-0.000170935,1.20427,0.000178005,-0.28195,1.42439,-2.67535,-0.186077,0.0193837,-0.138286,0.00263696,559,618,-0.000179299,-0.0956487,148.772,153.565,148.775,153.602,7.05072e-05,6.59241e-05,0.000238899
1.27856,3.64501,-294.818,-8.30142e-05,0.00237492,-0.000586558,-0.000126148,1.17657e-05,8.96754e-05,5.59314e-05,-0.000170314,1.11316,0.00020411,-0.305036,1.46494,-3.03873,-0.201787,0.0257051,-0.155373,0.00264014,566,618,-0.00103817,-0.0975695,150.046,154.188,150.053,154.226,7.18385e-05,6.37119e-05,0.000242691
1.56492,3.63487,-294.777,-0.000124629,0.00241972,-0.000608388,-0.000114597,4.2796e-05,0.000116554,0.000104734,-0.000176534,1.08234,0.000246217,-0.325537,1.46369,-3.35202,-0.209515,0.0322637,-0.17293,0.00265283,573,618,-0.00201844,-0.0997793,151.301,154.807,151.309,154.846,7.24793e-05,6.23642e-05,0.00024411
0,0,0,0,0,0,0,0,0,0,0,0,0,0,0,0,0,0,0,-1,580,618,0,0,0,0,0,0,0,0,0
0,0,0,0,0,0,0,0,0,0,0,0,0,0,0,0,0,0,0,-1,587,618,0,0,0,0,0,0,0,0,0
0,0,0,0,0,0,0,0,0,0,0,0,0,0,0,0,0,0,0,-1,594,618,0,0,0,0,0,0,0,0,0
0,0,0,0,0,0,0,0,0,0,0,0,0,0,0,0,0,0,0,-1,601,618,0,0,0,0,0,0,0,0,0
0,0,0,0,0,0,0,0,0,0,0,0,0,0,0,0,0,0,0,-1,62,625,0,0,0,0,0,0,0,0,0
0,0,0,0,0,0,0,0,0,0,0,0,0,0,0,0,0,0,0,-1,69,625,0,0,0,0,0,0,0,0,0
0,0,0,0,0,0,0,0,0,0,0,0,0,0,0,0,0,0,0,-1,76,625,0,0,0,0,0,0,0,0,0
-18.9661,4.11258,-297.684,0.000426432,0.00290604,-7.94333e-05,0,0,0,0,0,0,0,0,0,0,0,0,0,-1,83,625,0.00794132,-0.0771645,44.4865,110.683,44.4713,110.765,5.4947e-05,5.19574e-05,0.000194748
-18.6962,4.10092,-297.73,0.000362863,0.00292627,-5.86631e-05,0,0,0,0,0,0,0,0,0,0,0,0,0,-1,90,625,0.00617361,-0.0793,44.8475,111.251,44.8341,111.333,5.52063e-05,5.2336e-05,0.000197187
-18.4287,4.08909,-297.783,0.000275812,0.00291845,0.000119093,-0.000282527,-7.8699e-05,8.25141e-06,-7.83655e-05,-0.00028286,1.5304,0.000252952,-0.237284,1.40425,-3.58357,-0.0152737,0.0122309,0.00840495,0.00212338,97,625,0.00257474,-0.0803095,45.0889,111.819,45.0769,111.9,5.60239e-05,5.23948e-05,0.000200502
-18.1641,4.0761,-297.845,0.000177667,0.00293057,0.000249185,-0.000189514,-8.79494e-05,1.89451e-06,-8.7914e-05,-0.000189549,1.55215,0.000164298,-0.274736,1.38128,-3.61832,-0.0264582,0.00365488,0.0167827,0.00212671,104,625,-0.00090967,-0.0808754,45.1774,112.434,45.1673,112.514,5.61426e-05,5.25373e-05,0.000199854
-17.8816,4.06474,-297.854,0.000105441,0.00299055,0.000493682,-0.000112687,-9.51992e-05,-3.46335e-06,-9.45382e-05,-0.000113348,-1.38223,0.000105212,-0.304006,1.34711,-3.69159,-0.0266238,-0.00136359,0.023774,0.002125,111,625,-0.00472938,-0.0814474,46.1371,113.035,46.1273,113.118,5.53524e-05,5.33872e-05,0.000195305
-17.5978,4.05346,-297.858,7.91242e-05,0.00307115,0.000739046,-5.39553e-05,-0.000102327,-9.00732e-06,-5.23325e-05,-0.000103949,-0.178255,9.00235e-05,-0.335781,1.3301,-3.77369,-0.0193426,-0.00443021,0.0278049,0.00209797,118,625,-0.00744069,-0.0821706,47.155,113.636,47.1441,113.722,5.35461e-05,5.30304e-05,0.00018754
-17.3095,4.04259,-297.849,8.14016e-05,0.00312769,0.00115585,-9.07968e-06,-0.000108681,-1.51728e-05,-6.81962e-06,-0.000110941,-0.147868,0.000107693,-0.338266,1.32653,-3.85829,-0.00523061,-0.00567344,0.0288202,0.00206368,125,625,-0.0108269,-0.0837195,48.3921,114.238,48.3782,114.324,5.20776e-05,5.21452e-05,0.000181884
-17.019,4.03173,-297.832,0.00015427,0.00314937,0.00155502,2.62622e-05,-0.000114075,-2.21954e-05,2.96889e-05,-0.000117502,-0.153179,0.00013482,-0.35314,1.34446,-3.86049,0.0137649,-0.00544753,0.026782,0.00203445,132,625,-0.0122971,-0.0855655,49.7364,114.85,49.7178,114.936,5.26812e-05,5.05996e-05,0.000183955
-16.7281,4.0207,-297.814,0.000239122,0.00317241,0.00202061,5.23112e-05,-0.000118118,-3.02516e-05,5.75216e-05,-0.000123328,-0.170563,0.00016004,-0.349951,1.36357,-3.83281,0.0321425,-0.00457947,0.0233074,0.00205658,139,625,-0.0139973,-0.0875614,51.1029,115.474,51.0787,115.559,5.4194e-05,4.98799e-05,0.000189152
-16.4369,4.00972,-297.795,0.000273889,0.00322666,0.00226916,6.74482e-05,-0.000120326,-3.77615e-05,7.47575e-05,-0.000127635,-0.191201,0.00017726,-0.322828,1.41092,-3.69205,0.046962,-0.00127,0.018016,0.00207199,146,625,-0.0151834,-0.0900268,52.4755,116.096,52.4485,116.181,5.48415e-05,4.95964e-05,0.000191702
-16.1449,3.99871,-297.773,0.000235205,0.00325422,0.00253657,8.03822e-05,-0.00012154,-4.39363e-05,8.95281e-05,-0.000130686,-0.20523,0.000191818,-0.304406,1.45201,-3.57098,0.0551293,0.00192694,0.0112416,0.00203616,153,625,-0.0182831,-0.0914627,53.8808,116.723,53.8531,116.807,5.36964e-05,4.94451e-05,0.000188763
-15.8535,3.98763,-297.752,0.000168552,0.00327641,0.00271722,8.95387e-05,-0.000118584,-4.90638e-05,0.000100525,-0.000129571,-0.220289,0.000199798,-0.289784,1.48124,-3.49313,0.056641,0.00566507,0.00305834,0.00195348,160,625,-0.0213486,-0.0919617,55.2592,117.352,55.232,117.437,5.16631e-05,4.87039e-05,0.000182308
-15.5604,3.97649,-297.726,0.000124394,0.00328671,0.00306166,9.8215e-05,-0.000112456,-5.26833e-05,0.000110655,-0.000124896,-0.231883,0.000204118,-0.27198,1.48852,-3.44793,0.0524101,0.00871374,-0.00521661,0.00189287,167,625,-0.0251541,-0.0918003,56.7206,117.992,56.6922,118.077,4.96895e-05,4.80319e-05,0.000175398
-15.2648,3.96601,-297.691,0.000144969,0.00330086,0.00335311,0.000102931,-0.000101701,-5.03963e-05,0.000114669,-0.000113439,-0.228838,0.000197548,-0.232479,1.48167,-3.38074,0.0423299,0.0127256,-0.0124163,0.00187402,174,625,-0.0269449,-0.092583,58.3088,118.609,58.2777,118.694,4.96055e-05,4.77256e-05,0.000174162
-14.9681,3.95553,-297.653,0.000222453,0.00325742,0.00354088,0.000101681,-8.72619e-05,-4.20587e-05,0.00011062,-9.62012e-05,-0.209427,0.000179258,-0.180653,1.42987,-3.26428,0.0256501,0.0182829,-0.0183523,0.00187555,181,625,-0.0264381,-0.0923222,59.9508,119.234,59.9161,119.317,4.92934e-05,4.79227e-05,0.000172519
-14.671,3.94494,-297.613,0.000288812,0.00321617,0.0036668,9.89333e-05,-6.98373e-05,-2.9465e-05,0.00010393,-7.48335e-05,-0.167968,0.000155495,-0.154504,1.38652,-3.1496,0.00146547,0.0248568,-0.0214536,0.00186735,188,625,-0.0257098,-0.0925038,61.612,119.868,61.5746,119.948,4.83465e-05,4.7752e-05,0.000169203
-14.3749,3.9336,-297.575,0.000261799,0.0031582,0.00382048,0.000102175,-5.03624e-05,-1.33245e-05,0.000103331,-5.15176e-05,-0.0864796,0.000136582,-0.160517,1.3622,-3.01034,-0.0268222,0.0310001,-0.0209905,0.00188932,195,625,-0.0274575,-0.0903382,63.2196,120.536,63.1819,120.615,4.73325e-05,4.84249e-05,0.000165998
-14.0806,3.92171,-297.542,0.000205892,0.00315558,0.0041134,0.000113541,-2.82037e-05,6.22147e-06,0.000113814,-2.84763e-05,0.0437797,0.000130405,-0.215633,1.36187,-2.92264,-0.0532085,0.0353655,-0.0166098,0.00192434,202,625,-0.0310628,-0.0882443,64.7366,121.223,64.6982,121.303,4.8362e-05,4.9443e-05,0.000169848
-13.7886,3.91006,-297.516,0.000188271,0.00317907,0.00449009,0.000131996,-6.01221e-06,2.79837e-05,0.000137455,-1.14705e-05,0.192635,0.000143534,-0.285733,1.36757,-2.92207,-0.0750569,0.0387173,-0.00904987,0.00196886,209,625,-0.0344033,-0.0866305,66.1385,121.888,66.0977,121.97,5.12697e-05,5.02744e-05,0.000180328
-13.4985,3.89912,-297.496,0.000217831,0.00322328,0.00483657,0.000152569,1.40822e-05,5.13999e-05,0.000169561,-2.91016e-06,0.31928,0.000171035,-0.352962,1.37141,-3.00044,-0.090625,0.0415637,-0.000650252,0.00204642,216,625,-0.0363634,-0.0868709,67.4496,122.509,67.4053,122.593,5.4357e-05,5.10665e-05,0.000190555
-13.2079,3.88869,-297.474,0.000269073,0.00330132,0.00502056,0.000170746,3.11251e-05,7.20053e-05,0.000201226,6.44635e-07,0.400437,0.000200905,-0.389365,1.38718,-2.97668,-0.0995723,0.0434171,0.00789968,0.00205825,223,625,-0.0365423,-0.0890003,68.7834,123.105,68.7361,123.191,5.49818e-05,5.12915e-05,0.000192162
-12.9175,3.87824,-297.451,0.000286263,0.00338285,0.00504197,0.000188094,4.39735e-05,8.60042e-05,0.000228236,3.83128e-06,0.436693,0.000226345,-0.420185,1.39024,-2.90933,-0.101745,0.0424377,0.0165353,0.00202397,230,625,-0.0362786,-0.0910642,70.1086,123.703,70.0604,123.791,5.38604e-05,5.15801e-05,0.000187696
-12.6238,3.86784,-297.418,0.000280485,0.00342095,0.00503976,0.000209725,5.02785e-05,9.19748e-05,0.000251719,8.28417e-06,0.428316,0.000247681,-0.475832,1.40313,-2.82774,-0.0981444,0.0398377,0.0242096,0.0020333,237,625,-0.0363512,-0.0921662,71.5935,124.314,71.5454,124.403,5.07181e-05,5.24458e-05,0.000176341
-12.3266,3.85721,-297.373,0.000296181,0.00340961,0.00512718,0.000239927,4.96645e-05,9.07094e-05,0.000276242,1.33494e-05,0.380804,0.000269816,-0.57151,1.46152,-2.85166,-0.0899597,0.0357073,0.0295972,0.00203321,244,625,-0.0365425,-0.0920466,73.2613,124.955,73.2119,125.043,5.06752e-05,5.22304e-05,0.000174889
-12.0279,3.84658,-297.323,0.000365201,0.00344762,0.00522458,0.00027462,4.24686e-05,8.36716e-05,0.000301633,1.54551e-05,0.312287,0.00029421,-0.595547,1.53411,-2.92735,-0.0766194,0.0290928,0.0328691,0.00201321,251,625,-0.0355423,-0.0930121,75.0125,125.603,74.9604,125.692,5.1421e-05,5.13407e-05,0.000176964
-11.7283,3.83575,-297.27,0.000471518,0.00347637,0.00535552,0.000305923,3.15779e-05,7.14795e-05,0.00032343,1.40714e-05,0.240189,0.000316629,-0.599999,1.58982,-2.96689,-0.0608533,0.0226014,0.0337175,0.00198929,258,625,-0.033859,-0.0930921,76.8061,126.266,76.7498,126.356,5.2137e-05,4.99988e-05,0.000179368
-11.4282,3.82499,-297.214,0.000625663,0.00354886,0.00553942,0.000328634,1.75718e-05,5.44099e-05,0.000337877,8.32925e-06,0.168263,0.00033379,-0.580996,1.60131,-3.05704,-0.0456144,0.0172446,0.0326978,0.00195739,265,625,-0.0314399,-0.0939186,78.6347,126.927,78.5725,127.02,5.22541e-05,4.821e-05,0.000180162
-11.1275,3.8142,-297.155,0.000751253,0.00359838,0.00557308,0.000342173,1.88392e-06,3.39113e-05,0.00034552,-1.46257e-06,0.0983653,0.000346253,-0.550226,1.56534,-3.05457,-0.0326674,0.0138102,0.0302355,0.00191461,272,625,-0.0285334,-0.094682,80.493,127.595,80.4268,127.69,5.1311e-05,4.63352e-05,0.000177207
-10.827,3.80335,-297.097,0.000856311,0.00362047,0.00557495,0.000348038,-1.48637e-05,1.09657e-05,0.000348369,-1.51947e-05,0.03018,0.00035621,-0.517981,1.55871,-3.01192,-0.0233218,0.0112004,0.0272334,0.00186449,279,625,-0.0258559,-0.094817,82.3421,128.267,82.2727,128.363,4.98321e-05,4.56395e-05,0.000172209
-10.5278,3.79265,-297.042,0.000955676,0.00363353,0.00560357,0.000347059,-3.0639e-05,-1.17674e-05,0.000347426,-3.10053e-05,-0.0311154,0.00036392,-0.489306,1.58489,-2.98757,-0.0161366,0.00853929,0.0234293,0.00187967,286,625,-0.0235183,-0.0952883,84.1308,128.927,84.0582,129.024,4.95219e-05,4.75674e-05,0.000171593
-10.2299,3.78199,-296.99,0.00106628,0.00365275,0.00569528,0.00033799,-4.33454e-05,-3.2709e-05,0.000340775,-4.61307e-05,-0.084948,0.000366027,-0.510036,1.58039,-3.09984,-0.00916686,0.00657561,0.0178957,0.00193786,293,625,-0.0213902,-0.0959452,85.8504,129.58,85.7739,129.677,4.88821e-05,4.96835e-05,0.000169799
-9.93314,3.77131,-296.942,0.00116727,0.00365831,0.0058957,0.000320075,-5.29481e-05,-5.37157e-05,0.000327656,-6.05292e-05,-0.140207,0.000361739,-0.546148,1.58437,-3.25496,-0.00281178,0.00585657,0.0100322,0.00199184,300,625,-0.0203205,-0.0969505,87.518,130.231,87.4371,130.327,4.93416e-05,5.11697e-05,0.000171438
-9.63643,3.76071,-296.893,0.00125342,0.00364287,0.00609004,0.000293713,-5.99956e-05,-7.50971e-05,0.000308997,-7.52793e-05,-0.200777,0.000352714,-0.571617,1.59584,-3.25495,0.00466709,0.00558827,0.00271102,0.00206587,307,625,-0.0195318,-0.0966352,89.1836,130.88,89.0987,130.975,5.02867e-05,5.27865e-05,0.000174691
-9.3383,3.75026,-296.838,0.00132218,0.00357671,0.0062971,0.000258226,-6.3542e-05,-9.56067e-05,0.000284489,-8.98059e-05,-0.268094,0.00033845,-0.588408,1.5804,-3.21216,0.0160758,0.00414894,-0.00268778,0.00212725,314,625,-0.0192045,-0.0947425,90.9266,131.529,90.8381,131.622,5.14623e-05,5.43544e-05,0.000178497
-9.03898,3.74018,-296.78,0.00136016,0.00349297,0.00634534,0.000215852,-6.63038e-05,-0.000115092,0.000256844,-0.000107295,-0.342152,0.000324097,-0.572361,1.56989,-3.19203,0.0289043,0.00099347,-0.00659407,0.00212133,321,625,-0.0184222,-0.0942702,92.7339,132.168,92.6441,132.257,5.2177e-05,5.44245e-05,0.000180421
-8.73731,3.73009,-296.712,0.00141055,0.00346012,0.00632896,0.000169734,-7.18065e-05,-0.000132411,0.000228179,-0.000130252,-0.415673,0.000314248,-0.540415,1.57842,-3.22618,0.0398693,-0.00342869,-0.0110543,0.00208882,328,625,-0.016893,-0.0950976,94.6684,132.817,94.5773,132.904,5.18646e-05,5.37111e-05,0.000178949
-8.43473,3.71996,-296.641,0.00145387,0.0034576,0.00622721,0.00012042,-8.21725e-05,-0.000147381,0.000197959,-0.000159711,-0.484319,0.000310341,-0.504124,1.58486,-3.33041,0.0507434,-0.00860959,-0.016528,0.00202944,335,625,-0.0149182,-0.0960604,96.655,133.474,96.5633,133.56,5.10343e-05,5.19542e-05,0.000175883
-8.13307,3.70962,-296.573,0.0015229,0.00350358,0.00629107,6.52852e-05,-9.70999e-05,-0.000160378,0.000163852,-0.000195667,-0.551078,0.000311759,-0.497157,1.56809,-3.37186,0.0650569,-0.0150497,-0.0221335,0.00201347,342,625,-0.013607,-0.0977963,98.5992,134.136,98.5049,134.223,5.04636e-05,5.13681e-05,0.000173663
-7.83429,3.69858,-296.512,0.00157406,0.00347242,0.00633157,4.59019e-06,-0.00011616,-0.000173772,0.000128177,-0.000239746,-0.618204,0.000323478,-0.489164,1.5061,-3.38432,0.0821586,-0.0209752,-0.0256168,0.00202824,349,625,-0.0124748,-0.0975064,100.393,134.825,100.297,134.911,5.04923e-05,5.07756e-05,0.000173484
-7.53862,3.68792,-296.462,0.00160454,0.00340877,0.00632621,-5.72744e-05,-0.000137553,-0.000186696,9.35489e-05,-0.000288376,-0.679511,0.000344804,-0.461666,1.45976,-3.28741,0.0963163,-0.0243444,-0.0271363,0.00203112,356,625,-0.011486,-0.0976388,102.026,135.484,101.929,135.565,5.05709e-05,5.03992e-05,0.000173818
-7.24456,3.67766,-296.416,0.00160857,0.00333651,0.00621389,-0.000116282,-0.000159717,-0.000198306,6.14923e-05,-0.000337491,-0.730857,0.000372068,-0.412948,1.47678,-3.05338,0.105233,-0.0242968,-0.0256834,0.00200116,363,625,-0.0103453,-0.0977778,103.575,136.114,103.479,136.192,5.12342e-05,5.03453e-05,0.000176511
-6.95093,3.66728,-296.371,0.00158974,0.00330505,0.00597628,-0.000168714,-0.000178891,-0.000207519,3.37791e-05,-0.000381383,-0.77314,0.000399346,-0.348359,1.5141,-2.90895,0.109628,-0.0205464,-0.0215124,0.0019571,370,625,-0.00887987,-0.0984641,105.102,136.748,105.008,136.824,5.12478e-05,4.96727e-05,0.00017732
-6.65653,3.65711,-296.322,0.00153214,0.00331352,0.00564961,-0.00021498,-0.000192678,-0.000213744,1.02058e-05,-0.000417864,-0.81146,0.000423059,-0.298707,1.54486,-2.84263,0.111352,-0.0139248,-0.0147263,0.00204148,377,625,-0.00777921,-0.101042,106.672,137.375,106.582,137.45,5.26185e-05,4.86699e-05,0.000182446
-6.36147,3.64691,-296.271,0.00150846,0.00331262,0.00532333,-0.000255192,-0.000198368,-0.000217698,-7.23574e-06,-0.000446324,-0.850286,0.000442751,-0.29042,1.54872,-2.96707,0.111751,-0.00614664,-0.00570928,0.0020718,384,625,-0.00583389,-0.103116,108.281,138.009,108.195,138.082,5.39707e-05,4.77656e-05,0.000186967
-6.06564,3.63661,-296.217,0.00145817,0.00334235,0.00512702,-0.00028924,-0.00019554,-0.000220991,-1.64874e-05,-0.000468293,-0.889852,0.000460271,-0.274598,1.54774,-3.05337,0.108384,0.00293662,0.00463743,0.00205733,391,625,-0.00557469,-0.106678,109.937,138.653,109.854,138.725,5.43111e-05,4.7488e-05,0.000187881
-5.76897,3.62631,-296.158,0.00140469,0.00332112,0.00487931,-0.000317172,-0.000184024,-0.000225581,-1.53985e-05,-0.000485797,-0.928887,0.000478284,-0.246353,1.54117,-3.04719,0.101001,0.010772,0.0147549,0.00203266,398,625,-0.00495905,-0.108267,111.642,139.303,111.562,139.372,5.38581e-05,4.8566e-05,0.00018602
-5.47207,3.61593,-296.099,0.0013015,0.00325529,0.00455866,-0.000338403,-0.000166215,-0.000229757,-6.95072e-06,-0.000497667,-0.96466,0.000494228,-0.201183,1.54188,-2.91351,0.0898632,0.0172537,0.0247884,0.00202134,405,625,-0.00499882,-0.107587,113.362,139.96,113.287,140.027,5.33168e-05,4.99618e-05,0.000184189
-5.17639,3.60555,-296.042,0.00118123,0.00315284,0.00437683,-0.000352504,-0.000143646,-0.000233433,7.65227e-06,-0.000503802,-0.995727,0.000507671,-0.206237,1.53876,-2.7368,0.0749855,0.0216063,0.0308248,0.00203574,412,625,-0.00645806,-0.105179,115.02,140.613,114.95,140.677,5.34388e-05,5.12844e-05,0.000184564
-4.88268,3.59491,-295.992,0.0011044,0.00303457,0.00433936,-0.000362739,-0.000119264,-0.000234711,2.34021e-05,-0.000505406,-1.02463,0.000517504,-0.184951,1.54571,-2.73024,0.0617607,0.0225235,0.034711,0.0020378,419,625,-0.00788935,-0.102868,116.578,141.272,116.511,141.333,5.371e-05,5.21542e-05,0.000185358
-4.59176,3.58408,-295.95,0.00104599,0.00294988,0.00435695,-0.00037184,-9.6009e-05,-0.00023344,3.72117e-05,-0.00050506,-1.05221,0.000524657,-0.163644,1.54319,-2.78546,0.0538877,0.0184926,0.0357185,0.00205882,426,625,-0.0093142,-0.102503,117.987,141.929,117.921,141.985,5.41207e-05,5.1525e-05,0.000186508
-4.30386,3.57337,-295.918,0.000970244,0.00291931,0.00421735,-0.000380732,-7.58867e-05,-0.000229233,4.69732e-05,-0.000503592,-1.0788,0.000528646,-0.124406,1.5461,-2.84952,0.0514036,0.0110966,0.0332975,0.0020915,433,625,-0.0100856,-0.103898,119.231,142.564,119.169,142.617,5.49544e-05,5.0577e-05,0.000189129
-4.01754,3.56272,-295.891,0.000899512,0.00287541,0.0038167,-0.000389837,-5.93222e-05,-0.000221418,5.17101e-05,-0.000500869,-1.10598,0.000528625,-0.112403,1.56995,-2.82061,0.0503041,0.00225566,0.0269626,0.00216632,440,625,-0.00880828,-0.104333,120.389,143.188,120.332,143.239,5.70932e-05,5.07058e-05,0.000196381
-3.73055,3.55213,-295.861,0.000834891,0.00276467,0.00348106,-0.000397051,-4.66054e-05,-0.00020966,5.14122e-05,-0.000495069,-1.13348,0.000522675,-0.14041,1.59278,-2.82761,0.0477857,-0.00578725,0.0189272,0.00223685,447,625,-0.00778336,-0.101945,121.588,143.814,121.535,143.862,5.92102e-05,5.10789e-05,0.000203629
-3.44092,3.5417,-295.821,0.000776115,0.00261974,0.00319669,-0.000403559,-3.82787e-05,-0.000193446,4.51238e-05,-0.000486961,-1.16374,0.00051102,-0.195303,1.61003,-2.76934,0.0437017,-0.0115321,0.00996368,0.00229825,454,625,-0.00695898,-0.0984976,122.936,144.448,122.887,144.492,6.10618e-05,5.20029e-05,0.00020996
-3.14405,3.53153,-295.755,0.000751883,0.00248172,0.00298719,-0.000411554,-3.50301e-05,-0.000174978,3.37291e-05,-0.000480313,-1.19637,0.000498035,-0.240798,1.61478,-2.75927,0.0407178,-0.0140975,0.00201676,0.00226884,461,625,-0.00582251,-0.0945675,124.693,145.105,124.647,145.146,6.04007e-05,5.17557e-05,0.000207573
-2.84263,3.52167,-295.673,0.000690884,0.00244332,0.00270866,-0.000419816,-3.62406e-05,-0.000156321,1.93957e-05,-0.000475452,-1.22886,0.000485441,-0.253694,1.62928,-2.66381,0.0404903,-0.0152745,-0.00452712,0.00219317,468,625,-0.00522956,-0.0930286,126.71,145.768,126.667,145.809,5.85654e-05,5.05622e-05,0.000201158
-2.54201,3.5115,-295.593,0.000605871,0.00244477,0.00224777,-0.000426175,-3.88881e-05,-0.000137906,5.19921e-06,-0.000470262,-1.26137,0.000472883,-0.224624,1.61827,-2.47496,0.0404069,-0.0150001,-0.0103201,0.00206225,475,625,-0.00398727,-0.093197,128.687,146.445,128.65,146.486,5.52997e-05,4.92555e-05,0.000189929
-2.24602,3.50185,-295.528,0.000494339,0.00243335,0.00178609,-0.000426445,-4.091e-05,-0.000120559,-6.31491e-06,-0.00046104,-1.29135,0.000457916,-0.172101,1.59038,-2.28781,0.0382507,-0.0111227,-0.0162264,0.0020076,482,625,-0.00342125,-0.0939323,130.411,147.073,130.382,147.113,5.31468e-05,4.97418e-05,0.000182546
-1.95594,3.49176,-295.482,0.00041952,0.00239871,0.00140271,-0.000417276,-4.27902e-05,-0.000104908,-1.54039e-05,-0.000444663,-1.31545,0.000437164,-0.111801,1.55827,-2.27998,0.0335951,-0.00298964,-0.0224851,0.00203709,489,625,-0.00248599,-0.0940942,131.81,147.695,131.786,147.734,5.21959e-05,5.04296e-05,0.000179476
-1.66754,3.4815,-295.442,0.000359628,0.00237855,0.00129008,-0.000400187,-4.47946e-05,-9.0401e-05,-2.3121e-05,-0.00042186,-1.33549,0.000410788,-0.0837617,1.53417,-2.38585,0.026131,0.00645695,-0.0278834,0.00209515,496,625,-0.00313632,-0.0934803,133.12,148.318,133.098,148.357,5.35331e-05,5.19949e-05,0.000184019
-1.37384,3.47156,-295.383,0.000341575,0.00237925,0.0010245,-0.000380119,-4.79848e-05,-7.67892e-05,-3.10905e-05,-0.000397014,-1.35424,0.000382418,-0.0619924,1.57107,-2.56348,0.0140083,0.0160133,-0.0326747,0.00213336,503,625,-0.0016629,-0.0931499,134.736,148.952,134.717,148.992,5.48502e-05,5.34123e-05,0.000188291
-1.07618,3.46115,-295.308,0.000291754,0.00241692,0.000683077,-0.000358852,-5.08567e-05,-6.49079e-05,-3.77367e-05,-0.000371972,-1.37135,0.000354613,-0.0411094,1.60023,-2.79246,-0.00507155,0.0218646,-0.0401272,0.00220018,510,625,-0.000507311,-0.0942202,136.58,149.633,136.566,149.674,5.64297e-05,5.54104e-05,0.000193466
-0.777024,3.45106,-295.228,0.000226048,0.00241428,0.000244245,-0.000334968,-5.29204e-05,-5.39875e-05,-4.29396e-05,-0.000344948,-1.38799,0.000325609,-0.0259708,1.62779,-2.95394,-0.0262154,0.0246703,-0.0497165,0.00227858,517,625,0.000956093,-0.0958059,138.518,150.31,138.509,150.35,5.88104e-05,5.73995e-05,0.000201264
-0.480175,3.44112,-295.154,0.000157017,0.00238202,3.52126e-05,-0.00030631,-5.3526e-05,-4.6867e-05,-4.51165e-05,-0.00031472,-1.39325,0.000294762,-0.0182447,1.65059,-3.01202,-0.0505806,0.0261745,-0.062305,0.00239811,524,625,0.000711608,-0.0974569,140.334,150.97,140.328,151.007,6.29904e-05,5.89733e-05,0.000215558
-0.186825,3.43077,-295.092,5.71324e-05,0.00236451,-4.27824e-05,-0.000275227,-5.66518e-05,-3.88886e-05,-4.99389e-05,-0.00028194,-1.39986,0.000260584,-0.0365331,1.62581,-2.94002,-0.0780014,0.0282338,-0.0755972,0.00250563,531,625,-0.0012569,-0.098247,141.955,151.632,141.954,151.668,6.66867e-05,6.03129e-05,0.000228175
0.104336,3.42051,-295.038,7.52502e-06,0.00238454,-3.04365e-05,-0.000246499,-5.91072e-05,-2.75228e-05,-5.51484e-05,-0.000250457,-1.42794,0.000227943,-0.0710519,1.52352,-2.83207,-0.10506,0.0290136,-0.0900164,0.00254341,538,625,-0.00262732,-0.0989753,143.46,152.279,143.46,152.315,6.7753e-05,6.13896e-05,0.000231549
0.394544,3.40992,-294.985,2.34231e-07,0.00238799,-9.88891e-05,-0.000221154,-5.9757e-05,-1.18781e-05,-5.88875e-05,-0.000222024,-1.49773,0.000199218,-0.103736,1.43764,-2.70569,-0.131075,0.0293568,-0.106415,0.00256603,545,625,-0.00232683,-0.0981314,144.916,152.938,144.916,152.975,6.82369e-05,6.3983e-05,0.000232419
0.684356,3.39969,-294.934,1.00349e-05,0.00238179,-0.000242181,-0.000196872,-5.59517e-05,8.2312e-06,-5.54726e-05,-0.000197352,1.51265,0.000176287,-0.137174,1.39014,-2.68961,-0.155946,0.0297589,-0.125446,0.0026493,552,625,-0.00106728,-0.0979607,146.355,153.579,146.356,153.616,6.91102e-05,6.71603e-05,0.000234604
0.972488,3.38959,-294.887,-2.9399e-05,0.00236826,-0.000525594,-0.000172918,-4.41074e-05,3.22073e-05,-3.65033e-05,-0.000180522,1.33894,0.000165321,-0.17824,1.409,-2.71,-0.179047,0.0307203,-0.145121,0.00270072,559,625,-8.29761e-05,-0.0986636,147.699,154.205,147.704,154.242,7.11196e-05,6.73285e-05,0.000241161
1.25957,3.37963,-294.844,-9.07834e-05,0.00240037,-0.000689144,-0.000154747,-2.17024e-05,5.78402e-05,-7.31088e-08,-0.000176376,1.21295,0.00017634,-0.213944,1.44802,-3.039,-0.1991,0.033257,-0.163526,0.00268824,566,625,-0.000554059,-0.100198,148.989,154.819,148.997,154.856,7.25041e-05,6.50108e-05,0.000245108
1.54561,3.3695,-294.804,-0.000113969,0.00242067,-0.000780967,-0.000148181,1.23482e-05,8.28914e-05,4.74672e-05,-0.0001833,1.17005,0.000211075,-0.258105,1.45982,-3.36043,-0.21271,0.0360383,-0.18195,0.00270263,573,625,-0.000547013,-0.101278,150.224,155.438,150.233,155.475,7.38533e-05,6.33919e-05,0.000248828
0,0,0,0,0,0,0,0,0,0,0,0,0,0,0,0,0,0,0,-1,580,625,0,0,0,0,0,0,0,0,0
0,0,0,0,0,0,0,0,0,0,0,0,0,0,0,0,0,0,0,-1,587,625,0,0,0,0,0,0,0,0,0
0,0,0,0,0,0,0,0,0,0,0,0,0,0,0,0,0,0,0,-1,594,625,0,0,0,0,0,0,0,0,0
0,0,0,0,0,0,0,0,0,0,0,0,0,0,0,0,0,0,0,-1,601,625,0,0,0,0,0,0,0,0,0
0,0,0,0,0,0,0,0,0,0,0,0,0,0,0,0,0,0,0,-1,62,632,0,0,0,0,0,0,0,0,0
0,0,0,0,0,0,0,0,0,0,0,0,0,0,0,0,0,0,0,-1,69,632,0,0,0,0,0,0,0,0,0
0,0,0,0,0,0,0,0,0,0,0,0,0,0,0,0,0,0,0,-1,76,632,0,0,0,0,0,0,0,0,0
0,0,0,0,0,0,0,0,0,0,0,0,0,0,0,0,0,0,0,-1,83,632,0,0,0,0,0,0,0,0,0
0,0,0,0,0,0,0,0,0,0,0,0,0,0,0,0,0,0,0,-1,90,632,0,0,0,0,0,0,0,0,0
0,0,0,0,0,0,0,0,0,0,0,0,0,0,0,0,0,0,0,-1,97,632,0,0,0,0,0,0,0,0,0
0,0,0,0,0,0,0,0,0,0,0,0,0,0,0,0,0,0,0,-1,104,632,0,0,0,0,0,0,0,0,0
-17.8718,3.79453,-297.789,9.14647e-05,0.00302703,0.000596641,-0.000125551,-0.000126954,6.91913e-06,-0.000119298,-0.000133207,0.734872,0.000126826,-0.350469,1.38504,-3.53491,-0.0233503,-0.00687593,0.0335925,0.00205587,111,632,-0.00598035,-0.0854035,46.517,113.965,46.507,114.046,5.41583e-05,5.11081e-05,0.000191503
-17.5907,3.78338,-297.801,3.31358e-05,0.00309921,0.000768233,-6.18982e-05,-0.000136807,1.74206e-06,-6.18577e-05,-0.000136848,0.0232389,0.000118695,-0.362137,1.35931,-3.62703,-0.0156779,-0.0123579,0.0371202,0.00200196,118,632,-0.00886313,-0.0858212,47.4041,114.547,47.3944,114.631,5.21085e-05,5.10617e-05,0.000183125
-17.3048,3.77261,-297.799,1.41276e-05,0.00315035,0.00115094,-1.44677e-05,-0.000146304,-5.42863e-06,-1.42446e-05,-0.000146527,-0.0410845,0.000139949,-0.365521,1.348,-3.77509,-0.00216909,-0.0158152,0.0373971,0.00197488,125,632,-0.0124849,-0.0869175,48.528,115.133,48.5161,115.218,5.04862e-05,5.06178e-05,0.000177239
-17.0169,3.7615,-297.79,7.08581e-05,0.0031658,0.00150519,2.17928e-05,-0.000154734,-1.4745e-05,2.30159e-05,-0.000155957,-0.0827643,0.000168647,-0.370963,1.3603,-3.86081,0.0160391,-0.0179566,0.0343735,0.0019735,132,632,-0.013973,-0.087933,49.7495,115.747,49.7336,115.831,5.13634e-05,5.04042e-05,0.000180434
-16.7274,3.75017,-297.776,0.000147838,0.00318592,0.0019497,4.68216e-05,-0.000161228,-2.54173e-05,4.98818e-05,-0.000164288,-0.119822,0.000194097,-0.373819,1.38372,-3.84258,0.0347771,-0.0197813,0.0297219,0.00200518,139,632,-0.015688,-0.0892705,51.0453,116.379,51.0242,116.463,5.32096e-05,5.05014e-05,0.000186763
-16.4372,3.73889,-297.76,0.000198929,0.00323153,0.00220479,6.03803e-05,-0.000164997,-3.66663e-05,6.61955e-05,-0.000170812,-0.157287,0.000211815,-0.343955,1.412,-3.73014,0.0503719,-0.0187225,0.0235539,0.00203134,146,632,-0.0165185,-0.0914671,52.3699,117.012,52.3455,117.096,5.41522e-05,5.06953e-05,0.000190241
-16.1455,3.72776,-297.738,0.000191918,0.00327482,0.00247514,7.25976e-05,-0.000166772,-4.71921e-05,8.15656e-05,-0.00017574,-0.187793,0.000227754,-0.319192,1.44584,-3.61067,0.058709,-0.0179907,0.0163693,0.00201318,153,632,-0.0188811,-0.0931077,53.7643,117.644,53.7382,117.728,5.35629e-05,5.05794e-05,0.00018883
-15.8531,3.71668,-297.714,0.000193545,0.00332146,0.00273306,8.13981e-05,-0.000162931,-5.66493e-05,9.38936e-05,-0.000175426,-0.2171,0.000236774,-0.307451,1.47654,-3.57855,0.0590816,-0.0163643,0.00801821,0.00196891,160,632,-0.0209148,-0.0937999,55.1977,118.276,55.1696,118.362,5.15024e-05,4.93403e-05,0.000182284
-15.5588,3.70568,-297.684,0.000182147,0.00334905,0.00307326,9.10054e-05,-0.000155744,-6.39363e-05,0.000106588,-0.000171327,-0.239062,0.000242849,-0.2904,1.49013,-3.54901,0.0533365,-0.0155102,-0.000346179,0.00190479,167,632,-0.0238959,-0.0936599,56.72,118.913,56.6897,119,4.92709e-05,4.81237e-05,0.000174245
-15.2634,3.69517,-297.65,0.000197996,0.00334755,0.00333214,9.59596e-05,-0.000142957,-6.3035e-05,0.000111571,-0.000158568,-0.24277,0.000235124,-0.259302,1.49151,-3.42596,0.0420583,-0.0126248,-0.00766324,0.00188579,174,632,-0.0255232,-0.0939116,58.2978,119.532,58.2652,119.618,4.88375e-05,4.75281e-05,0.000171571
-14.9678,3.68438,-297.615,0.000238274,0.00329475,0.00348407,9.35552e-05,-0.000125358,-5.42724e-05,0.000106272,-0.000138075,-0.230155,0.000212207,-0.216116,1.46958,-3.22319,0.0243347,-0.00659087,-0.0136593,0.00188573,181,632,-0.0256346,-0.0934043,59.8831,120.17,59.8484,120.253,4.83727e-05,4.77494e-05,0.000169589
-14.672,3.67367,-297.579,0.000271886,0.00325738,0.00360771,8.8473e-05,-0.000104106,-3.99176e-05,9.64192e-05,-0.000112052,-0.196496,0.000180711,-0.193023,1.44435,-3.03646,-0.000845117,0.00212672,-0.0164793,0.0018753,188,632,-0.0256983,-0.0936342,61.4811,120.804,61.4446,120.886,4.74607e-05,4.77481e-05,0.000166453
-14.377,3.66254,-297.544,0.00023045,0.00320409,0.00377311,9.0265e-05,-8.10576e-05,-2.13095e-05,9.28757e-05,-8.36683e-05,-0.121908,0.000152961,-0.194878,1.41682,-2.8926,-0.0301434,0.0115415,-0.0154722,0.00186781,195,632,-0.0279018,-0.0916458,63.0402,121.458,63.0036,121.538,4.66486e-05,4.77417e-05,0.000164037
-14.0833,3.65127,-297.514,0.000173692,0.00319981,0.00413295,0.000102289,-5.58383e-05,1.8151e-06,0.00010231,-5.58591e-05,0.0114767,0.000138934,-0.225538,1.4077,-2.88173,-0.0575906,0.0197958,-0.0104949,0.0018828,202,632,-0.0320639,-0.0899807,64.5283,122.111,64.4906,122.192,4.83132e-05,4.83365e-05,0.000169636
-13.7917,3.63991,-297.489,0.000139881,0.00321343,0.00448566,0.000122274,-3.14573e-05,2.85218e-05,0.000127395,-3.65784e-05,0.177656,0.000149089,-0.273621,1.4,-2.94997,-0.0804043,0.0279647,-0.00239594,0.00199691,209,632,-0.0356076,-0.08847,65.9141,122.76,65.8747,122.842,5.22396e-05,4.94175e-05,0.000182999
-13.5018,3.62921,-297.469,0.000165258,0.00324671,0.0047964,0.000144786,-9.66955e-06,5.79206e-05,0.000164093,-2.89763e-05,0.321749,0.000180336,-0.325974,1.37637,-3.07601,-0.0967086,0.0364121,0.0060645,0.00211699,216,632,-0.037378,-0.0884558,67.2131,123.367,67.1705,123.451,5.57755e-05,5.06388e-05,0.000194623
-13.2115,3.61887,-297.447,0.000181862,0.00329133,0.00487824,0.000165897,9.44876e-06,8.32161e-05,0.000201883,-2.65372e-05,0.408155,0.000216375,-0.359339,1.36204,-3.10758,-0.105497,0.0439779,0.0146038,0.00212339,223,632,-0.0375689,-0.0894282,68.5331,123.959,68.4894,124.044,5.62819e-05,5.15618e-05,0.000196319
-12.9214,3.60816,-297.426,0.000209891,0.00334984,0.00490589,0.000187551,2.38892e-05,9.95762e-05,0.000234607,-2.31664e-05,0.441454,0.000247006,-0.39194,1.3517,-3.0681,-0.106385,0.0480465,0.0234057,0.00205431,230,632,-0.0370573,-0.0900994,69.8451,124.569,69.8001,124.656,5.46767e-05,5.22435e-05,0.000190532
-12.6279,3.59752,-297.393,0.000219208,0.00339091,0.00488897,0.000214067,3.06224e-05,0.000106296,0.000262743,-1.8054e-05,0.429432,0.00027222,-0.450594,1.36113,-2.99681,-0.10145,0.0503544,0.031316,0.00205032,237,632,-0.036649,-0.0913343,71.3227,125.192,71.2774,125.28,5.11139e-05,5.28567e-05,0.00017778
-12.3302,3.587,-297.347,0.000263701,0.00339925,0.00499318,0.000248751,2.94632e-05,0.000105037,0.000290945,-1.27304e-05,0.381972,0.000297514,-0.553002,1.42017,-2.9699,-0.0927882,0.0509752,0.0368827,0.00201985,244,632,-0.0362871,-0.0919211,73.0181,125.831,72.9707,125.919,4.9992e-05,5.20921e-05,0.000172627
-12.0306,3.57656,-297.294,0.000348741,0.00343392,0.00512574,0.00028731,2.14421e-05,9.77068e-05,0.000319355,-1.06029e-05,0.316917,0.000324786,-0.586345,1.50009,-3.01336,-0.0790775,0.0481045,0.039742,0.00197614,251,632,-0.0351731,-0.0936548,74.8121,126.475,74.7612,126.563,5.04664e-05,5.07488e-05,0.000173571
-11.73,3.56587,-297.237,0.000468137,0.00348713,0.00522318,0.000322079,1.07864e-05,8.54499e-05,0.000343992,-1.11271e-05,0.251038,0.000349688,-0.603337,1.5634,-3.05708,-0.0622939,0.0449474,0.0397749,0.00193942,258,632,-0.0329364,-0.094539,76.6626,127.136,76.6074,127.226,5.10346e-05,4.87666e-05,0.000175364
-11.4285,3.55525,-297.177,0.000613488,0.00355837,0.00537185,0.000347484,-2.26534e-06,6.88782e-05,0.00036056,-1.53411e-05,0.187606,0.00036847,-0.580637,1.58577,-3.07877,-0.045562,0.0425201,0.0379382,0.00191018,265,632,-0.0304634,-0.0953794,78.5645,127.798,78.5039,127.891,5.09524e-05,4.73403e-05,0.000175492
-11.1264,3.54461,-297.113,0.000753346,0.00361024,0.0054914,0.000362857,-1.63572e-05,4.91676e-05,0.000369128,-2.26284e-05,0.126862,0.000380947,-0.539822,1.56324,-3.05465,-0.0315546,0.0416728,0.0347611,0.00187031,272,632,-0.0278677,-0.0954401,80.5012,128.466,80.4355,128.562,4.99644e-05,4.61138e-05,0.00017249
-10.8246,3.53388,-297.051,0.000887996,0.00363918,0.00554997,0.00037033,-3.1623e-05,2.66449e-05,0.000372089,-3.33815e-05,0.0659041,0.000389853,-0.502019,1.56202,-3.0007,-0.0221903,0.0409604,0.0313703,0.00183194,279,632,-0.024899,-0.0952064,82.4187,129.139,82.3485,129.236,4.84718e-05,4.61486e-05,0.000167593
-10.525,3.5233,-296.994,0.000990944,0.0036625,0.00549902,0.000371432,-4.59458e-05,4.55911e-06,0.000371482,-4.59955e-05,0.0109215,0.000396485,-0.468791,1.55296,-3.00341,-0.0156244,0.0391198,0.0269204,0.00188575,286,632,-0.0218703,-0.0959822,84.2298,129.797,84.157,129.894,4.91734e-05,4.84764e-05,0.000170419
-10.2275,3.51284,-296.944,0.00107894,0.00366649,0.00550333,0.000365061,-5.5797e-05,-1.45056e-05,0.00036556,-5.62964e-05,-0.0344122,0.000396715,-0.490209,1.5369,-3.1134,-0.00926037,0.0370988,0.0200559,0.00197075,293,632,-0.0196175,-0.0965242,85.9343,130.44,85.8589,130.537,5.01396e-05,5.06858e-05,0.00017391
-9.93182,3.50213,-296.899,0.00116301,0.00365471,0.0056555,0.000349812,-6.14962e-05,-3.29452e-05,0.000352434,-6.41183e-05,-0.0794238,0.000388482,-0.525672,1.55055,-3.27134,-0.00340055,0.0352925,0.00990143,0.0020375,300,632,-0.0185838,-0.0973515,87.544,131.09,87.465,131.186,5.12255e-05,5.2282e-05,0.000177738
-9.63632,3.49181,-296.854,0.00122771,0.00361801,0.00590688,0.000325518,-6.45605e-05,-5.18329e-05,0.000332288,-7.13304e-05,-0.129876,0.000373102,-0.559999,1.564,-3.28381,0.00378647,0.0325274,5.54573e-05,0.00211347,307,632,-0.0187473,-0.0966537,89.1496,131.72,89.0668,131.814,5.25649e-05,5.38006e-05,0.000182359
-9.33982,3.48158,-296.805,0.00128876,0.00356962,0.00614298,0.000291129,-6.39494e-05,-7.01045e-05,0.000304469,-7.72893e-05,-0.188037,0.000349581,-0.584248,1.5481,-3.29595,0.0154239,0.0270549,-0.00756998,0.00216463,314,632,-0.0188523,-0.0947689,90.8097,132.351,90.7233,132.444,5.29756e-05,5.51257e-05,0.000183665
-9.0417,3.47164,-296.75,0.00135404,0.00352242,0.00634338,0.000248448,-6.36094e-05,-8.73423e-05,0.000271231,-8.63924e-05,-0.255162,0.000323206,-0.551591,1.5401,-3.27095,0.0287264,0.0187115,-0.0134538,0.0021673,321,632,-0.0185827,-0.0940986,92.5578,132.977,92.4681,133.067,5.29567e-05,5.52771e-05,0.000183331
-8.74087,3.46159,-296.685,0.00143947,0.00351826,0.0064132,0.000201372,-6.77922e-05,-0.000101823,0.000235551,-0.000101971,-0.323851,0.000299836,-0.510914,1.55859,-3.33387,0.0396685,0.00840623,-0.0199711,0.00216104,328,632,-0.0168644,-0.095276,94.452,133.622,94.3592,133.711,5.25211e-05,5.51282e-05,0.00018147
-8.43937,3.45154,-296.618,0.00150921,0.0035192,0.00643783,0.000150618,-7.80407e-05,-0.000113647,0.000197493,-0.000124916,-0.391204,0.000281563,-0.468646,1.58666,-3.40468,0.0502914,-0.00311057,-0.0275448,0.00212813,335,632,-0.0151912,-0.0962545,96.3845,134.271,96.2895,134.359,5.20289e-05,5.4298e-05,0.00017969
-8.13907,3.44107,-296.553,0.00152808,0.00351542,0.00641653,9.32523e-05,-9.30574e-05,-0.000124249,0.000155389,-0.000155194,-0.463729,0.000268973,-0.464214,1.58456,-3.38504,0.0647172,-0.0163699,-0.03536,0.00207118,342,632,-0.0144331,-0.097537,98.2563,134.938,98.1609,135.025,5.24431e-05,5.3119e-05,0.00018071
-7.8435,3.42995,-296.503,0.00154579,0.00347006,0.00640514,2.92611e-05,-0.000112161,-0.000137272,0.000112964,-0.000195863,-0.547564,0.000270645,-0.446718,1.5383,-3.27942,0.0824713,-0.0290659,-0.0407015,0.00203276,349,632,-0.0137294,-0.0973879,99.8794,135.619,99.7836,135.704,5.25559e-05,5.15864e-05,0.000180781
-7.55067,3.41941,-296.462,0.00159239,0.00341315,0.00639797,-3.84213e-05,-0.000134487,-0.000152377,7.33137e-05,-0.000246222,-0.632715,0.000289917,-0.422946,1.50335,-3.13362,0.0972647,-0.037788,-0.0435997,0.00200522,356,632,-0.0123295,-0.0976108,101.362,136.258,101.265,136.339,5.13935e-05,5.0362e-05,0.000177063
-7.25844,3.40949,-296.423,0.00161615,0.00336087,0.00630282,-0.000103891,-0.00015807,-0.000167712,3.89046e-05,-0.000300866,-0.705328,0.000322086,-0.391235,1.52368,-2.92227,0.105379,-0.0415555,-0.0425969,0.00195508,363,632,-0.0108496,-0.098692,102.814,136.862,102.717,136.94,5.09798e-05,4.9971e-05,0.000176032
-6.96626,3.39913,-296.382,0.00162533,0.00336068,0.00608853,-0.000161932,-0.000177872,-0.00018179,1.2063e-05,-0.000351867,-0.763492,0.000358051,-0.324532,1.55177,-2.80588,0.108442,-0.0394181,-0.0372468,0.00196728,370,632,-0.00889221,-0.10019,104.264,137.489,104.169,137.566,5.0597e-05,4.98568e-05,0.000175258
-6.67279,3.38892,-296.337,0.00158544,0.00338982,0.00579873,-0.000212992,-0.000190942,-0.000192818,-8.83346e-06,-0.0003951,-0.813956,0.000390758,-0.286721,1.5634,-2.80114,0.109277,-0.0324923,-0.0276533,0.00205006,377,632,-0.0076463,-0.103518,105.785,138.115,105.693,138.191,5.1999e-05,4.92162e-05,0.000180349
-6.37869,3.3787,-296.289,0.00154548,0.00338855,0.00554038,-0.000257787,-0.000194123,-0.000201216,-2.22365e-05,-0.000429674,-0.863848,0.000418998,-0.295707,1.55098,-2.98641,0.109885,-0.0235703,-0.0147972,0.00208159,384,632,-0.00660589,-0.105136,107.343,138.746,107.254,138.821,5.34596e-05,4.84665e-05,0.000185205
-6.0838,3.36864,-296.238,0.00146338,0.00339686,0.00534488,-0.000295489,-0.000187381,-0.000208743,-2.58067e-05,-0.000457064,-0.912089,0.000444722,-0.274795,1.53031,-3.0505,0.107456,-0.0126487,-9.78471e-05,0.002037,391,632,-0.00711354,-0.107555,108.947,139.374,108.861,139.448,5.31312e-05,4.80267e-05,0.000183863
-5.78834,3.35873,-296.184,0.00138857,0.00335686,0.00516398,-0.00032569,-0.000171678,-0.000218403,-1.71035e-05,-0.000480265,-0.954887,0.000471946,-0.260512,1.52262,-3.08317,0.100905,-0.00315584,0.0143801,0.00198132,398,632,-0.00749965,-0.108358,110.586,140,110.504,140.071,5.17313e-05,4.90972e-05,0.000178797
-5.49186,3.34852,-296.125,0.00130119,0.00326517,0.00489664,-0.000348112,-0.000149971,-0.000227231,-1.15289e-06,-0.00049693,-0.99097,0.000496355,-0.205342,1.52351,-2.90996,0.0898728,0.00522974,0.0293077,0.00198577,405,632,-0.00750472,-0.10706,112.283,140.648,112.206,140.716,5.01688e-05,5.07391e-05,0.000173414
-5.19553,3.33811,-296.067,0.00120285,0.00314868,0.00465138,-0.000362668,-0.000125117,-0.000234457,1.89338e-05,-0.000506718,-1.01985,0.000516446,-0.217065,1.51919,-2.71112,0.0745064,0.0113195,0.0388059,0.00204157,412,632,-0.0079246,-0.104325,113.976,141.309,113.904,141.373,5.08708e-05,5.20711e-05,0.000175825
-4.90149,3.3275,-296.015,0.00113442,0.00302211,0.00444764,-0.000373469,-0.000100173,-0.000237284,3.69965e-05,-0.000510639,-1.04665,0.000530106,-0.226006,1.5248,-2.77525,0.0620373,0.0130335,0.0451932,0.00206859,419,632,-0.00790483,-0.101767,115.55,141.97,115.481,142.03,5.22138e-05,5.30525e-05,0.000180279
-4.61032,3.31647,-295.973,0.00106498,0.00293131,0.00429856,-0.000383696,-7.85775e-05,-0.000235797,4.97098e-05,-0.000511983,-1.07253,0.000538562,-0.231918,1.51937,-2.8591,0.0566969,0.00800438,0.047303,0.00205586,426,632,-0.0083693,-0.101015,116.97,142.639,116.904,142.695,5.37e-05,5.21272e-05,0.000185092
-4.32232,3.30573,-295.941,0.000974784,0.00288434,0.00414161,-0.000394875,-6.22386e-05,-0.000230414,5.56126e-05,-0.000512726,-1.09801,0.000542673,-0.194193,1.55671,-2.85016,0.0576993,-0.00122089,0.0443433,0.00207958,433,632,-0.00935796,-0.101964,118.219,143.277,118.157,143.33,5.44516e-05,5.0971e-05,0.000187399
-4.03583,3.29524,-295.913,0.000899885,0.00283215,0.00383892,-0.000406863,-5.13023e-05,-0.000221534,5.49652e-05,-0.00051313,-1.12353,0.000542705,-0.141775,1.58211,-2.73793,0.0595609,-0.0122672,0.0360149,0.00213198,440,632,-0.00889611,-0.102479,119.387,143.894,119.329,143.945,5.60526e-05,5.07558e-05,0.0001928
-3.7492,3.28477,-295.884,0.000841993,0.00271969,0.00357263,-0.000416608,-4.59231e-05,-0.000208831,4.79517e-05,-0.000510482,-1.14834,0.000536069,-0.121905,1.60881,-2.6331,0.0586671,-0.0219329,0.0252787,0.00217663,447,632,-0.00820825,-0.100348,120.565,144.514,120.512,144.561,5.76615e-05,5.09303e-05,0.000198367
0,0,0,0,0,0,0,0,0,0,0,0,0,0,0,0,0,0,0,-1,454,632,0,0,0,0,0,0,0,0,0
-3.15918,3.26452,-295.767,0.000782542,0.00254558,0.003137,-0.000433963,-5.02997e-05,-0.000170193,1.43153e-05,-0.000498578,-1.20795,0.000505887,-0.20183,1.59308,-2.61984,0.0499645,-0.0296012,0.00169556,0.00225535,461,632,-0.00618836,-0.0950199,123.867,145.806,123.818,145.849,6.02192e-05,5.25483e-05,0.000207164
-2.85498,3.25457,-295.675,0.000696611,0.00251358,0.00280238,-0.000443358,-5.78936e-05,-0.000150788,-5.91611e-06,-0.000495335,-1.23885,0.000492404,-0.246208,1.61373,-2.67388,0.0490322,-0.0285717,-0.00756077,0.00224056,468,632,-0.00583046,-0.0946037,126.037,146.492,125.994,146.534,5.99363e-05,5.22826e-05,0.000206102
-2.55134,3.24446,-295.584,0.000589534,0.00251221,0.00235792,-0.000450558,-6.46001e-05,-0.000133345,-2.3012e-05,-0.000492146,-1.26847,0.000481053,-0.219953,1.63339,-2.51108,0.048588,-0.0243622,-0.0158339,0.0021466,475,632,-0.00526627,-0.0955792,128.183,147.185,128.147,147.227,5.75996e-05,5.15297e-05,0.000197927
-2.25634,3.23513,-295.522,0.00047869,0.00248468,0.00197623,-0.000450163,-6.85994e-05,-0.000118584,-3.47485e-05,-0.000484014,-1.29273,0.000467609,-0.162889,1.61246,-2.32926,0.0461954,-0.0143157,-0.0236314,0.00211714,482,632,-0.00523694,-0.0956529,129.854,147.794,129.824,147.835,5.58583e-05,5.16489e-05,0.000191972
-1.96823,3.22525,-295.484,0.000401293,0.00241759,0.00164583,-0.000438839,-7.10426e-05,-0.000106203,-4.25789e-05,-0.000467302,-1.30894,0.000447535,-0.105785,1.57508,-2.3067,0.0415796,0.00160113,-0.0308521,0.00212686,489,632,-0.00469862,-0.0940003,131.143,148.396,131.117,148.436,5.48592e-05,5.15774e-05,0.000188719
-1.68185,3.21506,-295.451,0.00033379,0.00238381,0.00145004,-0.000419548,-7.28605e-05,-9.44457e-05,-4.8801e-05,-0.000443608,-1.32136,0.000421332,-0.0732136,1.52489,-2.40852,0.0347681,0.0185872,-0.0357001,0.00218503,496,632,-0.00491766,-0.0921939,132.338,149.006,132.316,149.045,5.622e-05,5.27165e-05,0.000193421
-1.39073,3.20519,-295.401,0.000319384,0.00237488,0.00116186,-0.000397988,-7.53477e-05,-8.2464e-05,-5.54925e-05,-0.000417843,-1.33452,0.000393046,-0.0510511,1.53371,-2.61586,0.0245,0.0348015,-0.0385986,0.00219079,503,632,-0.00317727,-0.0916061,133.807,149.625,133.788,149.665,5.71893e-05,5.39713e-05,0.000196387
-1.09462,3.19498,-295.332,0.000289043,0.00240063,0.000797584,-0.000375748,-7.64351e-05,-7.26851e-05,-5.97179e-05,-0.000392465,-1.34473,0.000366276,-0.0274816,1.56122,-2.87818,0.00722826,0.0454909,-0.0442436,0.00224081,510,632,-0.00135539,-0.092855,135.564,150.29,135.548,150.331,5.85568e-05,5.61906e-05,0.00020078
-0.79762,3.18467,-295.259,0.000253808,0.00240401,0.000385278,-0.000351147,-7.64225e-05,-6.43882e-05,-6.20804e-05,-0.000365489,-1.35163,0.000338742,-0.0215519,1.60873,-2.99196,-0.0123716,0.0519461,-0.0520131,0.00231248,517,632,0.000684073,-0.0947749,137.378,150.969,137.367,151.009,6.02602e-05,5.82872e-05,0.00020633
-0.502046,3.1747,-295.19,0.000190683,0.00237809,0.000132299,-0.000321288,-7.58299e-05,-6.14743e-05,-6.12946e-05,-0.000335823,-1.33861,0.000309758,-0.0315049,1.63118,-2.99919,-0.0373923,0.0562227,-0.063359,0.00243169,524,632,0.00089963,-0.096385,139.119,151.626,139.112,151.664,6.38002e-05,6.03019e-05,0.000218475
-0.208649,3.1644,-295.128,9.28097e-05,0.00236698,5.0386e-05,-0.000290336,-7.94164e-05,-5.70169e-05,-6.49901e-05,-0.000304763,-1.32298,0.000278024,-0.0622535,1.58991,-2.94841,-0.0650578,0.0597294,-0.0759978,0.00252319,531,632,-0.000994715,-0.097372,140.742,152.288,140.738,152.325,6.67975e-05,6.17048e-05,0.000228535
0.0826734,3.15413,-295.073,4.22254e-05,0.0024028,4.39102e-05,-0.000263011,-8.36779e-05,-4.85468e-05,-7.13794e-05,-0.00027531,-1.32268,0.000247465,-0.0705573,1.50905,-2.83248,-0.0925538,0.0600222,-0.0899091,0.00256999,538,632,-0.00227552,-0.0988637,142.254,152.938,142.252,152.975,6.79302e-05,6.24715e-05,0.000232195
0.372873,3.14374,-295.021,2.02172e-05,0.00242246,-5.06392e-05,-0.000239664,-8.69725e-05,-3.54822e-05,-7.913e-05,-0.000247506,-1.35327,0.000218942,-0.0831259,1.46016,-2.73466,-0.119203,0.0582913,-0.106083,0.00258326,545,632,-0.00218733,-0.0991097,143.707,153.588,143.706,153.627,6.83019e-05,6.41513e-05,0.000232772
0.662342,3.1338,-294.971,-3.68176e-06,0.00242402,-0.000285722,-0.00021703,-8.55537e-05,-1.84805e-05,-8.30055e-05,-0.000219578,-1.43377,0.000192037,-0.0967698,1.42243,-2.76257,-0.145392,0.0550684,-0.125094,0.00262954,552,632,-0.00115327,-0.0999454,145.123,154.214,145.125,154.252,6.90096e-05,6.63631e-05,0.000234311
0.950366,3.12389,-294.925,-4.62844e-05,0.0024041,-0.000623549,-0.000194078,-7.49665e-05,1.62616e-06,-7.49443e-05,-0.0001941,1.55715,0.000169543,-0.104433,1.43376,-2.77933,-0.171154,0.0513651,-0.14475,0.00268865,559,632,0.000135135,-0.100825,146.46,154.832,146.466,154.869,7.10357e-05,6.68207e-05,0.000240806
1.23808,3.11422,-294.879,-9.62643e-05,0.00241317,-0.000836306,-0.000176893,-5.26203e-05,2.31652e-05,-4.84426e-05,-0.000181071,1.39237,0.000162363,-0.148174,1.44254,-3.12147,-0.195847,0.0491402,-0.163146,0.00272213,566,632,0.000322977,-0.10165,147.785,155.436,147.795,155.472,7.31926e-05,6.56146e-05,0.00024733
1.52506,3.10434,-294.836,-8.0271e-05,0.00239658,-0.000868468,-0.00017246,-1.70832e-05,4.45479e-05,-5.21711e-06,-0.000184326,1.31047,0.000181773,-0.190099,1.42369,-3.44946,-0.216033,0.0467205,-0.180942,0.0027875,573,632,0.000952475,-0.101433,149.075,156.049,149.084,156.085,7.55784e-05,6.54001e-05,0.000254579
0,0,0,0,0,0,0,0,0,0,0,0,0,0,0,0,0,0,0,-1,580,632,0,0,0,0,0,0,0,0,0
0,0,0,0,0,0,0,0,0,0,0,0,0,0,0,0,0,0,0,-1,587,632,0,0,0,0,0,0,0,0,0
0,0,0,0,0,0,0,0,0,0,0,0,0,0,0,0,0,0,0,-1,594,632,0,0,0,0,0,0,0,0,0
0,0,0,0,0,0,0,0,0,0,0,0,0,0,0,0,0,0,0,-1,601,632,0,0,0,0,0,0,0,0,0
0,0,0,0,0,0,0,0,0,0,0,0,0,0,0,0,0,0,0,-1,62,639,0,0,0,0,0,0,0,0,0
0,0,0,0,0,0,0,0,0,0,0,0,0,0,0,0,0,0,0,-1,69,639,0,0,0,0,0,0,0,0,0
0,0,0,0,0,0,0,0,0,0,0,0,0,0,0,0,0,0,0,-1,76,639,0,0,0,0,0,0,0,0,0
0,0,0,0,0,0,0,0,0,0,0,0,0,0,0,0,0,0,0,-1,83,639,0,0,0,0,0,0,0,0,0
0,0,0,0,0,0,0,0,0,0,0,0,0,0,0,0,0,0,0,-1,90,639,0,0,0,0,0,0,0,0,0
0,0,0,0,0,0,0,0,0,0,0,0,0,0,0,0,0,0,0,-1,97,639,0,0,0,0,0,0,0,0,0
0,0,0,0,0,0,0,0,0,0,0,0,0,0,0,0,0,0,0,-1,104,639,0,0,0,0,0,0,0,0,0
0,0,0,0,0,0,0,0,0,0,0,0,0,0,0,0,0,0,0,-1,111,639,0,0,0,0,0,0,0,0,0
0,0,0,0,0,0,0,0,0,0,0,0,0,0,0,0,0,0,0,-1,118,639,0,0,0,0,0,0,0,0,0
0,0,0,0,0,0,0,0,0,0,0,0,0,0,0,0,0,0,0,-1,125,639,0,0,0,0,0,0,0,0,0
0,0,0,0,0,0,0,0,0,0,0,0,0,0,0,0,0,0,0,-1,132,639,0,0,0,0,0,0,0,0,0
0,0,0,0,0,0,0,0,0,0,0,0,0,0,0,0,0,0,0,-1,139,639,0,0,0,0,0,0,0,0,0
0,0,0,0,0,0,0,0,0,0,0,0,0,0,0,0,0,0,0,-1,146,639,0,0,0,0,0,0,0,0,0
0,0,0,0,0,0,0,0,0,0,0,0,0,0,0,0,0,0,0,-1,153,639,0,0,0,0,0,0,0,0,0
0,0,0,0,0,0,0,0,0,0,0,0,0,0,0,0,0,0,0,-1,160,639,0,0,0,0,0,0,0,0,0
0,0,0,0,0,0,0,0,0,0,0,0,0,0,0,0,0,0,0,-1,167,639,0,0,0,0,0,0,0,0,0
0,0,0,0,0,0,0,0,0,0,0,0,0,0,0,0,0,0,0,-1,174,639,0,0,0,0,0,0,0,0,0
0,0,0,0,0,0,0,0,0,0,0,0,0,0,0,0,0,0,0,-1,181,639,0,0,0,0,0,0,0,0,0
0,0,0,0,0,0,0,0,0,0,0,0,0,0,0,0,0,0,0,-1,188,639,0,0,0,0,0,0,0,0,0
0,0,0,0,0,0,0,0,0,0,0,0,0,0,0,0,0,0,0,-1,195,639,0,0,0,0,0,0,0,0,0
0,0,0,0,0,0,0,0,0,0,0,0,0,0,0,0,0,0,0,-1,202,639,0,0,0,0,0,0,0,0,0
0,0,0,0,0,0,0,0,0,0,0,0,0,0,0,0,0,0,0,-1,209,639,0,0,0,0,0,0,0,0,0
0,0,0,0,0,0,0,0,0,0,0,0,0,0,0,0,0,0,0,-1,216,639,0,0,0,0,0,0,0,0,0
0,0,0,0,0,0,0,0,0,0,0,0,0,0,0,0,0,0,0,-1,223,639,0,0,0,0,0,0,0,0,0
0,0,0,0,0,0,0,0,0,0,0,0,0,0,0,0,0,0,0,-1,230,639,0,0,0,0,0,0,0,0,0
0,0,0,0,0,0,0,0,0,0,0,0,0,0,0,0,0,0,0,-1,237,639,0,0,0,0,0,0,0,0,0
0,0,0,0,0,0,0,0,0,0,0,0,0,0,0,0,0,0,0,-1,244,639,0,0,0,0,0,0,0,0,0
0,0,0,0,0,0,0,0,0,0,0,0,0,0,0,0,0,0,0,-1,251,639,0,0,0,0,0,0,0,0,0
0,0,0,0,0,0,0,0,0,0,0,0,0,0,0,0,0,0,0,-1,258,639,0,0,0,0,0,0,0,0,0
0,0,0,0,0,0,0,0,0,0,0,0,0,0,0,0,0,0,0,-1,265,639,0,0,0,0,0,0,0,0,0
0,0,0,0,0,0,0,0,0,0,0,0,0,0,0,0,0,0,0,-1,272,639,0,0,0,0,0,0,0,0,0
0,0,0,0,0,0,0,0,0,0,0,0,0,0,0,0,0,0,0,-1,279,639,0,0,0,0,0,0,0,0,0
0,0,0,0,0,0,0,0,0,0,0,0,0,0,0,0,0,0,0,-1,286,639,0,0,0,0,0,0,0,0,0
0,0,0,0,0,0,0,0,0,0,0,0,0,0,0,0,0,0,0,-1,293,639,0,0,0,0,0,0,0,0,0
0,0,0,0,0,0,0,0,0,0,0,0,0,0,0,0,0,0,0,-1,300,639,0,0,0,0,0,0,0,0,0
0,0,0,0,0,0,0,0,0,0,0,0,0,0,0,0,0,0,0,-1,307,639,0,0,0,0,0,0,0,0,0
0,0,0,0,0,0,0,0,0,0,0,0,0,0,0,0,0,0,0,-1,314,639,0,0,0,0,0,0,0,0,0
0,0,0,0,0,0,0,0,0,0,0,0,0,0,0,0,0,0,0,-1,321,639,0,0,0,0,0,0,0,0,0
0,0,0,0,0,0,0,0,0,0,0,0,0,0,0,0,0,0,0,-1,328,639,0,0,0,0,0,0,0,0,0
0,0,0,0,0,0,0,0,0,0,0,0,0,0,0,0,0,0,0,-1,335,639,0,0,0,0,0,0,0,0,0
0,0,0,0,0,0,0,0,0,0,0,0,0,0,0,0,0,0,0,-1,342,639,0,0,0,0,0,0,0,0,0
0,0,0,0,0,0,0,0,0,0,0,0,0,0,0,0,0,0,0,-1,349,639,0,0,0,0,0,0,0,0,0
0,0,0,0,0,0,0,0,0,0,0,0,0,0,0,0,0,0,0,-1,356,639,0,0,0,0,0,0,0,0,0
0,0,0,0,0,0,0,0,0,0,0,0,0,0,0,0,0,0,0,-1,363,639,0,0,0,0,0,0,0,0,0
0,0,0,0,0,0,0,0,0,0,0,0,0,0,0,0,0,0,0,-1,370,639,0,0,0,0,0,0,0,0,0
0,0,0,0,0,0,0,0,0,0,0,0,0,0,0,0,0,0,0,-1,377,639,0,0,0,0,0,0,0,0,0
0,0,0,0,0,0,0,0,0,0,0,0,0,0,0,0,0,0,0,-1,384,639,0,0,0,0,0,0,0,0,0
0,0,0,0,0,0,0,0,0,0,0,0,0,0,0,0,0,0,0,-1,391,639,0,0,0,0,0,0,0,0,0
0,0,0,0,0,0,0,0,0,0,0,0,0,0,0,0,0,0,0,-1,398,639,0,0,0,0,0,0,0,0,0
0,0,0,0,0,0,0,0,0,0,0,0,0,0,0,0,0,0,0,-1,405,639,0,0,0,0,0,0,0,0,0
0,0,0,0,0,0,0,0,0,0,0,0,0,0,0,0,0,0,0,-1,412,639,0,0,0,0,0,0,0,0,0
0,0,0,0,0,0,0,0,0,0,0,0,0,0,0,0,0,0,0,-1,419,639,0,0,0,0,0,0,0,0,0
0,0,0,0,0,0,0,0,0,0,0,0,0,0,0,0,0,0,0,-1,426,639,0,0,0,0,0,0,0,0,0
0,0,0,0,0,0,0,0,0,0,0,0,0,0,0,0,0,0,0,-1,433,639,0,0,0,0,0,0,0,0,0
0,0,0,0,0,0,0,0,0,0,0,0,0,0,0,0,0,0,0,-1,440,639,0,0,0,0,0,0,0,0,0
0,0,0,0,0,0,0,0,0,0,0,0,0,0,0,0,0,0,0,-1,447,639,0,0,0,0,0,0,0,0,0
0,0,0,0,0,0,0,0,0,0,0,0,0,0,0,0,0,0,0,-1,454,639,0,0,0,0,0,0,0,0,0
0,0,0,0,0,0,0,0,0,0,0,0,0,0,0,0,0,0,0,-1,461,639,0,0,0,0,0,0,0,0,0
0,0,0,0,0,0,0,0,0,0,0,0,0,0,0,0,0,0,0,-1,468,639,0,0,0,0,0,0,0,0,0
0,0,0,0,0,0,0,0,0,0,0,0,0,0,0,0,0,0,0,-1,475,639,0,0,0,0,0,0,0,0,0
0,0,0,0,0,0,0,0,0,0,0,0,0,0,0,0,0,0,0,-1,482,639,0,0,0,0,0,0,0,0,0
0,0,0,0,0,0,0,0,0,0,0,0,0,0,0,0,0,0,0,-1,489,639,0,0,0,0,0,0,0,0,0
0,0,0,0,0,0,0,0,0,0,0,0,0,0,0,0,0,0,0,-1,496,639,0,0,0,0,0,0,0,0,0
0,0,0,0,0,0,0,0,0,0,0,0,0,0,0,0,0,0,0,-1,503,639,0,0,0,0,0,0,0,0,0
0,0,0,0,0,0,0,0,0,0,0,0,0,0,0,0,0,0,0,-1,510,639,0,0,0,0,0,0,0,0,0
0,0,0,0,0,0,0,0,0,0,0,0,0,0,0,0,0,0,0,-1,517,639,0,0,0,0,0,0,0,0,0
0,0,0,0,0,0,0,0,0,0,0,0,0,0,0,0,0,0,0,-1,524,639,0,0,0,0,0,0,0,0,0
0,0,0,0,0,0,0,0,0,0,0,0,0,0,0,0,0,0,0,-1,531,639,0,0,0,0,0,0,0,0,0
0,0,0,0,0,0,0,0,0,0,0,0,0,0,0,0,0,0,0,-1,538,639,0,0,0,0,0,0,0,0,0
0,0,0,0,0,0,0,0,0,0,0,0,0,0,0,0,0,0,0,-1,545,639,0,0,0,0,0,0,0,0,0
0,0,0,0,0,0,0,0,0,0,0,0,0,0,0,0,0,0,0,-1,552,639,0,0,0,0,0,0,0,0,0
0,0,0,0,0,0,0,0,0,0,0,0,0,0,0,0,0,0,0,-1,559,639,0,0,0,0,0,0,0,0,0
0,0,0,0,0,0,0,0,0,0,0,0,0,0,0,0,0,0,0,-1,566,639,0,0,0,0,0,0,0,0,0
0,0,0,0,0,0,0,0,0,0,0,0,0,0,0,0,0,0,0,-1,573,639,0,0,0,0,0,0,0,0,0
0,0,0,0,0,0,0,0,0,0,0,0,0,0,0,0,0,0,0,-1,580,639,0,0,0,0,0,0,0,0,0
0,0,0,0,0,0,0,0,0,0,0,0,0,0,0,0,0,0,0,-1,587,639,0,0,0,0,0,0,0,0,0
0,0,0,0,0,0,0,0,0,0,0,0,0,0,0,0,0,0,0,-1,594,639,0,0,0,0,0,0,0,0,0
0,0,0,0,0,0,0,0,0,0,0,0,0,0,0,0,0,0,0,-1,601,639,0,0,0,0,0,0,0,0,0
0,0,0,0,0,0,0,0,0,0,0,0,0,0,0,0,0,0,0,-1,62,646,0,0,0,0,0,0,0,0,0
0,0,0,0,0,0,0,0,0,0,0,0,0,0,0,0,0,0,0,-1,69,646,0,0,0,0,0,0,0,0,0
0,0,0,0,0,0,0,0,0,0,0,0,0,0,0,0,0,0,0,-1,76,646,0,0,0,0,0,0,0,0,0
0,0,0,0,0,0,0,0,0,0,0,0,0,0,0,0,0,0,0,-1,83,646,0,0,0,0,0,0,0,0,0
0,0,0,0,0,0,0,0,0,0,0,0,0,0,0,0,0,0,0,-1,90,646,0,0,0,0,0,0,0,0,0
0,0,0,0,0,0,0,0,0,0,0,0,0,0,0,0,0,0,0,-1,97,646,0,0,0,0,0,0,0,0,0
0,0,0,0,0,0,0,0,0,0,0,0,0,0,0,0,0,0,0,-1,104,646,0,0,0,0,0,0,0,0,0
0,0,0,0,0,0,0,0,0,0,0,0,0,0,0,0,0,0,0,-1,111,646,0,0,0,0,0,0,0,0,0
0,0,0,0,0,0,0,0,0,0,0,0,0,0,0,0,0,0,0,-1,118,646,0,0,0,0,0,0,0,0,0
0,0,0,0,0,0,0,0,0,0,0,0,0,0,0,0,0,0,0,-1,125,646,0,0,0,0,0,0,0,0,0
0,0,0,0,0,0,0,0,0,0,0,0,0,0,0,0,0,0,0,-1,132,646,0,0,0,0,0,0,0,0,0
0,0,0,0,0,0,0,0,0,0,0,0,0,0,0,0,0,0,0,-1,139,646,0,0,0,0,0,0,0,0,0
0,0,0,0,0,0,0,0,0,0,0,0,0,0,0,0,0,0,0,-1,146,646,0,0,0,0,0,0,0,0,0
0,0,0,0,0,0,0,0,0,0,0,0,0,0,0,0,0,0,0,-1,153,646,0,0,0,0,0,0,0,0,0
0,0,0,0,0,0,0,0,0,0,0,0,0,0,0,0,0,0,0,-1,160,646,0,0,0,0,0,0,0,0,0
0,0,0,0,0,0,0,0,0,0,0,0,0,0,0,0,0,0,0,-1,167,646,0,0,0,0,0,0,0,0,0
0,0,0,0,0,0,0,0,0,0,0,0,0,0,0,0,0,0,0,-1,174,646,0,0,0,0,0,0,0,0,0
0,0,0,0,0,0,0,0,0,0,0,0,0,0,0,0,0,0,0,-1,181,646,0,0,0,0,0,0,0,0,0
0,0,0,0,0,0,0,0,0,0,0,0,0,0,0,0,0,0,0,-1,188,646,0,0,0,0,0,0,0,0,0
0,0,0,0,0,0,0,0,0,0,0,0,0,0,0,0,0,0,0,-1,195,646,0,0,0,0,0,0,0,0,0
0,0,0,0,0,0,0,0,0,0,0,0,0,0,0,0,0,0,0,-1,202,646,0,0,0,0,0,0,0,0,0
0,0,0,0,0,0,0,0,0,0,0,0,0,0,0,0,0,0,0,-1,209,646,0,0,0,0,0,0,0,0,0
0,0,0,0,0,0,0,0,0,0,0,0,0,0,0,0,0,0,0,-1,216,646,0,0,0,0,0,0,0,0,0
0,0,0,0,0,0,0,0,0,0,0,0,0,0,0,0,0,0,0,-1,223,646,0,0,0,0,0,0,0,0,0
0,0,0,0,0,0,0,0,0,0,0,0,0,0,0,0,0,0,0,-1,230,646,0,0,0,0,0,0,0,0,0
0,0,0,0,0,0,0,0,0,0,0,0,0,0,0,0,0,0,0,-1,237,646,0,0,0,0,0,0,0,0,0
0,0,0,0,0,0,0,0,0,0,0,0,0,0,0,0,0,0,0,-1,244,646,0,0,0,0,0,0,0,0,0
0,0,0,0,0,0,0,0,0,0,0,0,0,0,0,0,0,0,0,-1,251,646,0,0,0,0,0,0,0,0,0
0,0,0,0,0,0,0,0,0,0,0,0,0,0,0,0,0,0,0,-1,258,646,0,0,0,0,0,0,0,0,0
0,0,0,0,0,0,0,0,0,0,0,0,0,0,0,0,0,0,0,-1,265,646,0,0,0,0,0,0,0,0,0
0,0,0,0,0,0,0,0,0,0,0,0,0,0,0,0,0,0,0,-1,272,646,0,0,0,0,0,0,0,0,0
0,0,0,0,0,0,0,0,0,0,0,0,0,0,0,0,0,0,0,-1,279,646,0,0,0,0,0,0,0,0,0
0,0,0,0,0,0,0,0,0,0,0,0,0,0,0,0,0,0,0,-1,286,646,0,0,0,0,0,0,0,0,0
0,0,0,0,0,0,0,0,0,0,0,0,0,0,0,0,0,0,0,-1,293,646,0,0,0,0,0,0,0,0,0
0,0,0,0,0,0,0,0,0,0,0,0,0,0,0,0,0,0,0,-1,300,646,0,0,0,0,0,0,0,0,0
0,0,0,0,0,0,0,0,0,0,0,0,0,0,0,0,0,0,0,-1,307,646,0,0,0,0,0,0,0,0,0
0,0,0,0,0,0,0,0,0,0,0,0,0,0,0,0,0,0,0,-1,314,646,0,0,0,0,0,0,0,0,0
0,0,0,0,0,0,0,0,0,0,0,0,0,0,0,0,0,0,0,-1,321,646,0,0,0,0,0,0,0,0,0
0,0,0,0,0,0,0,0,0,0,0,0,0,0,0,0,0,0,0,-1,328,646,0,0,0,0,0,0,0,0,0
0,0,0,0,0,0,0,0,0,0,0,0,0,0,0,0,0,0,0,-1,335,646,0,0,0,0,0,0,0,0,0
0,0,0,0,0,0,0,0,0,0,0,0,0,0,0,0,0,0,0,-1,342,646,0,0,0,0,0,0,0,0,0
0,0,0,0,0,0,0,0,0,0,0,0,0,0,0,0,0,0,0,-1,349,646,0,0,0,0,0,0,0,0,0
0,0,0,0,0,0,0,0,0,0,0,0,0,0,0,0,0,0,0,-1,356,646,0,0,0,0,0,0,0,0,0
0,0,0,0,0,0,0,0,0,0,0,0,0,0,0,0,0,0,0,-1,363,646,0,0,0,0,0,0,0,0,0
0,0,0,0,0,0,0,0,0,0,0,0,0,0,0,0,0,0,0,-1,370,646,0,0,0,0,0,0,0,0,0
0,0,0,0,0,0,0,0,0,0,0,0,0,0,0,0,0,0,0,-1,377,646,0,0,0,0,0,0,0,0,0
0,0,0,0,0,0,0,0,0,0,0,0,0,0,0,0,0,0,0,-1,384,646,0,0,0,0,0,0,0,0,0
0,0,0,0,0,0,0,0,0,0,0,0,0,0,0,0,0,0,0,-1,391,646,0,0,0,0,0,0,0,0,0
0,0,0,0,0,0,0,0,0,0,0,0,0,0,0,0,0,0,0,-1,398,646,0,0,0,0,0,0,0,0,0
0,0,0,0,0,0,0,0,0,0,0,0,0,0,0,0,0,0,0,-1,405,646,0,0,0,0,0,0,0,0,0
0,0,0,0,0,0,0,0,0,0,0,0,0,0,0,0,0,0,0,-1,412,646,0,0,0,0,0,0,0,0,0
0,0,0,0,0,0,0,0,0,0,0,0,0,0,0,0,0,0,0,-1,419,646,0,0,0,0,0,0,0,0,0
0,0,0,0,0,0,0,0,0,0,0,0,0,0,0,0,0,0,0,-1,426,646,0,0,0,0,0,0,0,0,0
0,0,0,0,0,0,0,0,0,0,0,0,0,0,0,0,0,0,0,-1,433,646,0,0,0,0,0,0,0,0,0
0,0,0,0,0,0,0,0,0,0,0,0,0,0,0,0,0,0,0,-1,440,646,0,0,0,0,0,0,0,0,0
0,0,0,0,0,0,0,0,0,0,0,0,0,0,0,0,0,0,0,-1,447,646,0,0,0,0,0,0,0,0,0
0,0,0,0,0,0,0,0,0,0,0,0,0,0,0,0,0,0,0,-1,454,646,0,0,0,0,0,0,0,0,0
0,0,0,0,0,0,0,0,0,0,0,0,0,0,0,0,0,0,0,-1,461,646,0,0,0,0,0,0,0,0,0
0,0,0,0,0,0,0,0,0,0,0,0,0,0,0,0,0,0,0,-1,468,646,0,0,0,0,0,0,0,0,0
0,0,0,0,0,0,0,0,0,0,0,0,0,0,0,0,0,0,0,-1,475,646,0,0,0,0,0,0,0,0,0
0,0,0,0,0,0,0,0,0,0,0,0,0,0,0,0,0,0,0,-1,482,646,0,0,0,0,0,0,0,0,0
0,0,0,0,0,0,0,0,0,0,0,0,0,0,0,0,0,0,0,-1,489,646,0,0,0,0,0,0,0,0,0
0,0,0,0,0,0,0,0,0,0,0,0,0,0,0,0,0,0,0,-1,496,646,0,0,0,0,0,0,0,0,0
0,0,0,0,0,0,0,0,0,0,0,0,0,0,0,0,0,0,0,-1,503,646,0,0,0,0,0,0,0,0,0
0,0,0,0,0,0,0,0,0,0,0,0,0,0,0,0,0,0,0,-1,510,646,0,0,0,0,0,0,0,0,0
0,0,0,0,0,0,0,0,0,0,0,0,0,0,0,0,0,0,0,-1,517,646,0,0,0,0,0,0,0,0,0
0,0,0,0,0,0,0,0,0,0,0,0,0,0,0,0,0,0,0,-1,524,646,0,0,0,0,0,0,0,0,0
0,0,0,0,0,0,0,0,0,0,0,0,0,0,0,0,0,0,0,-1,531,646,0,0,0,0,0,0,0,0,0
0,0,0,0,0,0,0,0,0,0,0,0,0,0,0,0,0,0,0,-1,538,646,0,0,0,0,0,0,0,0,0
0,0,0,0,0,0,0,0,0,0,0,0,0,0,0,0,0,0,0,-1,545,646,0,0,0,0,0,0,0,0,0
0,0,0,0,0,0,0,0,0,0,0,0,0,0,0,0,0,0,0,-1,552,646,0,0,0,0,0,0,0,0,0
0,0,0,0,0,0,0,0,0,0,0,0,0,0,0,0,0,0,0,-1,559,646,0,0,0,0,0,0,0,0,0
0,0,0,0,0,0,0,0,0,0,0,0,0,0,0,0,0,0,0,-1,566,646,0,0,0,0,0,0,0,0,0
0,0,0,0,0,0,0,0,0,0,0,0,0,0,0,0,0,0,0,-1,573,646,0,0,0,0,0,0,0,0,0
0,0,0,0,0,0,0,0,0,0,0,0,0,0,0,0,0,0,0,-1,580,646,0,0,0,0,0,0,0,0,0
0,0,0,0,0,0,0,0,0,0,0,0,0,0,0,0,0,0,0,-1,587,646,0,0,0,0,0,0,0,0,0
0,0,0,0,0,0,0,0,0,0,0,0,0,0,0,0,0,0,0,-1,594,646,0,0,0,0,0,0,0,0,0
0,0,0,0,0,0,0,0,0,0,0,0,0,0,0,0,0,0,0,-1,601,646,0,0,0,0,0,0,0,0,0
0,0,0,0,0,0,0,0,0,0,0,0,0,0,0,0,0,0,0,-1,62,653,0,0,0,0,0,0,0,0,0
0,0,0,0,0,0,0,0,0,0,0,0,0,0,0,0,0,0,0,-1,69,653,0,0,0,0,0,0,0,0,0
0,0,0,0,0,0,0,0,0,0,0,0,0,0,0,0,0,0,0,-1,76,653,0,0,0,0,0,0,0,0,0
0,0,0,0,0,0,0,0,0,0,0,0,0,0,0,0,0,0,0,-1,83,653,0,0,0,0,0,0,0,0,0
0,0,0,0,0,0,0,0,0,0,0,0,0,0,0,0,0,0,0,-1,90,653,0,0,0,0,0,0,0,0,0
0,0,0,0,0,0,0,0,0,0,0,0,0,0,0,0,0,0,0,-1,97,653,0,0,0,0,0,0,0,0,0
0,0,0,0,0,0,0,0,0,0,0,0,0,0,0,0,0,0,0,-1,104,653,0,0,0,0,0,0,0,0,0
0,0,0,0,0,0,0,0,0,0,0,0,0,0,0,0,0,0,0,-1,111,653,0,0,0,0,0,0,0,0,0
0,0,0,0,0,0,0,0,0,0,0,0,0,0,0,0,0,0,0,-1,118,653,0,0,0,0,0,0,0,0,0
0,0,0,0,0,0,0,0,0,0,0,0,0,0,0,0,0,0,0,-1,125,653,0,0,0,0,0,0,0,0,0
0,0,0,0,0,0,0,0,0,0,0,0,0,0,0,0,0,0,0,-1,132,653,0,0,0,0,0,0,0,0,0
0,0,0,0,0,0,0,0,0,0,0,0,0,0,0,0,0,0,0,-1,139,653,0,0,0,0,0,0,0,0,0
0,0,0,0,0,0,0,0,0,0,0,0,0,0,0,0,0,0,0,-1,146,653,0,0,0,0,0,0,0,0,0
0,0,0,0,0,0,0,0,0,0,0,0,0,0,0,0,0,0,0,-1,153,653,0,0,0,0,0,0,0,0,0
0,0,0,0,0,0,0,0,0,0,0,0,0,0,0,0,0,0,0,-1,160,653,0,0,0,0,0,0,0,0,0
0,0,0,0,0,0,0,0,0,0,0,0,0,0,0,0,0,0,0,-1,167,653,0,0,0,0,0,0,0,0,0
0,0,0,0,0,0,0,0,0,0,0,0,0,0,0,0,0,0,0,-1,174,653,0,0,0,0,0,0,0,0,0
0,0,0,0,0,0,0,0,0,0,0,0,0,0,0,0,0,0,0,-1,181,653,0,0,0,0,0,0,0,0,0
0,0,0,0,0,0,0,0,0,0,0,0,0,0,0,0,0,0,0,-1,188,653,0,0,0,0,0,0,0,0,0
0,0,0,0,0,0,0,0,0,0,0,0,0,0,0,0,0,0,0,-1,195,653,0,0,0,0,0,0,0,0,0
0,0,0,0,0,0,0,0,0,0,0,0,0,0,0,0,0,0,0,-1,202,653,0,0,0,0,0,0,0,0,0
0,0,0,0,0,0,0,0,0,0,0,0,0,0,0,0,0,0,0,-1,209,653,0,0,0,0,0,0,0,0,0
0,0,0,0,0,0,0,0,0,0,0,0,0,0,0,0,0,0,0,-1,216,653,0,0,0,0,0,0,0,0,0
0,0,0,0,0,0,0,0,0,0,0,0,0,0,0,0,0,0,0,-1,223,653,0,0,0,0,0,0,0,0,0
0,0,0,0,0,0,0,0,0,0,0,0,0,0,0,0,0,0,0,-1,230,653,0,0,0,0,0,0,0,0,0
0,0,0,0,0,0,0,0,0,0,0,0,0,0,0,0,0,0,0,-1,237,653,0,0,0,0,0,0,0,0,0
0,0,0,0,0,0,0,0,0,0,0,0,0,0,0,0,0,0,0,-1,244,653,0,0,0,0,0,0,0,0,0
0,0,0,0,0,0,0,0,0,0,0,0,0,0,0,0,0,0,0,-1,251,653,0,0,0,0,0,0,0,0,0
0,0,0,0,0,0,0,0,0,0,0,0,0,0,0,0,0,0,0,-1,258,653,0,0,0,0,0,0,0,0,0
0,0,0,0,0,0,0,0,0,0,0,0,0,0,0,0,0,0,0,-1,265,653,0,0,0,0,0,0,0,0,0
0,0,0,0,0,0,0,0,0,0,0,0,0,0,0,0,0,0,0,-1,272,653,0,0,0,0,0,0,0,0,0
0,0,0,0,0,0,0,0,0,0,0,0,0,0,0,0,0,0,0,-1,279,653,0,0,0,0,0,0,0,0,0
0,0,0,0,0,0,0,0,0,0,0,0,0,0,0,0,0,0,0,-1,286,653,0,0,0,0,0,0,0,0,0
0,0,0,0,0,0,0,0,0,0,0,0,0,0,0,0,0,0,0,-1,293,653,0,0,0,0,0,0,0,0,0
0,0,0,0,0,0,0,0,0,0,0,0,0,0,0,0,0,0,0,-1,300,653,0,0,0,0,0,0,0,0,0
0,0,0,0,0,0,0,0,0,0,0,0,0,0,0,0,0,0,0,-1,307,653,0,0,0,0,0,0,0,0,0
0,0,0,0,0,0,0,0,0,0,0,0,0,0,0,0,0,0,0,-1,314,653,0,0,0,0,0,0,0,0,0
0,0,0,0,0,0,0,0,0,0,0,0,0,0,0,0,0,0,0,-1,321,653,0,0,0,0,0,0,0,0,0
0,0,0,0,0,0,0,0,0,0,0,0,0,0,0,0,0,0,0,-1,328,653,0,0,0,0,0,0,0,0,0
0,0,0,0,0,0,0,0,0,0,0,0,0,0,0,0,0,0,0,-1,335,653,0,0,0,0,0,0,0,0,0
0,0,0,0,0,0,0,0,0,0,0,0,0,0,0,0,0,0,0,-1,342,653,0,0,0,0,0,0,0,0,0
0,0,0,0,0,0,0,0,0,0,0,0,0,0,0,0,0,0,0,-1,349,653,0,0,0,0,0,0,0,0,0
0,0,0,0,0,0,0,0,0,0,0,0,0,0,0,0,0,0,0,-1,356,653,0,0,0,0,0,0,0,0,0
0,0,0,0,0,0,0,0,0,0,0,0,0,0,0,0,0,0,0,-1,363,653,0,0,0,0,0,0,0,0,0
0,0,0,0,0,0,0,0,0,0,0,0,0,0,0,0,0,0,0,-1,370,653,0,0,0,0,0,0,0,0,0
0,0,0,0,0,0,0,0,0,0,0,0,0,0,0,0,0,0,0,-1,377,653,0,0,0,0,0,0,0,0,0
0,0,0,0,0,0,0,0,0,0,0,0,0,0,0,0,0,0,0,-1,384,653,0,0,0,0,0,0,0,0,0
0,0,0,0,0,0,0,0,0,0,0,0,0,0,0,0,0,0,0,-1,391,653,0,0,0,0,0,0,0,0,0
0,0,0,0,0,0,0,0,0,0,0,0,0,0,0,0,0,0,0,-1,398,653,0,0,0,0,0,0,0,0,0
0,0,0,0,0,0,0,0,0,0,0,0,0,0,0,0,0,0,0,-1,405,653,0,0,0,0,0,0,0,0,0
0,0,0,0,0,0,0,0,0,0,0,0,0,0,0,0,0,0,0,-1,412,653,0,0,0,0,0,0,0,0,0
0,0,0,0,0,0,0,0,0,0,0,0,0,0,0,0,0,0,0,-1,419,653,0,0,0,0,0,0,0,0,0
0,0,0,0,0,0,0,0,0,0,0,0,0,0,0,0,0,0,0,-1,426,653,0,0,0,0,0,0,0,0,0
0,0,0,0,0,0,0,0,0,0,0,0,0,0,0,0,0,0,0,-1,433,653,0,0,0,0,0,0,0,0,0
0,0,0,0,0,0,0,0,0,0,0,0,0,0,0,0,0,0,0,-1,440,653,0,0,0,0,0,0,0,0,0
0,0,0,0,0,0,0,0,0,0,0,0,0,0,0,0,0,0,0,-1,447,653,0,0,0,0,0,0,0,0,0
0,0,0,0,0,0,0,0,0,0,0,0,0,0,0,0,0,0,0,-1,454,653,0,0,0,0,0,0,0,0,0
0,0,0,0,0,0,0,0,0,0,0,0,0,0,0,0,0,0,0,-1,461,653,0,0,0,0,0,0,0,0,0
0,0,0,0,0,0,0,0,0,0,0,0,0,0,0,0,0,0,0,-1,468,653,0,0,0,0,0,0,0,0,0
0,0,0,0,0,0,0,0,0,0,0,0,0,0,0,0,0,0,0,-1,475,653,0,0,0,0,0,0,0,0,0
0,0,0,0,0,0,0,0,0,0,0,0,0,0,0,0,0,0,0,-1,482,653,0,0,0,0,0,0,0,0,0
0,0,0,0,0,0,0,0,0,0,0,0,0,0,0,0,0,0,0,-1,489,653,0,0,0,0,0,0,0,0,0
0,0,0,0,0,0,0,0,0,0,0,0,0,0,0,0,0,0,0,-1,496,653,0,0,0,0,0,0,0,0,0
0,0,0,0,0,0,0,0,0,0,0,0,0,0,0,0,0,0,0,-1,503,653,0,0,0,0,0,0,0,0,0
0,0,0,0,0,0,0,0,0,0,0,0,0,0,0,0,0,0,0,-1,510,653,0,0,0,0,0,0,0,0,0
0,0,0,0,0,0,0,0,0,0,0,0,0,0,0,0,0,0,0,-1,517,653,0,0,0,0,0,0,0,0,0
0,0,0,0,0,0,0,0,0,0,0,0,0,0,0,0,0,0,0,-1,524,653,0,0,0,0,0,0,0,0,0
0,0,0,0,0,0,0,0,0,0,0,0,0,0,0,0,0,0,0,-1,531,653,0,0,0,0,0,0,0,0,0
0,0,0,0,0,0,0,0,0,0,0,0,0,0,0,0,0,0,0,-1,538,653,0,0,0,0,0,0,0,0,0
0,0,0,0,0,0,0,0,0,0,0,0,0,0,0,0,0,0,0,-1,545,653,0,0,0,0,0,0,0,0,0
0,0,0,0,0,0,0,0,0,0,0,0,0,0,0,0,0,0,0,-1,552,653,0,0,0,0,0,0,0,0,0
0,0,0,0,0,0,0,0,0,0,0,0,0,0,0,0,0,0,0,-1,559,653,0,0,0,0,0,0,0,0,0
0,0,0,0,0,0,0,0,0,0,0,0,0,0,0,0,0,0,0,-1,566,653,0,0,0,0,0,0,0,0,0
0,0,0,0,0,0,0,0,0,0,0,0,0,0,0,0,0,0,0,-1,573,653,0,0,0,0,0,0,0,0,0
0,0,0,0,0,0,0,0,0,0,0,0,0,0,0,0,0,0,0,-1,580,653,0,0,0,0,0,0,0,0,0
0,0,0,0,0,0,0,0,0,0,0,0,0,0,0,0,0,0,0,-1,587,653,0,0,0,0,0,0,0,0,0
0,0,0,0,0,0,0,0,0,0,0,0,0,0,0,0,0,0,0,-1,594,653,0,0,0,0,0,0,0,0,0
0,0,0,0,0,0,0,0,0,0,0,0,0,0,0,0,0,0,0,-1,601,653,0,0,0,0,0,0,0,0,0
0,0,0,0,0,0,0,0,0,0,0,0,0,0,0,0,0,0,0,-1,62,660,0,0,0,0,0,0,0,0,0
0,0,0,0,0,0,0,0,0,0,0,0,0,0,0,0,0,0,0,-1,69,660,0,0,0,0,0,0,0,0,0
0,0,0,0,0,0,0,0,0,0,0,0,0,0,0,0,0,0,0,-1,76,660,0,0,0,0,0,0,0,0,0
0,0,0,0,0,0,0,0,0,0,0,0,0,0,0,0,0,0,0,-1,83,660,0,0,0,0,0,0,0,0,0
0,0,0,0,0,0,0,0,0,0,0,0,0,0,0,0,0,0,0,-1,90,660,0,0,0,0,0,0,0,0,0
0,0,0,0,0,0,0,0,0,0,0,0,0,0,0,0,0,0,0,-1,97,660,0,0,0,0,0,0,0,0,0
0,0,0,0,0,0,0,0,0,0,0,0,0,0,0,0,0,0,0,-1,104,660,0,0,0,0,0,0,0,0,0
0,0,0,0,0,0,0,0,0,0,0,0,0,0,0,0,0,0,0,-1,111,660,0,0,0,0,0,0,0,0,0
0,0,0,0,0,0,0,0,0,0,0,0,0,0,0,0,0,0,0,-1,118,660,0,0,0,0,0,0,0,0,0
0,0,0,0,0,0,0,0,0,0,0,0,0,0,0,0,0,0,0,-1,125,660,0,0,0,0,0,0,0,0,0
0,0,0,0,0,0,0,0,0,0,0,0,0,0,0,0,0,0,0,-1,132,660,0,0,0,0,0,0,0,0,0
0,0,0,0,0,0,0,0,0,0,0,0,0,0,0,0,0,0,0,-1,139,660,0,0,0,0,0,0,0,0,0
0,0,0,0,0,0,0,0,0,0,0,0,0,0,0,0,0,0,0,-1,146,660,0,0,0,0,0,0,0,0,0
0,0,0,0,0,0,0,0,0,0,0,0,0,0,0,0,0,0,0,-1,153,660,0,0,0,0,0,0,0,0,0
0,0,0,0,0,0,0,0,0,0,0,0,0,0,0,0,0,0,0,-1,160,660,0,0,0,0,0,0,0,0,0
0,0,0,0,0,0,0,0,0,0,0,0,0,0,0,0,0,0,0,-1,167,660,0,0,0,0,0,0,0,0,0
0,0,0,0,0,0,0,0,0,0,0,0,0,0,0,0,0,0,0,-1,174,660,0,0,0,0,0,0,0,0,0
0,0,0,0,0,0,0,0,0,0,0,0,0,0,0,0,0,0,0,-1,181,660,0,0,0,0,0,0,0,0,0
0,0,0,0,0,0,0,0,0,0,0,0,0,0,0,0,0,0,0,-1,188,660,0,0,0,0,0,0,0,0,0
0,0,0,0,0,0,0,0,0,0,0,0,0,0,0,0,0,0,0,-1,195,660,0,0,0,0,0,0,0,0,0
0,0,0,0,0,0,0,0,0,0,0,0,0,0,0,0,0,0,0,-1,202,660,0,0,0,0,0,0,0,0,0
0,0,0,0,0,0,0,0,0,0,0,0,0,0,0,0,0,0,0,-1,209,660,0,0,0,0,0,0,0,0,0
0,0,0,0,0,0,0,0,0,0,0,0,0,0,0,0,0,0,0,-1,216,660,0,0,0,0,0,0,0,0,0
0,0,0,0,0,0,0,0,0,0,0,0,0,0,0,0,0,0,0,-1,223,660,0,0,0,0,0,0,0,0,0
0,0,0,0,0,0,0,0,0,0,0,0,0,0,0,0,0,0,0,-1,230,660,0,0,0,0,0,0,0,0,0
0,0,0,0,0,0,0,0,0,0,0,0,0,0,0,0,0,0,0,-1,237,660,0,0,0,0,0,0,0,0,0
0,0,0,0,0,0,0,0,0,0,0,0,0,0,0,0,0,0,0,-1,244,660,0,0,0,0,0,0,0,0,0
0,0,0,0,0,0,0,0,0,0,0,0,0,0,0,0,0,0,0,-1,251,660,0,0,0,0,0,0,0,0,0
0,0,0,0,0,0,0,0,0,0,0,0,0,0,0,0,0,0,0,-1,258,660,0,0,0,0,0,0,0,0,0
0,0,0,0,0,0,0,0,0,0,0,0,0,0,0,0,0,0,0,-1,265,660,0,0,0,0,0,0,0,0,0
0,0,0,0,0,0,0,0,0,0,0,0,0,0,0,0,0,0,0,-1,272,660,0,0,0,0,0,0,0,0,0
0,0,0,0,0,0,0,0,0,0,0,0,0,0,0,0,0,0,0,-1,279,660,0,0,0,0,0,0,0,0,0
0,0,0,0,0,0,0,0,0,0,0,0,0,0,0,0,0,0,0,-1,286,660,0,0,0,0,0,0,0,0,0
0,0,0,0,0,0,0,0,0,0,0,0,0,0,0,0,0,0,0,-1,293,660,0,0,0,0,0,0,0,0,0
0,0,0,0,0,0,0,0,0,0,0,0,0,0,0,0,0,0,0,-1,300,660,0,0,0,0,0,0,0,0,0
0,0,0,0,0,0,0,0,0,0,0,0,0,0,0,0,0,0,0,-1,307,660,0,0,0,0,0,0,0,0,0
0,0,0,0,0,0,0,0,0,0,0,0,0,0,0,0,0,0,0,-1,314,660,0,0,0,0,0,0,0,0,0
0,0,0,0,0,0,0,0,0,0,0,0,0,0,0,0,0,0,0,-1,321,660,0,0,0,0,0,0,0,0,0
0,0,0,0,0,0,0,0,0,0,0,0,0,0,0,0,0,0,0,-1,328,660,0,0,0,0,0,0,0,0,0
0,0,0,0,0,0,0,0,0,0,0,0,0,0,0,0,0,0,0,-1,335,660,0,0,0,0,0,0,0,0,0
0,0,0,0,0,0,0,0,0,0,0,0,0,0,0,0,0,0,0,-1,342,660,0,0,0,0,0,0,0,0,0
0,0,0,0,0,0,0,0,0,0,0,0,0,0,0,0,0,0,0,-1,349,660,0,0,0,0,0,0,0,0,0
0,0,0,0,0,0,0,0,0,0,0,0,0,0,0,0,0,0,0,-1,356,660,0,0,0,0,0,0,0,0,0
0,0,0,0,0,0,0,0,0,0,0,0,0,0,0,0,0,0,0,-1,363,660,0,0,0,0,0,0,0,0,0
0,0,0,0,0,0,0,0,0,0,0,0,0,0,0,0,0,0,0,-1,370,660,0,0,0,0,0,0,0,0,0
0,0,0,0,0,0,0,0,0,0,0,0,0,0,0,0,0,0,0,-1,377,660,0,0,0,0,0,0,0,0,0
0,0,0,0,0,0,0,0,0,0,0,0,0,0,0,0,0,0,0,-1,384,660,0,0,0,0,0,0,0,0,0
0,0,0,0,0,0,0,0,0,0,0,0,0,0,0,0,0,0,0,-1,391,660,0,0,0,0,0,0,0,0,0
0,0,0,0,0,0,0,0,0,0,0,0,0,0,0,0,0,0,0,-1,398,660,0,0,0,0,0,0,0,0,0
0,0,0,0,0,0,0,0,0,0,0,0,0,0,0,0,0,0,0,-1,405,660,0,0,0,0,0,0,0,0,0
0,0,0,0,0,0,0,0,0,0,0,0,0,0,0,0,0,0,0,-1,412,660,0,0,0,0,0,0,0,0,0
0,0,0,0,0,0,0,0,0,0,0,0,0,0,0,0,0,0,0,-1,419,660,0,0,0,0,0,0,0,0,0
0,0,0,0,0,0,0,0,0,0,0,0,0,0,0,0,0,0,0,-1,426,660,0,0,0,0,0,0,0,0,0
0,0,0,0,0,0,0,0,0,0,0,0,0,0,0,0,0,0,0,-1,433,660,0,0,0,0,0,0,0,0,0
0,0,0,0,0,0,0,0,0,0,0,0,0,0,0,0,0,0,0,-1,440,660,0,0,0,0,0,0,0,0,0
0,0,0,0,0,0,0,0,0,0,0,0,0,0,0,0,0,0,0,-1,447,660,0,0,0,0,0,0,0,0,0
0,0,0,0,0,0,0,0,0,0,0,0,0,0,0,0,0,0,0,-1,454,660,0,0,0,0,0,0,0,0,0
0,0,0,0,0,0,0,0,0,0,0,0,0,0,0,0,0,0,0,-1,461,660,0,0,0,0,0,0,0,0,0
0,0,0,0,0,0,0,0,0,0,0,0,0,0,0,0,0,0,0,-1,468,660,0,0,0,0,0,0,0,0,0
0,0,0,0,0,0,0,0,0,0,0,0,0,0,0,0,0,0,0,-1,475,660,0,0,0,0,0,0,0,0,0
0,0,0,0,0,0,0,0,0,0,0,0,0,0,0,0,0,0,0,-1,482,660,0,0,0,0,0,0,0,0,0
0,0,0,0,0,0,0,0,0,0,0,0,0,0,0,0,0,0,0,-1,489,660,0,0,0,0,0,0,0,0,0
0,0,0,0,0,0,0,0,0,0,0,0,0,0,0,0,0,0,0,-1,496,660,0,0,0,0,0,0,0,0,0
0,0,0,0,0,0,0,0,0,0,0,0,0,0,0,0,0,0,0,-1,503,660,0,0,0,0,0,0,0,0,0
0,0,0,0,0,0,0,0,0,0,0,0,0,0,0,0,0,0,0,-1,510,660,0,0,0,0,0,0,0,0,0
0,0,0,0,0,0,0,0,0,0,0,0,0,0,0,0,0,0,0,-1,517,660,0,0,0,0,0,0,0,0,0
0,0,0,0,0,0,0,0,0,0,0,0,0,0,0,0,0,0,0,-1,524,660,0,0,0,0,0,0,0,0,0
0,0,0,0,0,0,0,0,0,0,0,0,0,0,0,0,0,0,0,-1,531,660,0,0,0,0,0,0,0,0,0
0,0,0,0,0,0,0,0,0,0,0,0,0,0,0,0,0,0,0,-1,538,660,0,0,0,0,0,0,0,0,0
0,0,0,0,0,0,0,0,0,0,0,0,0,0,0,0,0,0,0,-1,545,660,0,0,0,0,0,0,0,0,0
0,0,0,0,0,0,0,0,0,0,0,0,0,0,0,0,0,0,0,-1,552,660,0,0,0,0,0,0,0,0,0
0,0,0,0,0,0,0,0,0,0,0,0,0,0,0,0,0,0,0,-1,559,660,0,0,0,0,0,0,0,0,0
0,0,0,0,0,0,0,0,0,0,0,0,0,0,0,0,0,0,0,-1,566,660,0,0,0,0,0,0,0,0,0
0,0,0,0,0,0,0,0,0,0,0,0,0,0,0,0,0,0,0,-1,573,660,0,0,0,0,0,0,0,0,0
0,0,0,0,0,0,0,0,0,0,0,0,0,0,0,0,0,0,0,-1,580,660,0,0,0,0,0,0,0,0,0
0,0,0,0,0,0,0,0,0,0,0,0,0,0,0,0,0,0,0,-1,587,660,0,0,0,0,0,0,0,0,0
0,0,0,0,0,0,0,0,0,0,0,0,0,0,0,0,0,0,0,-1,594,660,0,0,0,0,0,0,0,0,0
0,0,0,0,0,0,0,0,0,0,0,0,0,0,0,0,0,0,0,-1,601,660,0,0,0,0,0,0,0,0,0

